*Heading
** Job name: ellipseheng Model name: ellipseHeng
** Generated by: Abaqus/CAE 2021
*Preprint, echo=NO, model=NO, history=NO, contact=NO
**
** PARTS
**
*Part, name=cylinder
*Node
      1,   72.6548691,          30.,   46.9750137
      2,   71.6628723,          30.,   44.0955849
      3,   70.1294861,          30.,   41.4627342
      4,   65.9075928,          30.,   37.0858841
      5,   63.4072647,          30.,   35.3402519
      6,   57.9375267,          30.,   32.6555138
      7,   49.0830994,          30.,    30.415472
      8,   42.9999504,          30.,          30.
      9,   36.9168015,          30.,   30.4154854
     10,   28.0623798,          30.,   32.6555481
     11,   22.5926533,          30.,   35.3403015
     12,   20.0923309,          30.,   37.0859489
     13,   15.8704844,          30.,   41.4627762
     14,   14.3371067,          30.,   44.0956306
     15,   13.3451195,          30.,   46.9750633
     16,          73.,          30.,          50.
     17,          13.,          30.,          50.
     18,     13.34513,          30.,   53.0249863
     19,   14.3371286,          30.,   55.9044151
     20,   15.8705158,          30.,   58.5372658
     21,   20.0924091,          30.,   62.9141159
     22,   22.5927353,          30.,   64.6597519
     23,   28.0624714,          30.,   67.3444901
     24,   36.9169006,          30.,   69.5845261
     25,   43.0000496,          30.,          70.
     26,   49.0831985,          30.,   69.5845108
     27,   57.9376221,          30.,   67.3444519
     28,   63.4073448,          30.,   64.6596985
     29,   65.9076691,          30.,   62.9140511
     30,   70.1295166,          30.,   58.5372238
     31,   71.6628952,          30.,   55.9043694
     32,   72.6548843,          30.,   53.0249367
     33,   68.1757355,          30.,   39.1232681
     34,   60.7356377,          30.,   33.8693237
     35,   55.0464287,          30.,   31.6832371
     36,   52.0880966,          30.,    30.939785
     37,   46.0486526,          30.,   30.1035385
     38,    39.951252,          30.,   30.1035442
     39,    33.911808,          30.,    30.939806
     40,    30.953476,          30.,   31.6832657
     41,   25.2642746,          30.,   33.8693657
     42,   17.8242264,          30.,   39.1233101
     43,   17.8242664,          30.,   60.8767319
     44,   25.2643623,          30.,   66.1306763
     45,   30.9535713,          30.,   68.3167648
     46,   33.9119034,          30.,   69.0602112
     47,   39.9513474,          30.,   69.8964615
     48,    46.048748,          30.,   69.8964539
     49,    52.088192,          30.,   69.0601959
     50,    55.046524,          30.,   68.3167343
     51,   60.7357254,          30.,   66.1306305
     52,   68.1757736,          30.,   60.8766899
     53,   69.5258942,          30.,   54.9326172
     54,   64.1362152,          30.,   39.5261269
     55,    57.247551,          30.,   64.6263275
     56,   54.0768356,          30.,   34.4577789
     57,   43.6298828,          30.,   67.1327744
     58,   42.7476616,          30.,     32.92099
     59,   37.8993492,          30.,    66.756813
     60,    37.015358,          30.,   33.2688141
     61,   34.1916924,          30.,   33.7330208
     62,   28.7034397,          30.,    35.439743
     63,   23.5378151,          30.,   38.3724174
     64,   18.3707294,          30.,   42.2230301
     65,   17.5704823,          30.,   44.7255058
     66,   18.5653095,          30.,    57.082756
     67,   22.2543087,          30.,   60.9667015
     68,    24.538969,          30.,   62.4953651
     69,   48.4760628,          30.,   33.2820206
     70,   56.7746696,          30.,   35.3850746
     71,   61.8235703,          30.,   37.9440575
     72,   62.3097076,          30.,   62.2839966
     73,   68.0834503,          30.,   43.0681152
     74,   68.2229538,          30.,   57.0601044
     75,   66.2435303,          30.,   41.2466316
     76,   59.3624077,          30.,   36.5506859
     77,   49.2157326,          30.,   66.8326569
     78,   51.3129425,          30.,     33.76194
     79,   45.6300278,          30.,   33.0115128
     80,   39.8908348,          30.,   33.0049286
     81,   29.6094284,          30.,     64.79953
     82,   31.4259739,          30.,   34.4241028
     83,    26.122242,          30.,   36.8125534
     84,   18.9883251,          30.,   40.2219696
     85,   20.2135029,          30.,   59.1246033
     86,   26.9988728,          30.,   63.7630272
     87,   32.2842102,          30.,   65.6375961
     88,   35.0398788,          30.,   66.2907639
     89,   40.7461624,          30.,   67.0406723
     90,   46.4250488,          30.,   67.0781174
     91,   51.9684601,          30.,   66.3809967
     92,   54.6127319,          30.,   65.6337662
     93,    59.809845,          30.,   63.5355911
     94,   66.5377045,          30.,   58.9728966
     95,   70.2496796,          30.,   50.0116234
     96,   70.0942841,          30.,   52.5188904
     97,   70.1056366,          30.,   47.5148582
     98,   64.8537827,          30.,   57.0130463
     99,    62.498333,          30.,   41.9572182
    100,   44.1684036,          30.,   64.3484955
    101,   42.5416718,          30.,    35.802124
    102,   37.1260719,          30.,   35.9899559
    103,    31.912077,          30.,     36.91362
    104,   21.2092037,          30.,   42.1310959
    105,   17.1820335,          30.,   54.9506035
    106,   26.2218571,          30.,   60.4008675
    107,   53.2028542,          30.,   37.0906258
    108,   58.8643417,          30.,   60.9530945
    109,   46.7970314,          30.,     64.29142
    110,   27.2437439,          30.,   39.2777252
    111,   21.2205143,          30.,   55.3573036
    112,   22.3584595,          30.,   57.6029472
    113,   56.3867455,          30.,   62.0087929
    114,   55.6932716,          30.,   37.9509315
    115,   47.9744492,          30.,   36.0638542
    116,   38.7373009,          30.,   64.0381927
    117,   39.8389473,          30.,   35.8393555
    118,   24.1088371,          30.,   59.1722679
    119,   21.0357323,          30.,   39.4640694
    120,   16.8759727,          30.,   47.3389816
    121,   16.5025902,          30.,   49.9550247
    122,   16.5540085,          30.,   52.4923401
    123,   29.4750519,          30.,   37.7222748
    124,   28.5420494,          30.,   61.4215622
    125,   34.4689331,          30.,   36.3734932
    126,   50.6344414,          30.,    36.464119
    127,   60.3350182,          30.,   40.4187241
    128,   64.5367813,          30.,   60.7558823
    129,   66.3790894,          30.,   44.8715477
    130,   69.4853439,          30.,   45.1248016
    131,   64.5266571,          30.,   43.5012894
    132,   58.0614624,          30.,   39.0544739
    133,   49.3019943,          30.,    64.213356
    134,   45.2883339,          30.,    35.864769
    135,   30.9813995,          30.,    62.256134
    136,     33.47929,          30.,   62.9758644
    137,    36.038311,          30.,   63.5869789
    138,   41.4302063,          30.,   64.2943802
    139,   51.7340622,          30.,   63.9519806
    140,   53.9813423,          30.,   63.1387787
    141,   67.4889603,          30.,   52.2971764
    142,   19.6211452,          30.,   50.0282173
    143,   19.3978615,          30.,   52.2965508
    144,   67.6650848,          30.,   47.6967201
    145,   60.9839745,          30.,   44.2896843
    146,   24.0277767,          30.,   55.1374474
    147,   58.9454041,          30.,    42.665493
    148,   55.2454071,          30.,   59.4879303
    149,   25.4997253,          30.,   57.4686279
    150,   29.1467876,          30.,   41.0394859
    151,   52.9031525,          30.,   60.8179131
    152,   56.8489685,          30.,   41.3301086
    153,   30.2728672,          30.,   39.3844986
    154,   27.4855042,          30.,   58.3419189
    155,   51.4066048,          30.,   62.0900307
    156,    54.728775,          30.,   40.3304138
    157,   32.2373238,          30.,   39.3974113
    158,   29.7679958,          30.,   59.0754433
    159,   52.4782677,          30.,   39.5564651
    160,   34.6958961,          30.,   38.9447403
    161,   32.1559029,          30.,   59.6202164
    162,   50.1060257,          30.,   39.0519714
    163,   47.1876717,          30.,   61.5444717
    164,   37.2120209,          30.,   38.5316429
    165,   34.5429001,          30.,    60.289463
    166,   47.6472511,          30.,   38.7850266
    167,   44.5611191,          30.,   61.6778717
    168,   39.7127686,          30.,    38.682579
    169,   36.9459648,          30.,   60.9521217
    170,   41.9678764,          30.,   61.6954041
    171,   39.4086037,          30.,   61.4758453
    172,   45.0767441,          30.,   38.6921501
    173,   42.3863678,          30.,   38.7110748
    174,   24.5961475,          30.,   41.6742134
    175,   61.1985397,          30.,   60.0969582
    176,   55.7916832,          30.,   43.2951927
    177,   28.2541256,          30.,   56.3502159
    178,   53.7157021,          30.,   57.3310623
    179,   32.0273056,          30.,   42.2763557
    180,   50.7341576,          30.,   58.8133278
    181,   30.4262714,          30.,   56.8440933
    182,   35.0720825,          30.,   41.4131165
    183,   53.9158134,          30.,   42.5683403
    184,   47.4382057,          30.,   58.9273453
    185,    33.041214,          30.,   56.5920982
    186,   37.1724319,          30.,   40.5728149
    187,   51.9499168,          30.,   41.8477364
    188,   44.7308502,          30.,   59.1676445
    189,   49.8235016,          30.,   41.5736275
    190,   39.1664963,          30.,   41.8740578
    191,   35.5614777,          30.,   57.6811714
    192,   47.5694695,          30.,   41.4928131
    193,   42.3445816,          30.,   41.5935326
    194,   42.2771988,          30.,   59.3158264
    195,    37.841011,          30.,   58.4649544
    196,   45.0886765,          30.,   41.4849129
    197,    39.977314,          30.,   59.1784744
    198,   23.7237911,          30.,   45.1377563
    199,   60.3494949,          30.,    58.391674
    200,   27.5836697,          30.,   43.2286186
    201,   58.0233688,          30.,   58.0963898
    202,   49.8513222,          30.,   55.8540993
    203,   34.7892799,          30.,   54.2829018
    204,    49.993782,          30.,   44.1633835
    205,   36.2482224,          30.,   43.5749626
    206,   45.3517799,          30.,   44.1680717
    207,   36.6720543,          30.,   55.4577103
    208,   47.1110077,          30.,    56.359623
    209,   40.1075058,          30.,   44.8102722
    210,   58.4257469,          30.,   54.3369675
    211,   26.7808304,          30.,   45.8613548
    212,   23.0394611,          30.,   47.8604279
    213,   64.4875183,          30.,   52.8398628
    214,   33.4576302,          30.,   44.9283676
    215,   52.4557915,          30.,   55.0684624
    216,   25.9708405,          30.,   48.4167252
    217,   60.9274178,          30.,   52.2579842
    218,   20.6935787,          30.,   44.9070168
    219,   66.3371735,          30.,   55.3498993
    220,   29.9897976,          30.,   44.1250916
    221,   56.2097092,          30.,   56.0212822
    222,   54.8099709,          30.,   54.1287117
    223,    30.386734,          30.,   46.6688614
    224,   28.8450851,          30.,   49.3535805
    225,   58.4308434,          30.,   51.3706551
    226,   22.4648399,          30.,   50.3223991
    227,   64.5959473,          30.,   49.7221413
    228,   48.9066582,          30.,   53.0817604
    229,   35.0271912,          30.,   47.2168045
    230,    31.202486,          30.,   50.8439484
    231,   56.7858009,          30.,   49.6878548
    232,   25.1677208,          30.,   50.8225861
    233,   61.4010887,          30.,    48.773243
    234,   32.8042946,          30.,    48.889328
    235,   51.4336548,          30.,   52.6240883
    236,   21.9304905,          30.,    52.695118
    237,   63.0517082,          30.,    45.960041
    238,   56.0477753,          30.,   48.2975578
    239,   33.1564941,          30.,   52.6107674
    240,   27.7163906,          30.,   51.6110153
    241,   58.6115761,          30.,   49.3105621
    242,   24.4622059,          30.,   53.0792313
    243,   59.4362602,          30.,   46.2192917
    244,   65.3006668,          30.,   47.1064529
    245,   57.6360054,          30.,   47.4296989
    246,   29.8849373,          30.,   52.7154541
    247,   50.8095245,          30.,   49.9740906
    248,   34.6963539,          30.,   50.8540764
    249,   51.0032387,          30.,   46.9707947
    250,   36.1784554,          30.,   52.5564919
    251,   47.8898163,          30.,   49.9758072
    252,   37.9168777,          30.,   51.4255524
    253,   55.0948296,          30.,   44.7945709
    254,   31.6848087,          30.,    54.268959
    255,   26.8513165,          30.,   53.6842232
    256,   57.6553421,          30.,   44.5082436
    257,   37.5210381,          30.,    45.877533
    258,   46.3911476,          30.,   53.7689514
    259,   48.1575966,          30.,   46.9196663
    260,   38.8502235,          30.,   53.4980621
    261,   45.3785858,          30.,   51.3352089
    262,   38.7592201,          30.,   48.2539177
    263,   43.3265953,          30.,   46.8430176
    264,   41.6282921,          30.,   55.0105972
    265,   40.8853722,          30.,   52.8403435
    266,    45.820961,          30.,   48.5600624
    267,   42.7586555,          30.,   44.3197327
    268,   40.4475403,          30.,   57.3989334
    269,   42.0494194,          30.,   49.8383408
    270,   41.0448494,          30.,   47.4100266
    271,   43.9574509,          30.,   54.4072533
    272,   43.0807877,          30.,   52.1303596
    273,   20.0720787,          30.,   47.5422592
    274,   19.2821617,          30.,   54.1353416
    275,   63.1057014,          30.,   58.7198639
    276,   67.7481003,          30.,   54.1932373
    277,   67.4813766,          30.,   49.9650421
    278,   67.8375702,          30.,   45.8922653
    279,   63.1173668,          30.,   55.2274666
    280,   23.9585705,          30.,   56.6781311
    281,   26.2027836,          30.,    55.633934
    282,    61.336956,          30.,   54.3754768
    283,   59.7883606,          30.,   55.8339844
    284,   61.5589256,          30.,   57.0404892
    285,   28.8441944,          30.,   54.4625244
    286,   49.6240807,          30.,   61.6276169
    287,   56.8710403,          30.,    52.958065
    288,   36.5890999,          30.,   49.4011002
    289,   56.2623062,          30.,   45.9445992
    290,   53.2131271,          30.,   45.0796776
    291,   47.8109932,          30.,   44.2313423
    292,   51.6513214,          30.,   43.7319603
    293,   57.0088844,          30.,   50.8470345
    294,   55.7205391,          30.,   51.5851631
    295,    53.750309,          30.,   52.1757774
    296,    39.909584,          30.,   50.5724983
    297,   30.3593502,          30.,   55.1999626
    298,    54.703598,          30.,    46.931881
    299,     55.14991,          30.,   50.1318436
    300,   53.2119675,          30.,   50.1473732
    301,   44.5306778,          30.,   56.7579956
    302,   45.7276077,          30.,   46.6239967
    303,   39.0665016,          30.,   55.9654274
    304,   42.2286873,          30.,   57.0860214
    305,   44.1511383,          30.,   49.2068748
    306,   37.2552261,          30.,   53.8390388
    307,   54.9376907,          30.,   48.9445496
    308,   53.4485512,          30.,   48.2442551
    309,   72.6548691,          27.,   46.9750137
    310,   71.6628723,          27.,   44.0955849
    311,   70.1294861,          27.,   41.4627342
    312,   65.9075928,          27.,   37.0858841
    313,   63.4072647,          27.,   35.3402519
    314,   57.9375267,          27.,   32.6555138
    315,   49.0830994,          27.,    30.415472
    316,   42.9999504,          27.,          30.
    317,   36.9168015,          27.,   30.4154854
    318,   28.0623798,          27.,   32.6555481
    319,   22.5926533,          27.,   35.3403015
    320,   20.0923309,          27.,   37.0859489
    321,   15.8704844,          27.,   41.4627762
    322,   14.3371067,          27.,   44.0956306
    323,   13.3451195,          27.,   46.9750633
    324,          73.,          27.,          50.
    325,          13.,          27.,          50.
    326,     13.34513,          27.,   53.0249863
    327,   14.3371286,          27.,   55.9044151
    328,   15.8705158,          27.,   58.5372658
    329,   20.0924091,          27.,   62.9141159
    330,   22.5927353,          27.,   64.6597519
    331,   28.0624714,          27.,   67.3444901
    332,   36.9169006,          27.,   69.5845261
    333,   43.0000496,          27.,          70.
    334,   49.0831985,          27.,   69.5845108
    335,   57.9376221,          27.,   67.3444519
    336,   63.4073448,          27.,   64.6596985
    337,   65.9076691,          27.,   62.9140511
    338,   70.1295166,          27.,   58.5372238
    339,   71.6628952,          27.,   55.9043694
    340,   72.6548843,          27.,   53.0249367
    341,   68.1757355,          27.,   39.1232681
    342,   60.7356377,          27.,   33.8693237
    343,   55.0464287,          27.,   31.6832371
    344,   52.0880966,          27.,    30.939785
    345,   46.0486526,          27.,   30.1035385
    346,    39.951252,          27.,   30.1035442
    347,    33.911808,          27.,    30.939806
    348,    30.953476,          27.,   31.6832657
    349,   25.2642746,          27.,   33.8693657
    350,   17.8242264,          27.,   39.1233101
    351,   17.8242664,          27.,   60.8767319
    352,   25.2643623,          27.,   66.1306763
    353,   30.9535713,          27.,   68.3167648
    354,   33.9119034,          27.,   69.0602112
    355,   39.9513474,          27.,   69.8964615
    356,    46.048748,          27.,   69.8964539
    357,    52.088192,          27.,   69.0601959
    358,    55.046524,          27.,   68.3167343
    359,   60.7357254,          27.,   66.1306305
    360,   68.1757736,          27.,   60.8766899
    361,   69.5258942,          27.,   54.9326172
    362,   64.1362152,          27.,   39.5261269
    363,    57.247551,          27.,   64.6263275
    364,   54.0768356,          27.,   34.4577789
    365,   43.6298828,          27.,   67.1327744
    366,   42.7476616,          27.,     32.92099
    367,   37.8993492,          27.,    66.756813
    368,    37.015358,          27.,   33.2688141
    369,   34.1916924,          27.,   33.7330208
    370,   28.7034397,          27.,    35.439743
    371,   23.5378151,          27.,   38.3724174
    372,   18.3707294,          27.,   42.2230301
    373,   17.5704823,          27.,   44.7255058
    374,   18.5653095,          27.,    57.082756
    375,   22.2543087,          27.,   60.9667015
    376,    24.538969,          27.,   62.4953651
    377,   48.4760628,          27.,   33.2820206
    378,   56.7746696,          27.,   35.3850746
    379,   61.8235703,          27.,   37.9440575
    380,   62.3097076,          27.,   62.2839966
    381,   68.0834503,          27.,   43.0681152
    382,   68.2229538,          27.,   57.0601044
    383,   66.2435303,          27.,   41.2466316
    384,   59.3624077,          27.,   36.5506859
    385,   49.2157326,          27.,   66.8326569
    386,   51.3129425,          27.,     33.76194
    387,   45.6300278,          27.,   33.0115128
    388,   39.8908348,          27.,   33.0049286
    389,   29.6094284,          27.,     64.79953
    390,   31.4259739,          27.,   34.4241028
    391,    26.122242,          27.,   36.8125534
    392,   18.9883251,          27.,   40.2219696
    393,   20.2135029,          27.,   59.1246033
    394,   26.9988728,          27.,   63.7630272
    395,   32.2842102,          27.,   65.6375961
    396,   35.0398788,          27.,   66.2907639
    397,   40.7461624,          27.,   67.0406723
    398,   46.4250488,          27.,   67.0781174
    399,   51.9684601,          27.,   66.3809967
    400,   54.6127319,          27.,   65.6337662
    401,    59.809845,          27.,   63.5355911
    402,   66.5377045,          27.,   58.9728966
    403,   70.2496796,          27.,   50.0116234
    404,   70.0942841,          27.,   52.5188904
    405,   70.1056366,          27.,   47.5148582
    406,   64.8537827,          27.,   57.0130463
    407,    62.498333,          27.,   41.9572182
    408,   44.1684036,          27.,   64.3484955
    409,   42.5416718,          27.,    35.802124
    410,   37.1260719,          27.,   35.9899559
    411,    31.912077,          27.,     36.91362
    412,   21.2092037,          27.,   42.1310959
    413,   17.1820335,          27.,   54.9506035
    414,   26.2218571,          27.,   60.4008675
    415,   53.2028542,          27.,   37.0906258
    416,   58.8643417,          27.,   60.9530945
    417,   46.7970314,          27.,     64.29142
    418,   27.2437439,          27.,   39.2777252
    419,   21.2205143,          27.,   55.3573036
    420,   22.3584595,          27.,   57.6029472
    421,   56.3867455,          27.,   62.0087929
    422,   55.6932716,          27.,   37.9509315
    423,   47.9744492,          27.,   36.0638542
    424,   38.7373009,          27.,   64.0381927
    425,   39.8389473,          27.,   35.8393555
    426,   24.1088371,          27.,   59.1722679
    427,   21.0357323,          27.,   39.4640694
    428,   16.8759727,          27.,   47.3389816
    429,   16.5025902,          27.,   49.9550247
    430,   16.5540085,          27.,   52.4923401
    431,   29.4750519,          27.,   37.7222748
    432,   28.5420494,          27.,   61.4215622
    433,   34.4689331,          27.,   36.3734932
    434,   50.6344414,          27.,    36.464119
    435,   60.3350182,          27.,   40.4187241
    436,   64.5367813,          27.,   60.7558823
    437,   66.3790894,          27.,   44.8715477
    438,   69.4853439,          27.,   45.1248016
    439,   64.5266571,          27.,   43.5012894
    440,   58.0614624,          27.,   39.0544739
    441,   49.3019943,          27.,    64.213356
    442,   45.2883339,          27.,    35.864769
    443,   30.9813995,          27.,    62.256134
    444,     33.47929,          27.,   62.9758644
    445,    36.038311,          27.,   63.5869789
    446,   41.4302063,          27.,   64.2943802
    447,   51.7340622,          27.,   63.9519806
    448,   53.9813423,          27.,   63.1387787
    449,   67.4889603,          27.,   52.2971764
    450,   19.6211452,          27.,   50.0282173
    451,   19.3978615,          27.,   52.2965508
    452,   67.6650848,          27.,   47.6967201
    453,   60.9839745,          27.,   44.2896843
    454,   24.0277767,          27.,   55.1374474
    455,   58.9454041,          27.,    42.665493
    456,   55.2454071,          27.,   59.4879303
    457,   25.4997253,          27.,   57.4686279
    458,   29.1467876,          27.,   41.0394859
    459,   52.9031525,          27.,   60.8179131
    460,   56.8489685,          27.,   41.3301086
    461,   30.2728672,          27.,   39.3844986
    462,   27.4855042,          27.,   58.3419189
    463,   51.4066048,          27.,   62.0900307
    464,    54.728775,          27.,   40.3304138
    465,   32.2373238,          27.,   39.3974113
    466,   29.7679958,          27.,   59.0754433
    467,   52.4782677,          27.,   39.5564651
    468,   34.6958961,          27.,   38.9447403
    469,   32.1559029,          27.,   59.6202164
    470,   50.1060257,          27.,   39.0519714
    471,   47.1876717,          27.,   61.5444717
    472,   37.2120209,          27.,   38.5316429
    473,   34.5429001,          27.,    60.289463
    474,   47.6472511,          27.,   38.7850266
    475,   44.5611191,          27.,   61.6778717
    476,   39.7127686,          27.,    38.682579
    477,   36.9459648,          27.,   60.9521217
    478,   41.9678764,          27.,   61.6954041
    479,   39.4086037,          27.,   61.4758453
    480,   45.0767441,          27.,   38.6921501
    481,   42.3863678,          27.,   38.7110748
    482,   24.5961475,          27.,   41.6742134
    483,   61.1985397,          27.,   60.0969582
    484,   55.7916832,          27.,   43.2951927
    485,   28.2541256,          27.,   56.3502159
    486,   53.7157021,          27.,   57.3310623
    487,   32.0273056,          27.,   42.2763557
    488,   50.7341576,          27.,   58.8133278
    489,   30.4262714,          27.,   56.8440933
    490,   35.0720825,          27.,   41.4131165
    491,   53.9158134,          27.,   42.5683403
    492,   47.4382057,          27.,   58.9273453
    493,    33.041214,          27.,   56.5920982
    494,   37.1724319,          27.,   40.5728149
    495,   51.9499168,          27.,   41.8477364
    496,   44.7308502,          27.,   59.1676445
    497,   49.8235016,          27.,   41.5736275
    498,   39.1664963,          27.,   41.8740578
    499,   35.5614777,          27.,   57.6811714
    500,   47.5694695,          27.,   41.4928131
    501,   42.3445816,          27.,   41.5935326
    502,   42.2771988,          27.,   59.3158264
    503,    37.841011,          27.,   58.4649544
    504,   45.0886765,          27.,   41.4849129
    505,    39.977314,          27.,   59.1784744
    506,   23.7237911,          27.,   45.1377563
    507,   60.3494949,          27.,    58.391674
    508,   27.5836697,          27.,   43.2286186
    509,   58.0233688,          27.,   58.0963898
    510,   49.8513222,          27.,   55.8540993
    511,   34.7892799,          27.,   54.2829018
    512,    49.993782,          27.,   44.1633835
    513,   36.2482224,          27.,   43.5749626
    514,   45.3517799,          27.,   44.1680717
    515,   36.6720543,          27.,   55.4577103
    516,   47.1110077,          27.,    56.359623
    517,   40.1075058,          27.,   44.8102722
    518,   58.4257469,          27.,   54.3369675
    519,   26.7808304,          27.,   45.8613548
    520,   23.0394611,          27.,   47.8604279
    521,   64.4875183,          27.,   52.8398628
    522,   33.4576302,          27.,   44.9283676
    523,   52.4557915,          27.,   55.0684624
    524,   25.9708405,          27.,   48.4167252
    525,   60.9274178,          27.,   52.2579842
    526,   20.6935787,          27.,   44.9070168
    527,   66.3371735,          27.,   55.3498993
    528,   29.9897976,          27.,   44.1250916
    529,   56.2097092,          27.,   56.0212822
    530,   54.8099709,          27.,   54.1287117
    531,    30.386734,          27.,   46.6688614
    532,   28.8450851,          27.,   49.3535805
    533,   58.4308434,          27.,   51.3706551
    534,   22.4648399,          27.,   50.3223991
    535,   64.5959473,          27.,   49.7221413
    536,   48.9066582,          27.,   53.0817604
    537,   35.0271912,          27.,   47.2168045
    538,    31.202486,          27.,   50.8439484
    539,   56.7858009,          27.,   49.6878548
    540,   25.1677208,          27.,   50.8225861
    541,   61.4010887,          27.,    48.773243
    542,   32.8042946,          27.,    48.889328
    543,   51.4336548,          27.,   52.6240883
    544,   21.9304905,          27.,    52.695118
    545,   63.0517082,          27.,    45.960041
    546,   56.0477753,          27.,   48.2975578
    547,   33.1564941,          27.,   52.6107674
    548,   27.7163906,          27.,   51.6110153
    549,   58.6115761,          27.,   49.3105621
    550,   24.4622059,          27.,   53.0792313
    551,   59.4362602,          27.,   46.2192917
    552,   65.3006668,          27.,   47.1064529
    553,   57.6360054,          27.,   47.4296989
    554,   29.8849373,          27.,   52.7154541
    555,   50.8095245,          27.,   49.9740906
    556,   34.6963539,          27.,   50.8540764
    557,   51.0032387,          27.,   46.9707947
    558,   36.1784554,          27.,   52.5564919
    559,   47.8898163,          27.,   49.9758072
    560,   37.9168777,          27.,   51.4255524
    561,   55.0948296,          27.,   44.7945709
    562,   31.6848087,          27.,    54.268959
    563,   26.8513165,          27.,   53.6842232
    564,   57.6553421,          27.,   44.5082436
    565,   37.5210381,          27.,    45.877533
    566,   46.3911476,          27.,   53.7689514
    567,   48.1575966,          27.,   46.9196663
    568,   38.8502235,          27.,   53.4980621
    569,   45.3785858,          27.,   51.3352089
    570,   38.7592201,          27.,   48.2539177
    571,   43.3265953,          27.,   46.8430176
    572,   41.6282921,          27.,   55.0105972
    573,   40.8853722,          27.,   52.8403435
    574,    45.820961,          27.,   48.5600624
    575,   42.7586555,          27.,   44.3197327
    576,   40.4475403,          27.,   57.3989334
    577,   42.0494194,          27.,   49.8383408
    578,   41.0448494,          27.,   47.4100266
    579,   43.9574509,          27.,   54.4072533
    580,   43.0807877,          27.,   52.1303596
    581,   20.0720787,          27.,   47.5422592
    582,   19.2821617,          27.,   54.1353416
    583,   63.1057014,          27.,   58.7198639
    584,   67.7481003,          27.,   54.1932373
    585,   67.4813766,          27.,   49.9650421
    586,   67.8375702,          27.,   45.8922653
    587,   63.1173668,          27.,   55.2274666
    588,   23.9585705,          27.,   56.6781311
    589,   26.2027836,          27.,    55.633934
    590,    61.336956,          27.,   54.3754768
    591,   59.7883606,          27.,   55.8339844
    592,   61.5589256,          27.,   57.0404892
    593,   28.8441944,          27.,   54.4625244
    594,   49.6240807,          27.,   61.6276169
    595,   56.8710403,          27.,    52.958065
    596,   36.5890999,          27.,   49.4011002
    597,   56.2623062,          27.,   45.9445992
    598,   53.2131271,          27.,   45.0796776
    599,   47.8109932,          27.,   44.2313423
    600,   51.6513214,          27.,   43.7319603
    601,   57.0088844,          27.,   50.8470345
    602,   55.7205391,          27.,   51.5851631
    603,    53.750309,          27.,   52.1757774
    604,    39.909584,          27.,   50.5724983
    605,   30.3593502,          27.,   55.1999626
    606,    54.703598,          27.,    46.931881
    607,     55.14991,          27.,   50.1318436
    608,   53.2119675,          27.,   50.1473732
    609,   44.5306778,          27.,   56.7579956
    610,   45.7276077,          27.,   46.6239967
    611,   39.0665016,          27.,   55.9654274
    612,   42.2286873,          27.,   57.0860214
    613,   44.1511383,          27.,   49.2068748
    614,   37.2552261,          27.,   53.8390388
    615,   54.9376907,          27.,   48.9445496
    616,   53.4485512,          27.,   48.2442551
    617,   72.6548691,          24.,   46.9750137
    618,   71.6628723,          24.,   44.0955849
    619,   70.1294861,          24.,   41.4627342
    620,   65.9075928,          24.,   37.0858841
    621,   63.4072647,          24.,   35.3402519
    622,   57.9375267,          24.,   32.6555138
    623,   49.0830994,          24.,    30.415472
    624,   42.9999504,          24.,          30.
    625,   36.9168015,          24.,   30.4154854
    626,   28.0623798,          24.,   32.6555481
    627,   22.5926533,          24.,   35.3403015
    628,   20.0923309,          24.,   37.0859489
    629,   15.8704844,          24.,   41.4627762
    630,   14.3371067,          24.,   44.0956306
    631,   13.3451195,          24.,   46.9750633
    632,          73.,          24.,          50.
    633,          13.,          24.,          50.
    634,     13.34513,          24.,   53.0249863
    635,   14.3371286,          24.,   55.9044151
    636,   15.8705158,          24.,   58.5372658
    637,   20.0924091,          24.,   62.9141159
    638,   22.5927353,          24.,   64.6597519
    639,   28.0624714,          24.,   67.3444901
    640,   36.9169006,          24.,   69.5845261
    641,   43.0000496,          24.,          70.
    642,   49.0831985,          24.,   69.5845108
    643,   57.9376221,          24.,   67.3444519
    644,   63.4073448,          24.,   64.6596985
    645,   65.9076691,          24.,   62.9140511
    646,   70.1295166,          24.,   58.5372238
    647,   71.6628952,          24.,   55.9043694
    648,   72.6548843,          24.,   53.0249367
    649,   68.1757355,          24.,   39.1232681
    650,   60.7356377,          24.,   33.8693237
    651,   55.0464287,          24.,   31.6832371
    652,   52.0880966,          24.,    30.939785
    653,   46.0486526,          24.,   30.1035385
    654,    39.951252,          24.,   30.1035442
    655,    33.911808,          24.,    30.939806
    656,    30.953476,          24.,   31.6832657
    657,   25.2642746,          24.,   33.8693657
    658,   17.8242264,          24.,   39.1233101
    659,   17.8242664,          24.,   60.8767319
    660,   25.2643623,          24.,   66.1306763
    661,   30.9535713,          24.,   68.3167648
    662,   33.9119034,          24.,   69.0602112
    663,   39.9513474,          24.,   69.8964615
    664,    46.048748,          24.,   69.8964539
    665,    52.088192,          24.,   69.0601959
    666,    55.046524,          24.,   68.3167343
    667,   60.7357254,          24.,   66.1306305
    668,   68.1757736,          24.,   60.8766899
    669,   69.5258942,          24.,   54.9326172
    670,   64.1362152,          24.,   39.5261269
    671,    57.247551,          24.,   64.6263275
    672,   54.0768356,          24.,   34.4577789
    673,   43.6298828,          24.,   67.1327744
    674,   42.7476616,          24.,     32.92099
    675,   37.8993492,          24.,    66.756813
    676,    37.015358,          24.,   33.2688141
    677,   34.1916924,          24.,   33.7330208
    678,   28.7034397,          24.,    35.439743
    679,   23.5378151,          24.,   38.3724174
    680,   18.3707294,          24.,   42.2230301
    681,   17.5704823,          24.,   44.7255058
    682,   18.5653095,          24.,    57.082756
    683,   22.2543087,          24.,   60.9667015
    684,    24.538969,          24.,   62.4953651
    685,   48.4760628,          24.,   33.2820206
    686,   56.7746696,          24.,   35.3850746
    687,   61.8235703,          24.,   37.9440575
    688,   62.3097076,          24.,   62.2839966
    689,   68.0834503,          24.,   43.0681152
    690,   68.2229538,          24.,   57.0601044
    691,   66.2435303,          24.,   41.2466316
    692,   59.3624077,          24.,   36.5506859
    693,   49.2157326,          24.,   66.8326569
    694,   51.3129425,          24.,     33.76194
    695,   45.6300278,          24.,   33.0115128
    696,   39.8908348,          24.,   33.0049286
    697,   29.6094284,          24.,     64.79953
    698,   31.4259739,          24.,   34.4241028
    699,    26.122242,          24.,   36.8125534
    700,   18.9883251,          24.,   40.2219696
    701,   20.2135029,          24.,   59.1246033
    702,   26.9988728,          24.,   63.7630272
    703,   32.2842102,          24.,   65.6375961
    704,   35.0398788,          24.,   66.2907639
    705,   40.7461624,          24.,   67.0406723
    706,   46.4250488,          24.,   67.0781174
    707,   51.9684601,          24.,   66.3809967
    708,   54.6127319,          24.,   65.6337662
    709,    59.809845,          24.,   63.5355911
    710,   66.5377045,          24.,   58.9728966
    711,   70.2496796,          24.,   50.0116234
    712,   70.0942841,          24.,   52.5188904
    713,   70.1056366,          24.,   47.5148582
    714,   64.8537827,          24.,   57.0130463
    715,    62.498333,          24.,   41.9572182
    716,   44.1684036,          24.,   64.3484955
    717,   42.5416718,          24.,    35.802124
    718,   37.1260719,          24.,   35.9899559
    719,    31.912077,          24.,     36.91362
    720,   21.2092037,          24.,   42.1310959
    721,   17.1820335,          24.,   54.9506035
    722,   26.2218571,          24.,   60.4008675
    723,   53.2028542,          24.,   37.0906258
    724,   58.8643417,          24.,   60.9530945
    725,   46.7970314,          24.,     64.29142
    726,   27.2437439,          24.,   39.2777252
    727,   21.2205143,          24.,   55.3573036
    728,   22.3584595,          24.,   57.6029472
    729,   56.3867455,          24.,   62.0087929
    730,   55.6932716,          24.,   37.9509315
    731,   47.9744492,          24.,   36.0638542
    732,   38.7373009,          24.,   64.0381927
    733,   39.8389473,          24.,   35.8393555
    734,   24.1088371,          24.,   59.1722679
    735,   21.0357323,          24.,   39.4640694
    736,   16.8759727,          24.,   47.3389816
    737,   16.5025902,          24.,   49.9550247
    738,   16.5540085,          24.,   52.4923401
    739,   29.4750519,          24.,   37.7222748
    740,   28.5420494,          24.,   61.4215622
    741,   34.4689331,          24.,   36.3734932
    742,   50.6344414,          24.,    36.464119
    743,   60.3350182,          24.,   40.4187241
    744,   64.5367813,          24.,   60.7558823
    745,   66.3790894,          24.,   44.8715477
    746,   69.4853439,          24.,   45.1248016
    747,   64.5266571,          24.,   43.5012894
    748,   58.0614624,          24.,   39.0544739
    749,   49.3019943,          24.,    64.213356
    750,   45.2883339,          24.,    35.864769
    751,   30.9813995,          24.,    62.256134
    752,     33.47929,          24.,   62.9758644
    753,    36.038311,          24.,   63.5869789
    754,   41.4302063,          24.,   64.2943802
    755,   51.7340622,          24.,   63.9519806
    756,   53.9813423,          24.,   63.1387787
    757,   67.4889603,          24.,   52.2971764
    758,   19.6211452,          24.,   50.0282173
    759,   19.3978615,          24.,   52.2965508
    760,   67.6650848,          24.,   47.6967201
    761,   60.9839745,          24.,   44.2896843
    762,   24.0277767,          24.,   55.1374474
    763,   58.9454041,          24.,    42.665493
    764,   55.2454071,          24.,   59.4879303
    765,   25.4997253,          24.,   57.4686279
    766,   29.1467876,          24.,   41.0394859
    767,   52.9031525,          24.,   60.8179131
    768,   56.8489685,          24.,   41.3301086
    769,   30.2728672,          24.,   39.3844986
    770,   27.4855042,          24.,   58.3419189
    771,   51.4066048,          24.,   62.0900307
    772,    54.728775,          24.,   40.3304138
    773,   32.2373238,          24.,   39.3974113
    774,   29.7679958,          24.,   59.0754433
    775,   52.4782677,          24.,   39.5564651
    776,   34.6958961,          24.,   38.9447403
    777,   32.1559029,          24.,   59.6202164
    778,   50.1060257,          24.,   39.0519714
    779,   47.1876717,          24.,   61.5444717
    780,   37.2120209,          24.,   38.5316429
    781,   34.5429001,          24.,    60.289463
    782,   47.6472511,          24.,   38.7850266
    783,   44.5611191,          24.,   61.6778717
    784,   39.7127686,          24.,    38.682579
    785,   36.9459648,          24.,   60.9521217
    786,   41.9678764,          24.,   61.6954041
    787,   39.4086037,          24.,   61.4758453
    788,   45.0767441,          24.,   38.6921501
    789,   42.3863678,          24.,   38.7110748
    790,   24.5961475,          24.,   41.6742134
    791,   61.1985397,          24.,   60.0969582
    792,   55.7916832,          24.,   43.2951927
    793,   28.2541256,          24.,   56.3502159
    794,   53.7157021,          24.,   57.3310623
    795,   32.0273056,          24.,   42.2763557
    796,   50.7341576,          24.,   58.8133278
    797,   30.4262714,          24.,   56.8440933
    798,   35.0720825,          24.,   41.4131165
    799,   53.9158134,          24.,   42.5683403
    800,   47.4382057,          24.,   58.9273453
    801,    33.041214,          24.,   56.5920982
    802,   37.1724319,          24.,   40.5728149
    803,   51.9499168,          24.,   41.8477364
    804,   44.7308502,          24.,   59.1676445
    805,   49.8235016,          24.,   41.5736275
    806,   39.1664963,          24.,   41.8740578
    807,   35.5614777,          24.,   57.6811714
    808,   47.5694695,          24.,   41.4928131
    809,   42.3445816,          24.,   41.5935326
    810,   42.2771988,          24.,   59.3158264
    811,    37.841011,          24.,   58.4649544
    812,   45.0886765,          24.,   41.4849129
    813,    39.977314,          24.,   59.1784744
    814,   23.7237911,          24.,   45.1377563
    815,   60.3494949,          24.,    58.391674
    816,   27.5836697,          24.,   43.2286186
    817,   58.0233688,          24.,   58.0963898
    818,   49.8513222,          24.,   55.8540993
    819,   34.7892799,          24.,   54.2829018
    820,    49.993782,          24.,   44.1633835
    821,   36.2482224,          24.,   43.5749626
    822,   45.3517799,          24.,   44.1680717
    823,   36.6720543,          24.,   55.4577103
    824,   47.1110077,          24.,    56.359623
    825,   40.1075058,          24.,   44.8102722
    826,   58.4257469,          24.,   54.3369675
    827,   26.7808304,          24.,   45.8613548
    828,   23.0394611,          24.,   47.8604279
    829,   64.4875183,          24.,   52.8398628
    830,   33.4576302,          24.,   44.9283676
    831,   52.4557915,          24.,   55.0684624
    832,   25.9708405,          24.,   48.4167252
    833,   60.9274178,          24.,   52.2579842
    834,   20.6935787,          24.,   44.9070168
    835,   66.3371735,          24.,   55.3498993
    836,   29.9897976,          24.,   44.1250916
    837,   56.2097092,          24.,   56.0212822
    838,   54.8099709,          24.,   54.1287117
    839,    30.386734,          24.,   46.6688614
    840,   28.8450851,          24.,   49.3535805
    841,   58.4308434,          24.,   51.3706551
    842,   22.4648399,          24.,   50.3223991
    843,   64.5959473,          24.,   49.7221413
    844,   48.9066582,          24.,   53.0817604
    845,   35.0271912,          24.,   47.2168045
    846,    31.202486,          24.,   50.8439484
    847,   56.7858009,          24.,   49.6878548
    848,   25.1677208,          24.,   50.8225861
    849,   61.4010887,          24.,    48.773243
    850,   32.8042946,          24.,    48.889328
    851,   51.4336548,          24.,   52.6240883
    852,   21.9304905,          24.,    52.695118
    853,   63.0517082,          24.,    45.960041
    854,   56.0477753,          24.,   48.2975578
    855,   33.1564941,          24.,   52.6107674
    856,   27.7163906,          24.,   51.6110153
    857,   58.6115761,          24.,   49.3105621
    858,   24.4622059,          24.,   53.0792313
    859,   59.4362602,          24.,   46.2192917
    860,   65.3006668,          24.,   47.1064529
    861,   57.6360054,          24.,   47.4296989
    862,   29.8849373,          24.,   52.7154541
    863,   50.8095245,          24.,   49.9740906
    864,   34.6963539,          24.,   50.8540764
    865,   51.0032387,          24.,   46.9707947
    866,   36.1784554,          24.,   52.5564919
    867,   47.8898163,          24.,   49.9758072
    868,   37.9168777,          24.,   51.4255524
    869,   55.0948296,          24.,   44.7945709
    870,   31.6848087,          24.,    54.268959
    871,   26.8513165,          24.,   53.6842232
    872,   57.6553421,          24.,   44.5082436
    873,   37.5210381,          24.,    45.877533
    874,   46.3911476,          24.,   53.7689514
    875,   48.1575966,          24.,   46.9196663
    876,   38.8502235,          24.,   53.4980621
    877,   45.3785858,          24.,   51.3352089
    878,   38.7592201,          24.,   48.2539177
    879,   43.3265953,          24.,   46.8430176
    880,   41.6282921,          24.,   55.0105972
    881,   40.8853722,          24.,   52.8403435
    882,    45.820961,          24.,   48.5600624
    883,   42.7586555,          24.,   44.3197327
    884,   40.4475403,          24.,   57.3989334
    885,   42.0494194,          24.,   49.8383408
    886,   41.0448494,          24.,   47.4100266
    887,   43.9574509,          24.,   54.4072533
    888,   43.0807877,          24.,   52.1303596
    889,   20.0720787,          24.,   47.5422592
    890,   19.2821617,          24.,   54.1353416
    891,   63.1057014,          24.,   58.7198639
    892,   67.7481003,          24.,   54.1932373
    893,   67.4813766,          24.,   49.9650421
    894,   67.8375702,          24.,   45.8922653
    895,   63.1173668,          24.,   55.2274666
    896,   23.9585705,          24.,   56.6781311
    897,   26.2027836,          24.,    55.633934
    898,    61.336956,          24.,   54.3754768
    899,   59.7883606,          24.,   55.8339844
    900,   61.5589256,          24.,   57.0404892
    901,   28.8441944,          24.,   54.4625244
    902,   49.6240807,          24.,   61.6276169
    903,   56.8710403,          24.,    52.958065
    904,   36.5890999,          24.,   49.4011002
    905,   56.2623062,          24.,   45.9445992
    906,   53.2131271,          24.,   45.0796776
    907,   47.8109932,          24.,   44.2313423
    908,   51.6513214,          24.,   43.7319603
    909,   57.0088844,          24.,   50.8470345
    910,   55.7205391,          24.,   51.5851631
    911,    53.750309,          24.,   52.1757774
    912,    39.909584,          24.,   50.5724983
    913,   30.3593502,          24.,   55.1999626
    914,    54.703598,          24.,    46.931881
    915,     55.14991,          24.,   50.1318436
    916,   53.2119675,          24.,   50.1473732
    917,   44.5306778,          24.,   56.7579956
    918,   45.7276077,          24.,   46.6239967
    919,   39.0665016,          24.,   55.9654274
    920,   42.2286873,          24.,   57.0860214
    921,   44.1511383,          24.,   49.2068748
    922,   37.2552261,          24.,   53.8390388
    923,   54.9376907,          24.,   48.9445496
    924,   53.4485512,          24.,   48.2442551
    925,   72.6548691,          21.,   46.9750137
    926,   71.6628723,          21.,   44.0955849
    927,   70.1294861,          21.,   41.4627342
    928,   65.9075928,          21.,   37.0858841
    929,   63.4072647,          21.,   35.3402519
    930,   57.9375267,          21.,   32.6555138
    931,   49.0830994,          21.,    30.415472
    932,   42.9999504,          21.,          30.
    933,   36.9168015,          21.,   30.4154854
    934,   28.0623798,          21.,   32.6555481
    935,   22.5926533,          21.,   35.3403015
    936,   20.0923309,          21.,   37.0859489
    937,   15.8704844,          21.,   41.4627762
    938,   14.3371067,          21.,   44.0956306
    939,   13.3451195,          21.,   46.9750633
    940,          73.,          21.,          50.
    941,          13.,          21.,          50.
    942,     13.34513,          21.,   53.0249863
    943,   14.3371286,          21.,   55.9044151
    944,   15.8705158,          21.,   58.5372658
    945,   20.0924091,          21.,   62.9141159
    946,   22.5927353,          21.,   64.6597519
    947,   28.0624714,          21.,   67.3444901
    948,   36.9169006,          21.,   69.5845261
    949,   43.0000496,          21.,          70.
    950,   49.0831985,          21.,   69.5845108
    951,   57.9376221,          21.,   67.3444519
    952,   63.4073448,          21.,   64.6596985
    953,   65.9076691,          21.,   62.9140511
    954,   70.1295166,          21.,   58.5372238
    955,   71.6628952,          21.,   55.9043694
    956,   72.6548843,          21.,   53.0249367
    957,   68.1757355,          21.,   39.1232681
    958,   60.7356377,          21.,   33.8693237
    959,   55.0464287,          21.,   31.6832371
    960,   52.0880966,          21.,    30.939785
    961,   46.0486526,          21.,   30.1035385
    962,    39.951252,          21.,   30.1035442
    963,    33.911808,          21.,    30.939806
    964,    30.953476,          21.,   31.6832657
    965,   25.2642746,          21.,   33.8693657
    966,   17.8242264,          21.,   39.1233101
    967,   17.8242664,          21.,   60.8767319
    968,   25.2643623,          21.,   66.1306763
    969,   30.9535713,          21.,   68.3167648
    970,   33.9119034,          21.,   69.0602112
    971,   39.9513474,          21.,   69.8964615
    972,    46.048748,          21.,   69.8964539
    973,    52.088192,          21.,   69.0601959
    974,    55.046524,          21.,   68.3167343
    975,   60.7357254,          21.,   66.1306305
    976,   68.1757736,          21.,   60.8766899
    977,   69.5258942,          21.,   54.9326172
    978,   64.1362152,          21.,   39.5261269
    979,    57.247551,          21.,   64.6263275
    980,   54.0768356,          21.,   34.4577789
    981,   43.6298828,          21.,   67.1327744
    982,   42.7476616,          21.,     32.92099
    983,   37.8993492,          21.,    66.756813
    984,    37.015358,          21.,   33.2688141
    985,   34.1916924,          21.,   33.7330208
    986,   28.7034397,          21.,    35.439743
    987,   23.5378151,          21.,   38.3724174
    988,   18.3707294,          21.,   42.2230301
    989,   17.5704823,          21.,   44.7255058
    990,   18.5653095,          21.,    57.082756
    991,   22.2543087,          21.,   60.9667015
    992,    24.538969,          21.,   62.4953651
    993,   48.4760628,          21.,   33.2820206
    994,   56.7746696,          21.,   35.3850746
    995,   61.8235703,          21.,   37.9440575
    996,   62.3097076,          21.,   62.2839966
    997,   68.0834503,          21.,   43.0681152
    998,   68.2229538,          21.,   57.0601044
    999,   66.2435303,          21.,   41.2466316
   1000,   59.3624077,          21.,   36.5506859
   1001,   49.2157326,          21.,   66.8326569
   1002,   51.3129425,          21.,     33.76194
   1003,   45.6300278,          21.,   33.0115128
   1004,   39.8908348,          21.,   33.0049286
   1005,   29.6094284,          21.,     64.79953
   1006,   31.4259739,          21.,   34.4241028
   1007,    26.122242,          21.,   36.8125534
   1008,   18.9883251,          21.,   40.2219696
   1009,   20.2135029,          21.,   59.1246033
   1010,   26.9988728,          21.,   63.7630272
   1011,   32.2842102,          21.,   65.6375961
   1012,   35.0398788,          21.,   66.2907639
   1013,   40.7461624,          21.,   67.0406723
   1014,   46.4250488,          21.,   67.0781174
   1015,   51.9684601,          21.,   66.3809967
   1016,   54.6127319,          21.,   65.6337662
   1017,    59.809845,          21.,   63.5355911
   1018,   66.5377045,          21.,   58.9728966
   1019,   70.2496796,          21.,   50.0116234
   1020,   70.0942841,          21.,   52.5188904
   1021,   70.1056366,          21.,   47.5148582
   1022,   64.8537827,          21.,   57.0130463
   1023,    62.498333,          21.,   41.9572182
   1024,   44.1684036,          21.,   64.3484955
   1025,   42.5416718,          21.,    35.802124
   1026,   37.1260719,          21.,   35.9899559
   1027,    31.912077,          21.,     36.91362
   1028,   21.2092037,          21.,   42.1310959
   1029,   17.1820335,          21.,   54.9506035
   1030,   26.2218571,          21.,   60.4008675
   1031,   53.2028542,          21.,   37.0906258
   1032,   58.8643417,          21.,   60.9530945
   1033,   46.7970314,          21.,     64.29142
   1034,   27.2437439,          21.,   39.2777252
   1035,   21.2205143,          21.,   55.3573036
   1036,   22.3584595,          21.,   57.6029472
   1037,   56.3867455,          21.,   62.0087929
   1038,   55.6932716,          21.,   37.9509315
   1039,   47.9744492,          21.,   36.0638542
   1040,   38.7373009,          21.,   64.0381927
   1041,   39.8389473,          21.,   35.8393555
   1042,   24.1088371,          21.,   59.1722679
   1043,   21.0357323,          21.,   39.4640694
   1044,   16.8759727,          21.,   47.3389816
   1045,   16.5025902,          21.,   49.9550247
   1046,   16.5540085,          21.,   52.4923401
   1047,   29.4750519,          21.,   37.7222748
   1048,   28.5420494,          21.,   61.4215622
   1049,   34.4689331,          21.,   36.3734932
   1050,   50.6344414,          21.,    36.464119
   1051,   60.3350182,          21.,   40.4187241
   1052,   64.5367813,          21.,   60.7558823
   1053,   66.3790894,          21.,   44.8715477
   1054,   69.4853439,          21.,   45.1248016
   1055,   64.5266571,          21.,   43.5012894
   1056,   58.0614624,          21.,   39.0544739
   1057,   49.3019943,          21.,    64.213356
   1058,   45.2883339,          21.,    35.864769
   1059,   30.9813995,          21.,    62.256134
   1060,     33.47929,          21.,   62.9758644
   1061,    36.038311,          21.,   63.5869789
   1062,   41.4302063,          21.,   64.2943802
   1063,   51.7340622,          21.,   63.9519806
   1064,   53.9813423,          21.,   63.1387787
   1065,   67.4889603,          21.,   52.2971764
   1066,   19.6211452,          21.,   50.0282173
   1067,   19.3978615,          21.,   52.2965508
   1068,   67.6650848,          21.,   47.6967201
   1069,   60.9839745,          21.,   44.2896843
   1070,   24.0277767,          21.,   55.1374474
   1071,   58.9454041,          21.,    42.665493
   1072,   55.2454071,          21.,   59.4879303
   1073,   25.4997253,          21.,   57.4686279
   1074,   29.1467876,          21.,   41.0394859
   1075,   52.9031525,          21.,   60.8179131
   1076,   56.8489685,          21.,   41.3301086
   1077,   30.2728672,          21.,   39.3844986
   1078,   27.4855042,          21.,   58.3419189
   1079,   51.4066048,          21.,   62.0900307
   1080,    54.728775,          21.,   40.3304138
   1081,   32.2373238,          21.,   39.3974113
   1082,   29.7679958,          21.,   59.0754433
   1083,   52.4782677,          21.,   39.5564651
   1084,   34.6958961,          21.,   38.9447403
   1085,   32.1559029,          21.,   59.6202164
   1086,   50.1060257,          21.,   39.0519714
   1087,   47.1876717,          21.,   61.5444717
   1088,   37.2120209,          21.,   38.5316429
   1089,   34.5429001,          21.,    60.289463
   1090,   47.6472511,          21.,   38.7850266
   1091,   44.5611191,          21.,   61.6778717
   1092,   39.7127686,          21.,    38.682579
   1093,   36.9459648,          21.,   60.9521217
   1094,   41.9678764,          21.,   61.6954041
   1095,   39.4086037,          21.,   61.4758453
   1096,   45.0767441,          21.,   38.6921501
   1097,   42.3863678,          21.,   38.7110748
   1098,   24.5961475,          21.,   41.6742134
   1099,   61.1985397,          21.,   60.0969582
   1100,   55.7916832,          21.,   43.2951927
   1101,   28.2541256,          21.,   56.3502159
   1102,   53.7157021,          21.,   57.3310623
   1103,   32.0273056,          21.,   42.2763557
   1104,   50.7341576,          21.,   58.8133278
   1105,   30.4262714,          21.,   56.8440933
   1106,   35.0720825,          21.,   41.4131165
   1107,   53.9158134,          21.,   42.5683403
   1108,   47.4382057,          21.,   58.9273453
   1109,    33.041214,          21.,   56.5920982
   1110,   37.1724319,          21.,   40.5728149
   1111,   51.9499168,          21.,   41.8477364
   1112,   44.7308502,          21.,   59.1676445
   1113,   49.8235016,          21.,   41.5736275
   1114,   39.1664963,          21.,   41.8740578
   1115,   35.5614777,          21.,   57.6811714
   1116,   47.5694695,          21.,   41.4928131
   1117,   42.3445816,          21.,   41.5935326
   1118,   42.2771988,          21.,   59.3158264
   1119,    37.841011,          21.,   58.4649544
   1120,   45.0886765,          21.,   41.4849129
   1121,    39.977314,          21.,   59.1784744
   1122,   23.7237911,          21.,   45.1377563
   1123,   60.3494949,          21.,    58.391674
   1124,   27.5836697,          21.,   43.2286186
   1125,   58.0233688,          21.,   58.0963898
   1126,   49.8513222,          21.,   55.8540993
   1127,   34.7892799,          21.,   54.2829018
   1128,    49.993782,          21.,   44.1633835
   1129,   36.2482224,          21.,   43.5749626
   1130,   45.3517799,          21.,   44.1680717
   1131,   36.6720543,          21.,   55.4577103
   1132,   47.1110077,          21.,    56.359623
   1133,   40.1075058,          21.,   44.8102722
   1134,   58.4257469,          21.,   54.3369675
   1135,   26.7808304,          21.,   45.8613548
   1136,   23.0394611,          21.,   47.8604279
   1137,   64.4875183,          21.,   52.8398628
   1138,   33.4576302,          21.,   44.9283676
   1139,   52.4557915,          21.,   55.0684624
   1140,   25.9708405,          21.,   48.4167252
   1141,   60.9274178,          21.,   52.2579842
   1142,   20.6935787,          21.,   44.9070168
   1143,   66.3371735,          21.,   55.3498993
   1144,   29.9897976,          21.,   44.1250916
   1145,   56.2097092,          21.,   56.0212822
   1146,   54.8099709,          21.,   54.1287117
   1147,    30.386734,          21.,   46.6688614
   1148,   28.8450851,          21.,   49.3535805
   1149,   58.4308434,          21.,   51.3706551
   1150,   22.4648399,          21.,   50.3223991
   1151,   64.5959473,          21.,   49.7221413
   1152,   48.9066582,          21.,   53.0817604
   1153,   35.0271912,          21.,   47.2168045
   1154,    31.202486,          21.,   50.8439484
   1155,   56.7858009,          21.,   49.6878548
   1156,   25.1677208,          21.,   50.8225861
   1157,   61.4010887,          21.,    48.773243
   1158,   32.8042946,          21.,    48.889328
   1159,   51.4336548,          21.,   52.6240883
   1160,   21.9304905,          21.,    52.695118
   1161,   63.0517082,          21.,    45.960041
   1162,   56.0477753,          21.,   48.2975578
   1163,   33.1564941,          21.,   52.6107674
   1164,   27.7163906,          21.,   51.6110153
   1165,   58.6115761,          21.,   49.3105621
   1166,   24.4622059,          21.,   53.0792313
   1167,   59.4362602,          21.,   46.2192917
   1168,   65.3006668,          21.,   47.1064529
   1169,   57.6360054,          21.,   47.4296989
   1170,   29.8849373,          21.,   52.7154541
   1171,   50.8095245,          21.,   49.9740906
   1172,   34.6963539,          21.,   50.8540764
   1173,   51.0032387,          21.,   46.9707947
   1174,   36.1784554,          21.,   52.5564919
   1175,   47.8898163,          21.,   49.9758072
   1176,   37.9168777,          21.,   51.4255524
   1177,   55.0948296,          21.,   44.7945709
   1178,   31.6848087,          21.,    54.268959
   1179,   26.8513165,          21.,   53.6842232
   1180,   57.6553421,          21.,   44.5082436
   1181,   37.5210381,          21.,    45.877533
   1182,   46.3911476,          21.,   53.7689514
   1183,   48.1575966,          21.,   46.9196663
   1184,   38.8502235,          21.,   53.4980621
   1185,   45.3785858,          21.,   51.3352089
   1186,   38.7592201,          21.,   48.2539177
   1187,   43.3265953,          21.,   46.8430176
   1188,   41.6282921,          21.,   55.0105972
   1189,   40.8853722,          21.,   52.8403435
   1190,    45.820961,          21.,   48.5600624
   1191,   42.7586555,          21.,   44.3197327
   1192,   40.4475403,          21.,   57.3989334
   1193,   42.0494194,          21.,   49.8383408
   1194,   41.0448494,          21.,   47.4100266
   1195,   43.9574509,          21.,   54.4072533
   1196,   43.0807877,          21.,   52.1303596
   1197,   20.0720787,          21.,   47.5422592
   1198,   19.2821617,          21.,   54.1353416
   1199,   63.1057014,          21.,   58.7198639
   1200,   67.7481003,          21.,   54.1932373
   1201,   67.4813766,          21.,   49.9650421
   1202,   67.8375702,          21.,   45.8922653
   1203,   63.1173668,          21.,   55.2274666
   1204,   23.9585705,          21.,   56.6781311
   1205,   26.2027836,          21.,    55.633934
   1206,    61.336956,          21.,   54.3754768
   1207,   59.7883606,          21.,   55.8339844
   1208,   61.5589256,          21.,   57.0404892
   1209,   28.8441944,          21.,   54.4625244
   1210,   49.6240807,          21.,   61.6276169
   1211,   56.8710403,          21.,    52.958065
   1212,   36.5890999,          21.,   49.4011002
   1213,   56.2623062,          21.,   45.9445992
   1214,   53.2131271,          21.,   45.0796776
   1215,   47.8109932,          21.,   44.2313423
   1216,   51.6513214,          21.,   43.7319603
   1217,   57.0088844,          21.,   50.8470345
   1218,   55.7205391,          21.,   51.5851631
   1219,    53.750309,          21.,   52.1757774
   1220,    39.909584,          21.,   50.5724983
   1221,   30.3593502,          21.,   55.1999626
   1222,    54.703598,          21.,    46.931881
   1223,     55.14991,          21.,   50.1318436
   1224,   53.2119675,          21.,   50.1473732
   1225,   44.5306778,          21.,   56.7579956
   1226,   45.7276077,          21.,   46.6239967
   1227,   39.0665016,          21.,   55.9654274
   1228,   42.2286873,          21.,   57.0860214
   1229,   44.1511383,          21.,   49.2068748
   1230,   37.2552261,          21.,   53.8390388
   1231,   54.9376907,          21.,   48.9445496
   1232,   53.4485512,          21.,   48.2442551
   1233,   72.6548691,          18.,   46.9750137
   1234,   71.6628723,          18.,   44.0955849
   1235,   70.1294861,          18.,   41.4627342
   1236,   65.9075928,          18.,   37.0858841
   1237,   63.4072647,          18.,   35.3402519
   1238,   57.9375267,          18.,   32.6555138
   1239,   49.0830994,          18.,    30.415472
   1240,   42.9999504,          18.,          30.
   1241,   36.9168015,          18.,   30.4154854
   1242,   28.0623798,          18.,   32.6555481
   1243,   22.5926533,          18.,   35.3403015
   1244,   20.0923309,          18.,   37.0859489
   1245,   15.8704844,          18.,   41.4627762
   1246,   14.3371067,          18.,   44.0956306
   1247,   13.3451195,          18.,   46.9750633
   1248,          73.,          18.,          50.
   1249,          13.,          18.,          50.
   1250,     13.34513,          18.,   53.0249863
   1251,   14.3371286,          18.,   55.9044151
   1252,   15.8705158,          18.,   58.5372658
   1253,   20.0924091,          18.,   62.9141159
   1254,   22.5927353,          18.,   64.6597519
   1255,   28.0624714,          18.,   67.3444901
   1256,   36.9169006,          18.,   69.5845261
   1257,   43.0000496,          18.,          70.
   1258,   49.0831985,          18.,   69.5845108
   1259,   57.9376221,          18.,   67.3444519
   1260,   63.4073448,          18.,   64.6596985
   1261,   65.9076691,          18.,   62.9140511
   1262,   70.1295166,          18.,   58.5372238
   1263,   71.6628952,          18.,   55.9043694
   1264,   72.6548843,          18.,   53.0249367
   1265,   68.1757355,          18.,   39.1232681
   1266,   60.7356377,          18.,   33.8693237
   1267,   55.0464287,          18.,   31.6832371
   1268,   52.0880966,          18.,    30.939785
   1269,   46.0486526,          18.,   30.1035385
   1270,    39.951252,          18.,   30.1035442
   1271,    33.911808,          18.,    30.939806
   1272,    30.953476,          18.,   31.6832657
   1273,   25.2642746,          18.,   33.8693657
   1274,   17.8242264,          18.,   39.1233101
   1275,   17.8242664,          18.,   60.8767319
   1276,   25.2643623,          18.,   66.1306763
   1277,   30.9535713,          18.,   68.3167648
   1278,   33.9119034,          18.,   69.0602112
   1279,   39.9513474,          18.,   69.8964615
   1280,    46.048748,          18.,   69.8964539
   1281,    52.088192,          18.,   69.0601959
   1282,    55.046524,          18.,   68.3167343
   1283,   60.7357254,          18.,   66.1306305
   1284,   68.1757736,          18.,   60.8766899
   1285,   69.5258942,          18.,   54.9326172
   1286,   64.1362152,          18.,   39.5261269
   1287,    57.247551,          18.,   64.6263275
   1288,   54.0768356,          18.,   34.4577789
   1289,   43.6298828,          18.,   67.1327744
   1290,   42.7476616,          18.,     32.92099
   1291,   37.8993492,          18.,    66.756813
   1292,    37.015358,          18.,   33.2688141
   1293,   34.1916924,          18.,   33.7330208
   1294,   28.7034397,          18.,    35.439743
   1295,   23.5378151,          18.,   38.3724174
   1296,   18.3707294,          18.,   42.2230301
   1297,   17.5704823,          18.,   44.7255058
   1298,   18.5653095,          18.,    57.082756
   1299,   22.2543087,          18.,   60.9667015
   1300,    24.538969,          18.,   62.4953651
   1301,   48.4760628,          18.,   33.2820206
   1302,   56.7746696,          18.,   35.3850746
   1303,   61.8235703,          18.,   37.9440575
   1304,   62.3097076,          18.,   62.2839966
   1305,   68.0834503,          18.,   43.0681152
   1306,   68.2229538,          18.,   57.0601044
   1307,   66.2435303,          18.,   41.2466316
   1308,   59.3624077,          18.,   36.5506859
   1309,   49.2157326,          18.,   66.8326569
   1310,   51.3129425,          18.,     33.76194
   1311,   45.6300278,          18.,   33.0115128
   1312,   39.8908348,          18.,   33.0049286
   1313,   29.6094284,          18.,     64.79953
   1314,   31.4259739,          18.,   34.4241028
   1315,    26.122242,          18.,   36.8125534
   1316,   18.9883251,          18.,   40.2219696
   1317,   20.2135029,          18.,   59.1246033
   1318,   26.9988728,          18.,   63.7630272
   1319,   32.2842102,          18.,   65.6375961
   1320,   35.0398788,          18.,   66.2907639
   1321,   40.7461624,          18.,   67.0406723
   1322,   46.4250488,          18.,   67.0781174
   1323,   51.9684601,          18.,   66.3809967
   1324,   54.6127319,          18.,   65.6337662
   1325,    59.809845,          18.,   63.5355911
   1326,   66.5377045,          18.,   58.9728966
   1327,   70.2496796,          18.,   50.0116234
   1328,   70.0942841,          18.,   52.5188904
   1329,   70.1056366,          18.,   47.5148582
   1330,   64.8537827,          18.,   57.0130463
   1331,    62.498333,          18.,   41.9572182
   1332,   44.1684036,          18.,   64.3484955
   1333,   42.5416718,          18.,    35.802124
   1334,   37.1260719,          18.,   35.9899559
   1335,    31.912077,          18.,     36.91362
   1336,   21.2092037,          18.,   42.1310959
   1337,   17.1820335,          18.,   54.9506035
   1338,   26.2218571,          18.,   60.4008675
   1339,   53.2028542,          18.,   37.0906258
   1340,   58.8643417,          18.,   60.9530945
   1341,   46.7970314,          18.,     64.29142
   1342,   27.2437439,          18.,   39.2777252
   1343,   21.2205143,          18.,   55.3573036
   1344,   22.3584595,          18.,   57.6029472
   1345,   56.3867455,          18.,   62.0087929
   1346,   55.6932716,          18.,   37.9509315
   1347,   47.9744492,          18.,   36.0638542
   1348,   38.7373009,          18.,   64.0381927
   1349,   39.8389473,          18.,   35.8393555
   1350,   24.1088371,          18.,   59.1722679
   1351,   21.0357323,          18.,   39.4640694
   1352,   16.8759727,          18.,   47.3389816
   1353,   16.5025902,          18.,   49.9550247
   1354,   16.5540085,          18.,   52.4923401
   1355,   29.4750519,          18.,   37.7222748
   1356,   28.5420494,          18.,   61.4215622
   1357,   34.4689331,          18.,   36.3734932
   1358,   50.6344414,          18.,    36.464119
   1359,   60.3350182,          18.,   40.4187241
   1360,   64.5367813,          18.,   60.7558823
   1361,   66.3790894,          18.,   44.8715477
   1362,   69.4853439,          18.,   45.1248016
   1363,   64.5266571,          18.,   43.5012894
   1364,   58.0614624,          18.,   39.0544739
   1365,   49.3019943,          18.,    64.213356
   1366,   45.2883339,          18.,    35.864769
   1367,   30.9813995,          18.,    62.256134
   1368,     33.47929,          18.,   62.9758644
   1369,    36.038311,          18.,   63.5869789
   1370,   41.4302063,          18.,   64.2943802
   1371,   51.7340622,          18.,   63.9519806
   1372,   53.9813423,          18.,   63.1387787
   1373,   67.4889603,          18.,   52.2971764
   1374,   19.6211452,          18.,   50.0282173
   1375,   19.3978615,          18.,   52.2965508
   1376,   67.6650848,          18.,   47.6967201
   1377,   60.9839745,          18.,   44.2896843
   1378,   24.0277767,          18.,   55.1374474
   1379,   58.9454041,          18.,    42.665493
   1380,   55.2454071,          18.,   59.4879303
   1381,   25.4997253,          18.,   57.4686279
   1382,   29.1467876,          18.,   41.0394859
   1383,   52.9031525,          18.,   60.8179131
   1384,   56.8489685,          18.,   41.3301086
   1385,   30.2728672,          18.,   39.3844986
   1386,   27.4855042,          18.,   58.3419189
   1387,   51.4066048,          18.,   62.0900307
   1388,    54.728775,          18.,   40.3304138
   1389,   32.2373238,          18.,   39.3974113
   1390,   29.7679958,          18.,   59.0754433
   1391,   52.4782677,          18.,   39.5564651
   1392,   34.6958961,          18.,   38.9447403
   1393,   32.1559029,          18.,   59.6202164
   1394,   50.1060257,          18.,   39.0519714
   1395,   47.1876717,          18.,   61.5444717
   1396,   37.2120209,          18.,   38.5316429
   1397,   34.5429001,          18.,    60.289463
   1398,   47.6472511,          18.,   38.7850266
   1399,   44.5611191,          18.,   61.6778717
   1400,   39.7127686,          18.,    38.682579
   1401,   36.9459648,          18.,   60.9521217
   1402,   41.9678764,          18.,   61.6954041
   1403,   39.4086037,          18.,   61.4758453
   1404,   45.0767441,          18.,   38.6921501
   1405,   42.3863678,          18.,   38.7110748
   1406,   24.5961475,          18.,   41.6742134
   1407,   61.1985397,          18.,   60.0969582
   1408,   55.7916832,          18.,   43.2951927
   1409,   28.2541256,          18.,   56.3502159
   1410,   53.7157021,          18.,   57.3310623
   1411,   32.0273056,          18.,   42.2763557
   1412,   50.7341576,          18.,   58.8133278
   1413,   30.4262714,          18.,   56.8440933
   1414,   35.0720825,          18.,   41.4131165
   1415,   53.9158134,          18.,   42.5683403
   1416,   47.4382057,          18.,   58.9273453
   1417,    33.041214,          18.,   56.5920982
   1418,   37.1724319,          18.,   40.5728149
   1419,   51.9499168,          18.,   41.8477364
   1420,   44.7308502,          18.,   59.1676445
   1421,   49.8235016,          18.,   41.5736275
   1422,   39.1664963,          18.,   41.8740578
   1423,   35.5614777,          18.,   57.6811714
   1424,   47.5694695,          18.,   41.4928131
   1425,   42.3445816,          18.,   41.5935326
   1426,   42.2771988,          18.,   59.3158264
   1427,    37.841011,          18.,   58.4649544
   1428,   45.0886765,          18.,   41.4849129
   1429,    39.977314,          18.,   59.1784744
   1430,   23.7237911,          18.,   45.1377563
   1431,   60.3494949,          18.,    58.391674
   1432,   27.5836697,          18.,   43.2286186
   1433,   58.0233688,          18.,   58.0963898
   1434,   49.8513222,          18.,   55.8540993
   1435,   34.7892799,          18.,   54.2829018
   1436,    49.993782,          18.,   44.1633835
   1437,   36.2482224,          18.,   43.5749626
   1438,   45.3517799,          18.,   44.1680717
   1439,   36.6720543,          18.,   55.4577103
   1440,   47.1110077,          18.,    56.359623
   1441,   40.1075058,          18.,   44.8102722
   1442,   58.4257469,          18.,   54.3369675
   1443,   26.7808304,          18.,   45.8613548
   1444,   23.0394611,          18.,   47.8604279
   1445,   64.4875183,          18.,   52.8398628
   1446,   33.4576302,          18.,   44.9283676
   1447,   52.4557915,          18.,   55.0684624
   1448,   25.9708405,          18.,   48.4167252
   1449,   60.9274178,          18.,   52.2579842
   1450,   20.6935787,          18.,   44.9070168
   1451,   66.3371735,          18.,   55.3498993
   1452,   29.9897976,          18.,   44.1250916
   1453,   56.2097092,          18.,   56.0212822
   1454,   54.8099709,          18.,   54.1287117
   1455,    30.386734,          18.,   46.6688614
   1456,   28.8450851,          18.,   49.3535805
   1457,   58.4308434,          18.,   51.3706551
   1458,   22.4648399,          18.,   50.3223991
   1459,   64.5959473,          18.,   49.7221413
   1460,   48.9066582,          18.,   53.0817604
   1461,   35.0271912,          18.,   47.2168045
   1462,    31.202486,          18.,   50.8439484
   1463,   56.7858009,          18.,   49.6878548
   1464,   25.1677208,          18.,   50.8225861
   1465,   61.4010887,          18.,    48.773243
   1466,   32.8042946,          18.,    48.889328
   1467,   51.4336548,          18.,   52.6240883
   1468,   21.9304905,          18.,    52.695118
   1469,   63.0517082,          18.,    45.960041
   1470,   56.0477753,          18.,   48.2975578
   1471,   33.1564941,          18.,   52.6107674
   1472,   27.7163906,          18.,   51.6110153
   1473,   58.6115761,          18.,   49.3105621
   1474,   24.4622059,          18.,   53.0792313
   1475,   59.4362602,          18.,   46.2192917
   1476,   65.3006668,          18.,   47.1064529
   1477,   57.6360054,          18.,   47.4296989
   1478,   29.8849373,          18.,   52.7154541
   1479,   50.8095245,          18.,   49.9740906
   1480,   34.6963539,          18.,   50.8540764
   1481,   51.0032387,          18.,   46.9707947
   1482,   36.1784554,          18.,   52.5564919
   1483,   47.8898163,          18.,   49.9758072
   1484,   37.9168777,          18.,   51.4255524
   1485,   55.0948296,          18.,   44.7945709
   1486,   31.6848087,          18.,    54.268959
   1487,   26.8513165,          18.,   53.6842232
   1488,   57.6553421,          18.,   44.5082436
   1489,   37.5210381,          18.,    45.877533
   1490,   46.3911476,          18.,   53.7689514
   1491,   48.1575966,          18.,   46.9196663
   1492,   38.8502235,          18.,   53.4980621
   1493,   45.3785858,          18.,   51.3352089
   1494,   38.7592201,          18.,   48.2539177
   1495,   43.3265953,          18.,   46.8430176
   1496,   41.6282921,          18.,   55.0105972
   1497,   40.8853722,          18.,   52.8403435
   1498,    45.820961,          18.,   48.5600624
   1499,   42.7586555,          18.,   44.3197327
   1500,   40.4475403,          18.,   57.3989334
   1501,   42.0494194,          18.,   49.8383408
   1502,   41.0448494,          18.,   47.4100266
   1503,   43.9574509,          18.,   54.4072533
   1504,   43.0807877,          18.,   52.1303596
   1505,   20.0720787,          18.,   47.5422592
   1506,   19.2821617,          18.,   54.1353416
   1507,   63.1057014,          18.,   58.7198639
   1508,   67.7481003,          18.,   54.1932373
   1509,   67.4813766,          18.,   49.9650421
   1510,   67.8375702,          18.,   45.8922653
   1511,   63.1173668,          18.,   55.2274666
   1512,   23.9585705,          18.,   56.6781311
   1513,   26.2027836,          18.,    55.633934
   1514,    61.336956,          18.,   54.3754768
   1515,   59.7883606,          18.,   55.8339844
   1516,   61.5589256,          18.,   57.0404892
   1517,   28.8441944,          18.,   54.4625244
   1518,   49.6240807,          18.,   61.6276169
   1519,   56.8710403,          18.,    52.958065
   1520,   36.5890999,          18.,   49.4011002
   1521,   56.2623062,          18.,   45.9445992
   1522,   53.2131271,          18.,   45.0796776
   1523,   47.8109932,          18.,   44.2313423
   1524,   51.6513214,          18.,   43.7319603
   1525,   57.0088844,          18.,   50.8470345
   1526,   55.7205391,          18.,   51.5851631
   1527,    53.750309,          18.,   52.1757774
   1528,    39.909584,          18.,   50.5724983
   1529,   30.3593502,          18.,   55.1999626
   1530,    54.703598,          18.,    46.931881
   1531,     55.14991,          18.,   50.1318436
   1532,   53.2119675,          18.,   50.1473732
   1533,   44.5306778,          18.,   56.7579956
   1534,   45.7276077,          18.,   46.6239967
   1535,   39.0665016,          18.,   55.9654274
   1536,   42.2286873,          18.,   57.0860214
   1537,   44.1511383,          18.,   49.2068748
   1538,   37.2552261,          18.,   53.8390388
   1539,   54.9376907,          18.,   48.9445496
   1540,   53.4485512,          18.,   48.2442551
   1541,   72.6548691,          15.,   46.9750137
   1542,   71.6628723,          15.,   44.0955849
   1543,   70.1294861,          15.,   41.4627342
   1544,   65.9075928,          15.,   37.0858841
   1545,   63.4072647,          15.,   35.3402519
   1546,   57.9375267,          15.,   32.6555138
   1547,   49.0830994,          15.,    30.415472
   1548,   42.9999504,          15.,          30.
   1549,   36.9168015,          15.,   30.4154854
   1550,   28.0623798,          15.,   32.6555481
   1551,   22.5926533,          15.,   35.3403015
   1552,   20.0923309,          15.,   37.0859489
   1553,   15.8704844,          15.,   41.4627762
   1554,   14.3371067,          15.,   44.0956306
   1555,   13.3451195,          15.,   46.9750633
   1556,          73.,          15.,          50.
   1557,          13.,          15.,          50.
   1558,     13.34513,          15.,   53.0249863
   1559,   14.3371286,          15.,   55.9044151
   1560,   15.8705158,          15.,   58.5372658
   1561,   20.0924091,          15.,   62.9141159
   1562,   22.5927353,          15.,   64.6597519
   1563,   28.0624714,          15.,   67.3444901
   1564,   36.9169006,          15.,   69.5845261
   1565,   43.0000496,          15.,          70.
   1566,   49.0831985,          15.,   69.5845108
   1567,   57.9376221,          15.,   67.3444519
   1568,   63.4073448,          15.,   64.6596985
   1569,   65.9076691,          15.,   62.9140511
   1570,   70.1295166,          15.,   58.5372238
   1571,   71.6628952,          15.,   55.9043694
   1572,   72.6548843,          15.,   53.0249367
   1573,   68.1757355,          15.,   39.1232681
   1574,   60.7356377,          15.,   33.8693237
   1575,   55.0464287,          15.,   31.6832371
   1576,   52.0880966,          15.,    30.939785
   1577,   46.0486526,          15.,   30.1035385
   1578,    39.951252,          15.,   30.1035442
   1579,    33.911808,          15.,    30.939806
   1580,    30.953476,          15.,   31.6832657
   1581,   25.2642746,          15.,   33.8693657
   1582,   17.8242264,          15.,   39.1233101
   1583,   17.8242664,          15.,   60.8767319
   1584,   25.2643623,          15.,   66.1306763
   1585,   30.9535713,          15.,   68.3167648
   1586,   33.9119034,          15.,   69.0602112
   1587,   39.9513474,          15.,   69.8964615
   1588,    46.048748,          15.,   69.8964539
   1589,    52.088192,          15.,   69.0601959
   1590,    55.046524,          15.,   68.3167343
   1591,   60.7357254,          15.,   66.1306305
   1592,   68.1757736,          15.,   60.8766899
   1593,   69.5258942,          15.,   54.9326172
   1594,   64.1362152,          15.,   39.5261269
   1595,    57.247551,          15.,   64.6263275
   1596,   54.0768356,          15.,   34.4577789
   1597,   43.6298828,          15.,   67.1327744
   1598,   42.7476616,          15.,     32.92099
   1599,   37.8993492,          15.,    66.756813
   1600,    37.015358,          15.,   33.2688141
   1601,   34.1916924,          15.,   33.7330208
   1602,   28.7034397,          15.,    35.439743
   1603,   23.5378151,          15.,   38.3724174
   1604,   18.3707294,          15.,   42.2230301
   1605,   17.5704823,          15.,   44.7255058
   1606,   18.5653095,          15.,    57.082756
   1607,   22.2543087,          15.,   60.9667015
   1608,    24.538969,          15.,   62.4953651
   1609,   48.4760628,          15.,   33.2820206
   1610,   56.7746696,          15.,   35.3850746
   1611,   61.8235703,          15.,   37.9440575
   1612,   62.3097076,          15.,   62.2839966
   1613,   68.0834503,          15.,   43.0681152
   1614,   68.2229538,          15.,   57.0601044
   1615,   66.2435303,          15.,   41.2466316
   1616,   59.3624077,          15.,   36.5506859
   1617,   49.2157326,          15.,   66.8326569
   1618,   51.3129425,          15.,     33.76194
   1619,   45.6300278,          15.,   33.0115128
   1620,   39.8908348,          15.,   33.0049286
   1621,   29.6094284,          15.,     64.79953
   1622,   31.4259739,          15.,   34.4241028
   1623,    26.122242,          15.,   36.8125534
   1624,   18.9883251,          15.,   40.2219696
   1625,   20.2135029,          15.,   59.1246033
   1626,   26.9988728,          15.,   63.7630272
   1627,   32.2842102,          15.,   65.6375961
   1628,   35.0398788,          15.,   66.2907639
   1629,   40.7461624,          15.,   67.0406723
   1630,   46.4250488,          15.,   67.0781174
   1631,   51.9684601,          15.,   66.3809967
   1632,   54.6127319,          15.,   65.6337662
   1633,    59.809845,          15.,   63.5355911
   1634,   66.5377045,          15.,   58.9728966
   1635,   70.2496796,          15.,   50.0116234
   1636,   70.0942841,          15.,   52.5188904
   1637,   70.1056366,          15.,   47.5148582
   1638,   64.8537827,          15.,   57.0130463
   1639,    62.498333,          15.,   41.9572182
   1640,   44.1684036,          15.,   64.3484955
   1641,   42.5416718,          15.,    35.802124
   1642,   37.1260719,          15.,   35.9899559
   1643,    31.912077,          15.,     36.91362
   1644,   21.2092037,          15.,   42.1310959
   1645,   17.1820335,          15.,   54.9506035
   1646,   26.2218571,          15.,   60.4008675
   1647,   53.2028542,          15.,   37.0906258
   1648,   58.8643417,          15.,   60.9530945
   1649,   46.7970314,          15.,     64.29142
   1650,   27.2437439,          15.,   39.2777252
   1651,   21.2205143,          15.,   55.3573036
   1652,   22.3584595,          15.,   57.6029472
   1653,   56.3867455,          15.,   62.0087929
   1654,   55.6932716,          15.,   37.9509315
   1655,   47.9744492,          15.,   36.0638542
   1656,   38.7373009,          15.,   64.0381927
   1657,   39.8389473,          15.,   35.8393555
   1658,   24.1088371,          15.,   59.1722679
   1659,   21.0357323,          15.,   39.4640694
   1660,   16.8759727,          15.,   47.3389816
   1661,   16.5025902,          15.,   49.9550247
   1662,   16.5540085,          15.,   52.4923401
   1663,   29.4750519,          15.,   37.7222748
   1664,   28.5420494,          15.,   61.4215622
   1665,   34.4689331,          15.,   36.3734932
   1666,   50.6344414,          15.,    36.464119
   1667,   60.3350182,          15.,   40.4187241
   1668,   64.5367813,          15.,   60.7558823
   1669,   66.3790894,          15.,   44.8715477
   1670,   69.4853439,          15.,   45.1248016
   1671,   64.5266571,          15.,   43.5012894
   1672,   58.0614624,          15.,   39.0544739
   1673,   49.3019943,          15.,    64.213356
   1674,   45.2883339,          15.,    35.864769
   1675,   30.9813995,          15.,    62.256134
   1676,     33.47929,          15.,   62.9758644
   1677,    36.038311,          15.,   63.5869789
   1678,   41.4302063,          15.,   64.2943802
   1679,   51.7340622,          15.,   63.9519806
   1680,   53.9813423,          15.,   63.1387787
   1681,   67.4889603,          15.,   52.2971764
   1682,   19.6211452,          15.,   50.0282173
   1683,   19.3978615,          15.,   52.2965508
   1684,   67.6650848,          15.,   47.6967201
   1685,   60.9839745,          15.,   44.2896843
   1686,   24.0277767,          15.,   55.1374474
   1687,   58.9454041,          15.,    42.665493
   1688,   55.2454071,          15.,   59.4879303
   1689,   25.4997253,          15.,   57.4686279
   1690,   29.1467876,          15.,   41.0394859
   1691,   52.9031525,          15.,   60.8179131
   1692,   56.8489685,          15.,   41.3301086
   1693,   30.2728672,          15.,   39.3844986
   1694,   27.4855042,          15.,   58.3419189
   1695,   51.4066048,          15.,   62.0900307
   1696,    54.728775,          15.,   40.3304138
   1697,   32.2373238,          15.,   39.3974113
   1698,   29.7679958,          15.,   59.0754433
   1699,   52.4782677,          15.,   39.5564651
   1700,   34.6958961,          15.,   38.9447403
   1701,   32.1559029,          15.,   59.6202164
   1702,   50.1060257,          15.,   39.0519714
   1703,   47.1876717,          15.,   61.5444717
   1704,   37.2120209,          15.,   38.5316429
   1705,   34.5429001,          15.,    60.289463
   1706,   47.6472511,          15.,   38.7850266
   1707,   44.5611191,          15.,   61.6778717
   1708,   39.7127686,          15.,    38.682579
   1709,   36.9459648,          15.,   60.9521217
   1710,   41.9678764,          15.,   61.6954041
   1711,   39.4086037,          15.,   61.4758453
   1712,   45.0767441,          15.,   38.6921501
   1713,   42.3863678,          15.,   38.7110748
   1714,   24.5961475,          15.,   41.6742134
   1715,   61.1985397,          15.,   60.0969582
   1716,   55.7916832,          15.,   43.2951927
   1717,   28.2541256,          15.,   56.3502159
   1718,   53.7157021,          15.,   57.3310623
   1719,   32.0273056,          15.,   42.2763557
   1720,   50.7341576,          15.,   58.8133278
   1721,   30.4262714,          15.,   56.8440933
   1722,   35.0720825,          15.,   41.4131165
   1723,   53.9158134,          15.,   42.5683403
   1724,   47.4382057,          15.,   58.9273453
   1725,    33.041214,          15.,   56.5920982
   1726,   37.1724319,          15.,   40.5728149
   1727,   51.9499168,          15.,   41.8477364
   1728,   44.7308502,          15.,   59.1676445
   1729,   49.8235016,          15.,   41.5736275
   1730,   39.1664963,          15.,   41.8740578
   1731,   35.5614777,          15.,   57.6811714
   1732,   47.5694695,          15.,   41.4928131
   1733,   42.3445816,          15.,   41.5935326
   1734,   42.2771988,          15.,   59.3158264
   1735,    37.841011,          15.,   58.4649544
   1736,   45.0886765,          15.,   41.4849129
   1737,    39.977314,          15.,   59.1784744
   1738,   23.7237911,          15.,   45.1377563
   1739,   60.3494949,          15.,    58.391674
   1740,   27.5836697,          15.,   43.2286186
   1741,   58.0233688,          15.,   58.0963898
   1742,   49.8513222,          15.,   55.8540993
   1743,   34.7892799,          15.,   54.2829018
   1744,    49.993782,          15.,   44.1633835
   1745,   36.2482224,          15.,   43.5749626
   1746,   45.3517799,          15.,   44.1680717
   1747,   36.6720543,          15.,   55.4577103
   1748,   47.1110077,          15.,    56.359623
   1749,   40.1075058,          15.,   44.8102722
   1750,   58.4257469,          15.,   54.3369675
   1751,   26.7808304,          15.,   45.8613548
   1752,   23.0394611,          15.,   47.8604279
   1753,   64.4875183,          15.,   52.8398628
   1754,   33.4576302,          15.,   44.9283676
   1755,   52.4557915,          15.,   55.0684624
   1756,   25.9708405,          15.,   48.4167252
   1757,   60.9274178,          15.,   52.2579842
   1758,   20.6935787,          15.,   44.9070168
   1759,   66.3371735,          15.,   55.3498993
   1760,   29.9897976,          15.,   44.1250916
   1761,   56.2097092,          15.,   56.0212822
   1762,   54.8099709,          15.,   54.1287117
   1763,    30.386734,          15.,   46.6688614
   1764,   28.8450851,          15.,   49.3535805
   1765,   58.4308434,          15.,   51.3706551
   1766,   22.4648399,          15.,   50.3223991
   1767,   64.5959473,          15.,   49.7221413
   1768,   48.9066582,          15.,   53.0817604
   1769,   35.0271912,          15.,   47.2168045
   1770,    31.202486,          15.,   50.8439484
   1771,   56.7858009,          15.,   49.6878548
   1772,   25.1677208,          15.,   50.8225861
   1773,   61.4010887,          15.,    48.773243
   1774,   32.8042946,          15.,    48.889328
   1775,   51.4336548,          15.,   52.6240883
   1776,   21.9304905,          15.,    52.695118
   1777,   63.0517082,          15.,    45.960041
   1778,   56.0477753,          15.,   48.2975578
   1779,   33.1564941,          15.,   52.6107674
   1780,   27.7163906,          15.,   51.6110153
   1781,   58.6115761,          15.,   49.3105621
   1782,   24.4622059,          15.,   53.0792313
   1783,   59.4362602,          15.,   46.2192917
   1784,   65.3006668,          15.,   47.1064529
   1785,   57.6360054,          15.,   47.4296989
   1786,   29.8849373,          15.,   52.7154541
   1787,   50.8095245,          15.,   49.9740906
   1788,   34.6963539,          15.,   50.8540764
   1789,   51.0032387,          15.,   46.9707947
   1790,   36.1784554,          15.,   52.5564919
   1791,   47.8898163,          15.,   49.9758072
   1792,   37.9168777,          15.,   51.4255524
   1793,   55.0948296,          15.,   44.7945709
   1794,   31.6848087,          15.,    54.268959
   1795,   26.8513165,          15.,   53.6842232
   1796,   57.6553421,          15.,   44.5082436
   1797,   37.5210381,          15.,    45.877533
   1798,   46.3911476,          15.,   53.7689514
   1799,   48.1575966,          15.,   46.9196663
   1800,   38.8502235,          15.,   53.4980621
   1801,   45.3785858,          15.,   51.3352089
   1802,   38.7592201,          15.,   48.2539177
   1803,   43.3265953,          15.,   46.8430176
   1804,   41.6282921,          15.,   55.0105972
   1805,   40.8853722,          15.,   52.8403435
   1806,    45.820961,          15.,   48.5600624
   1807,   42.7586555,          15.,   44.3197327
   1808,   40.4475403,          15.,   57.3989334
   1809,   42.0494194,          15.,   49.8383408
   1810,   41.0448494,          15.,   47.4100266
   1811,   43.9574509,          15.,   54.4072533
   1812,   43.0807877,          15.,   52.1303596
   1813,   20.0720787,          15.,   47.5422592
   1814,   19.2821617,          15.,   54.1353416
   1815,   63.1057014,          15.,   58.7198639
   1816,   67.7481003,          15.,   54.1932373
   1817,   67.4813766,          15.,   49.9650421
   1818,   67.8375702,          15.,   45.8922653
   1819,   63.1173668,          15.,   55.2274666
   1820,   23.9585705,          15.,   56.6781311
   1821,   26.2027836,          15.,    55.633934
   1822,    61.336956,          15.,   54.3754768
   1823,   59.7883606,          15.,   55.8339844
   1824,   61.5589256,          15.,   57.0404892
   1825,   28.8441944,          15.,   54.4625244
   1826,   49.6240807,          15.,   61.6276169
   1827,   56.8710403,          15.,    52.958065
   1828,   36.5890999,          15.,   49.4011002
   1829,   56.2623062,          15.,   45.9445992
   1830,   53.2131271,          15.,   45.0796776
   1831,   47.8109932,          15.,   44.2313423
   1832,   51.6513214,          15.,   43.7319603
   1833,   57.0088844,          15.,   50.8470345
   1834,   55.7205391,          15.,   51.5851631
   1835,    53.750309,          15.,   52.1757774
   1836,    39.909584,          15.,   50.5724983
   1837,   30.3593502,          15.,   55.1999626
   1838,    54.703598,          15.,    46.931881
   1839,     55.14991,          15.,   50.1318436
   1840,   53.2119675,          15.,   50.1473732
   1841,   44.5306778,          15.,   56.7579956
   1842,   45.7276077,          15.,   46.6239967
   1843,   39.0665016,          15.,   55.9654274
   1844,   42.2286873,          15.,   57.0860214
   1845,   44.1511383,          15.,   49.2068748
   1846,   37.2552261,          15.,   53.8390388
   1847,   54.9376907,          15.,   48.9445496
   1848,   53.4485512,          15.,   48.2442551
   1849,   72.6548691,          12.,   46.9750137
   1850,   71.6628723,          12.,   44.0955849
   1851,   70.1294861,          12.,   41.4627342
   1852,   65.9075928,          12.,   37.0858841
   1853,   63.4072647,          12.,   35.3402519
   1854,   57.9375267,          12.,   32.6555138
   1855,   49.0830994,          12.,    30.415472
   1856,   42.9999504,          12.,          30.
   1857,   36.9168015,          12.,   30.4154854
   1858,   28.0623798,          12.,   32.6555481
   1859,   22.5926533,          12.,   35.3403015
   1860,   20.0923309,          12.,   37.0859489
   1861,   15.8704844,          12.,   41.4627762
   1862,   14.3371067,          12.,   44.0956306
   1863,   13.3451195,          12.,   46.9750633
   1864,          73.,          12.,          50.
   1865,          13.,          12.,          50.
   1866,     13.34513,          12.,   53.0249863
   1867,   14.3371286,          12.,   55.9044151
   1868,   15.8705158,          12.,   58.5372658
   1869,   20.0924091,          12.,   62.9141159
   1870,   22.5927353,          12.,   64.6597519
   1871,   28.0624714,          12.,   67.3444901
   1872,   36.9169006,          12.,   69.5845261
   1873,   43.0000496,          12.,          70.
   1874,   49.0831985,          12.,   69.5845108
   1875,   57.9376221,          12.,   67.3444519
   1876,   63.4073448,          12.,   64.6596985
   1877,   65.9076691,          12.,   62.9140511
   1878,   70.1295166,          12.,   58.5372238
   1879,   71.6628952,          12.,   55.9043694
   1880,   72.6548843,          12.,   53.0249367
   1881,   68.1757355,          12.,   39.1232681
   1882,   60.7356377,          12.,   33.8693237
   1883,   55.0464287,          12.,   31.6832371
   1884,   52.0880966,          12.,    30.939785
   1885,   46.0486526,          12.,   30.1035385
   1886,    39.951252,          12.,   30.1035442
   1887,    33.911808,          12.,    30.939806
   1888,    30.953476,          12.,   31.6832657
   1889,   25.2642746,          12.,   33.8693657
   1890,   17.8242264,          12.,   39.1233101
   1891,   17.8242664,          12.,   60.8767319
   1892,   25.2643623,          12.,   66.1306763
   1893,   30.9535713,          12.,   68.3167648
   1894,   33.9119034,          12.,   69.0602112
   1895,   39.9513474,          12.,   69.8964615
   1896,    46.048748,          12.,   69.8964539
   1897,    52.088192,          12.,   69.0601959
   1898,    55.046524,          12.,   68.3167343
   1899,   60.7357254,          12.,   66.1306305
   1900,   68.1757736,          12.,   60.8766899
   1901,   69.5258942,          12.,   54.9326172
   1902,   64.1362152,          12.,   39.5261269
   1903,    57.247551,          12.,   64.6263275
   1904,   54.0768356,          12.,   34.4577789
   1905,   43.6298828,          12.,   67.1327744
   1906,   42.7476616,          12.,     32.92099
   1907,   37.8993492,          12.,    66.756813
   1908,    37.015358,          12.,   33.2688141
   1909,   34.1916924,          12.,   33.7330208
   1910,   28.7034397,          12.,    35.439743
   1911,   23.5378151,          12.,   38.3724174
   1912,   18.3707294,          12.,   42.2230301
   1913,   17.5704823,          12.,   44.7255058
   1914,   18.5653095,          12.,    57.082756
   1915,   22.2543087,          12.,   60.9667015
   1916,    24.538969,          12.,   62.4953651
   1917,   48.4760628,          12.,   33.2820206
   1918,   56.7746696,          12.,   35.3850746
   1919,   61.8235703,          12.,   37.9440575
   1920,   62.3097076,          12.,   62.2839966
   1921,   68.0834503,          12.,   43.0681152
   1922,   68.2229538,          12.,   57.0601044
   1923,   66.2435303,          12.,   41.2466316
   1924,   59.3624077,          12.,   36.5506859
   1925,   49.2157326,          12.,   66.8326569
   1926,   51.3129425,          12.,     33.76194
   1927,   45.6300278,          12.,   33.0115128
   1928,   39.8908348,          12.,   33.0049286
   1929,   29.6094284,          12.,     64.79953
   1930,   31.4259739,          12.,   34.4241028
   1931,    26.122242,          12.,   36.8125534
   1932,   18.9883251,          12.,   40.2219696
   1933,   20.2135029,          12.,   59.1246033
   1934,   26.9988728,          12.,   63.7630272
   1935,   32.2842102,          12.,   65.6375961
   1936,   35.0398788,          12.,   66.2907639
   1937,   40.7461624,          12.,   67.0406723
   1938,   46.4250488,          12.,   67.0781174
   1939,   51.9684601,          12.,   66.3809967
   1940,   54.6127319,          12.,   65.6337662
   1941,    59.809845,          12.,   63.5355911
   1942,   66.5377045,          12.,   58.9728966
   1943,   70.2496796,          12.,   50.0116234
   1944,   70.0942841,          12.,   52.5188904
   1945,   70.1056366,          12.,   47.5148582
   1946,   64.8537827,          12.,   57.0130463
   1947,    62.498333,          12.,   41.9572182
   1948,   44.1684036,          12.,   64.3484955
   1949,   42.5416718,          12.,    35.802124
   1950,   37.1260719,          12.,   35.9899559
   1951,    31.912077,          12.,     36.91362
   1952,   21.2092037,          12.,   42.1310959
   1953,   17.1820335,          12.,   54.9506035
   1954,   26.2218571,          12.,   60.4008675
   1955,   53.2028542,          12.,   37.0906258
   1956,   58.8643417,          12.,   60.9530945
   1957,   46.7970314,          12.,     64.29142
   1958,   27.2437439,          12.,   39.2777252
   1959,   21.2205143,          12.,   55.3573036
   1960,   22.3584595,          12.,   57.6029472
   1961,   56.3867455,          12.,   62.0087929
   1962,   55.6932716,          12.,   37.9509315
   1963,   47.9744492,          12.,   36.0638542
   1964,   38.7373009,          12.,   64.0381927
   1965,   39.8389473,          12.,   35.8393555
   1966,   24.1088371,          12.,   59.1722679
   1967,   21.0357323,          12.,   39.4640694
   1968,   16.8759727,          12.,   47.3389816
   1969,   16.5025902,          12.,   49.9550247
   1970,   16.5540085,          12.,   52.4923401
   1971,   29.4750519,          12.,   37.7222748
   1972,   28.5420494,          12.,   61.4215622
   1973,   34.4689331,          12.,   36.3734932
   1974,   50.6344414,          12.,    36.464119
   1975,   60.3350182,          12.,   40.4187241
   1976,   64.5367813,          12.,   60.7558823
   1977,   66.3790894,          12.,   44.8715477
   1978,   69.4853439,          12.,   45.1248016
   1979,   64.5266571,          12.,   43.5012894
   1980,   58.0614624,          12.,   39.0544739
   1981,   49.3019943,          12.,    64.213356
   1982,   45.2883339,          12.,    35.864769
   1983,   30.9813995,          12.,    62.256134
   1984,     33.47929,          12.,   62.9758644
   1985,    36.038311,          12.,   63.5869789
   1986,   41.4302063,          12.,   64.2943802
   1987,   51.7340622,          12.,   63.9519806
   1988,   53.9813423,          12.,   63.1387787
   1989,   67.4889603,          12.,   52.2971764
   1990,   19.6211452,          12.,   50.0282173
   1991,   19.3978615,          12.,   52.2965508
   1992,   67.6650848,          12.,   47.6967201
   1993,   60.9839745,          12.,   44.2896843
   1994,   24.0277767,          12.,   55.1374474
   1995,   58.9454041,          12.,    42.665493
   1996,   55.2454071,          12.,   59.4879303
   1997,   25.4997253,          12.,   57.4686279
   1998,   29.1467876,          12.,   41.0394859
   1999,   52.9031525,          12.,   60.8179131
   2000,   56.8489685,          12.,   41.3301086
   2001,   30.2728672,          12.,   39.3844986
   2002,   27.4855042,          12.,   58.3419189
   2003,   51.4066048,          12.,   62.0900307
   2004,    54.728775,          12.,   40.3304138
   2005,   32.2373238,          12.,   39.3974113
   2006,   29.7679958,          12.,   59.0754433
   2007,   52.4782677,          12.,   39.5564651
   2008,   34.6958961,          12.,   38.9447403
   2009,   32.1559029,          12.,   59.6202164
   2010,   50.1060257,          12.,   39.0519714
   2011,   47.1876717,          12.,   61.5444717
   2012,   37.2120209,          12.,   38.5316429
   2013,   34.5429001,          12.,    60.289463
   2014,   47.6472511,          12.,   38.7850266
   2015,   44.5611191,          12.,   61.6778717
   2016,   39.7127686,          12.,    38.682579
   2017,   36.9459648,          12.,   60.9521217
   2018,   41.9678764,          12.,   61.6954041
   2019,   39.4086037,          12.,   61.4758453
   2020,   45.0767441,          12.,   38.6921501
   2021,   42.3863678,          12.,   38.7110748
   2022,   24.5961475,          12.,   41.6742134
   2023,   61.1985397,          12.,   60.0969582
   2024,   55.7916832,          12.,   43.2951927
   2025,   28.2541256,          12.,   56.3502159
   2026,   53.7157021,          12.,   57.3310623
   2027,   32.0273056,          12.,   42.2763557
   2028,   50.7341576,          12.,   58.8133278
   2029,   30.4262714,          12.,   56.8440933
   2030,   35.0720825,          12.,   41.4131165
   2031,   53.9158134,          12.,   42.5683403
   2032,   47.4382057,          12.,   58.9273453
   2033,    33.041214,          12.,   56.5920982
   2034,   37.1724319,          12.,   40.5728149
   2035,   51.9499168,          12.,   41.8477364
   2036,   44.7308502,          12.,   59.1676445
   2037,   49.8235016,          12.,   41.5736275
   2038,   39.1664963,          12.,   41.8740578
   2039,   35.5614777,          12.,   57.6811714
   2040,   47.5694695,          12.,   41.4928131
   2041,   42.3445816,          12.,   41.5935326
   2042,   42.2771988,          12.,   59.3158264
   2043,    37.841011,          12.,   58.4649544
   2044,   45.0886765,          12.,   41.4849129
   2045,    39.977314,          12.,   59.1784744
   2046,   23.7237911,          12.,   45.1377563
   2047,   60.3494949,          12.,    58.391674
   2048,   27.5836697,          12.,   43.2286186
   2049,   58.0233688,          12.,   58.0963898
   2050,   49.8513222,          12.,   55.8540993
   2051,   34.7892799,          12.,   54.2829018
   2052,    49.993782,          12.,   44.1633835
   2053,   36.2482224,          12.,   43.5749626
   2054,   45.3517799,          12.,   44.1680717
   2055,   36.6720543,          12.,   55.4577103
   2056,   47.1110077,          12.,    56.359623
   2057,   40.1075058,          12.,   44.8102722
   2058,   58.4257469,          12.,   54.3369675
   2059,   26.7808304,          12.,   45.8613548
   2060,   23.0394611,          12.,   47.8604279
   2061,   64.4875183,          12.,   52.8398628
   2062,   33.4576302,          12.,   44.9283676
   2063,   52.4557915,          12.,   55.0684624
   2064,   25.9708405,          12.,   48.4167252
   2065,   60.9274178,          12.,   52.2579842
   2066,   20.6935787,          12.,   44.9070168
   2067,   66.3371735,          12.,   55.3498993
   2068,   29.9897976,          12.,   44.1250916
   2069,   56.2097092,          12.,   56.0212822
   2070,   54.8099709,          12.,   54.1287117
   2071,    30.386734,          12.,   46.6688614
   2072,   28.8450851,          12.,   49.3535805
   2073,   58.4308434,          12.,   51.3706551
   2074,   22.4648399,          12.,   50.3223991
   2075,   64.5959473,          12.,   49.7221413
   2076,   48.9066582,          12.,   53.0817604
   2077,   35.0271912,          12.,   47.2168045
   2078,    31.202486,          12.,   50.8439484
   2079,   56.7858009,          12.,   49.6878548
   2080,   25.1677208,          12.,   50.8225861
   2081,   61.4010887,          12.,    48.773243
   2082,   32.8042946,          12.,    48.889328
   2083,   51.4336548,          12.,   52.6240883
   2084,   21.9304905,          12.,    52.695118
   2085,   63.0517082,          12.,    45.960041
   2086,   56.0477753,          12.,   48.2975578
   2087,   33.1564941,          12.,   52.6107674
   2088,   27.7163906,          12.,   51.6110153
   2089,   58.6115761,          12.,   49.3105621
   2090,   24.4622059,          12.,   53.0792313
   2091,   59.4362602,          12.,   46.2192917
   2092,   65.3006668,          12.,   47.1064529
   2093,   57.6360054,          12.,   47.4296989
   2094,   29.8849373,          12.,   52.7154541
   2095,   50.8095245,          12.,   49.9740906
   2096,   34.6963539,          12.,   50.8540764
   2097,   51.0032387,          12.,   46.9707947
   2098,   36.1784554,          12.,   52.5564919
   2099,   47.8898163,          12.,   49.9758072
   2100,   37.9168777,          12.,   51.4255524
   2101,   55.0948296,          12.,   44.7945709
   2102,   31.6848087,          12.,    54.268959
   2103,   26.8513165,          12.,   53.6842232
   2104,   57.6553421,          12.,   44.5082436
   2105,   37.5210381,          12.,    45.877533
   2106,   46.3911476,          12.,   53.7689514
   2107,   48.1575966,          12.,   46.9196663
   2108,   38.8502235,          12.,   53.4980621
   2109,   45.3785858,          12.,   51.3352089
   2110,   38.7592201,          12.,   48.2539177
   2111,   43.3265953,          12.,   46.8430176
   2112,   41.6282921,          12.,   55.0105972
   2113,   40.8853722,          12.,   52.8403435
   2114,    45.820961,          12.,   48.5600624
   2115,   42.7586555,          12.,   44.3197327
   2116,   40.4475403,          12.,   57.3989334
   2117,   42.0494194,          12.,   49.8383408
   2118,   41.0448494,          12.,   47.4100266
   2119,   43.9574509,          12.,   54.4072533
   2120,   43.0807877,          12.,   52.1303596
   2121,   20.0720787,          12.,   47.5422592
   2122,   19.2821617,          12.,   54.1353416
   2123,   63.1057014,          12.,   58.7198639
   2124,   67.7481003,          12.,   54.1932373
   2125,   67.4813766,          12.,   49.9650421
   2126,   67.8375702,          12.,   45.8922653
   2127,   63.1173668,          12.,   55.2274666
   2128,   23.9585705,          12.,   56.6781311
   2129,   26.2027836,          12.,    55.633934
   2130,    61.336956,          12.,   54.3754768
   2131,   59.7883606,          12.,   55.8339844
   2132,   61.5589256,          12.,   57.0404892
   2133,   28.8441944,          12.,   54.4625244
   2134,   49.6240807,          12.,   61.6276169
   2135,   56.8710403,          12.,    52.958065
   2136,   36.5890999,          12.,   49.4011002
   2137,   56.2623062,          12.,   45.9445992
   2138,   53.2131271,          12.,   45.0796776
   2139,   47.8109932,          12.,   44.2313423
   2140,   51.6513214,          12.,   43.7319603
   2141,   57.0088844,          12.,   50.8470345
   2142,   55.7205391,          12.,   51.5851631
   2143,    53.750309,          12.,   52.1757774
   2144,    39.909584,          12.,   50.5724983
   2145,   30.3593502,          12.,   55.1999626
   2146,    54.703598,          12.,    46.931881
   2147,     55.14991,          12.,   50.1318436
   2148,   53.2119675,          12.,   50.1473732
   2149,   44.5306778,          12.,   56.7579956
   2150,   45.7276077,          12.,   46.6239967
   2151,   39.0665016,          12.,   55.9654274
   2152,   42.2286873,          12.,   57.0860214
   2153,   44.1511383,          12.,   49.2068748
   2154,   37.2552261,          12.,   53.8390388
   2155,   54.9376907,          12.,   48.9445496
   2156,   53.4485512,          12.,   48.2442551
   2157,   72.6548691,           9.,   46.9750137
   2158,   71.6628723,           9.,   44.0955849
   2159,   70.1294861,           9.,   41.4627342
   2160,   65.9075928,           9.,   37.0858841
   2161,   63.4072647,           9.,   35.3402519
   2162,   57.9375267,           9.,   32.6555138
   2163,   49.0830994,           9.,    30.415472
   2164,   42.9999504,           9.,          30.
   2165,   36.9168015,           9.,   30.4154854
   2166,   28.0623798,           9.,   32.6555481
   2167,   22.5926533,           9.,   35.3403015
   2168,   20.0923309,           9.,   37.0859489
   2169,   15.8704844,           9.,   41.4627762
   2170,   14.3371067,           9.,   44.0956306
   2171,   13.3451195,           9.,   46.9750633
   2172,          73.,           9.,          50.
   2173,          13.,           9.,          50.
   2174,     13.34513,           9.,   53.0249863
   2175,   14.3371286,           9.,   55.9044151
   2176,   15.8705158,           9.,   58.5372658
   2177,   20.0924091,           9.,   62.9141159
   2178,   22.5927353,           9.,   64.6597519
   2179,   28.0624714,           9.,   67.3444901
   2180,   36.9169006,           9.,   69.5845261
   2181,   43.0000496,           9.,          70.
   2182,   49.0831985,           9.,   69.5845108
   2183,   57.9376221,           9.,   67.3444519
   2184,   63.4073448,           9.,   64.6596985
   2185,   65.9076691,           9.,   62.9140511
   2186,   70.1295166,           9.,   58.5372238
   2187,   71.6628952,           9.,   55.9043694
   2188,   72.6548843,           9.,   53.0249367
   2189,   68.1757355,           9.,   39.1232681
   2190,   60.7356377,           9.,   33.8693237
   2191,   55.0464287,           9.,   31.6832371
   2192,   52.0880966,           9.,    30.939785
   2193,   46.0486526,           9.,   30.1035385
   2194,    39.951252,           9.,   30.1035442
   2195,    33.911808,           9.,    30.939806
   2196,    30.953476,           9.,   31.6832657
   2197,   25.2642746,           9.,   33.8693657
   2198,   17.8242264,           9.,   39.1233101
   2199,   17.8242664,           9.,   60.8767319
   2200,   25.2643623,           9.,   66.1306763
   2201,   30.9535713,           9.,   68.3167648
   2202,   33.9119034,           9.,   69.0602112
   2203,   39.9513474,           9.,   69.8964615
   2204,    46.048748,           9.,   69.8964539
   2205,    52.088192,           9.,   69.0601959
   2206,    55.046524,           9.,   68.3167343
   2207,   60.7357254,           9.,   66.1306305
   2208,   68.1757736,           9.,   60.8766899
   2209,   69.5258942,           9.,   54.9326172
   2210,   64.1362152,           9.,   39.5261269
   2211,    57.247551,           9.,   64.6263275
   2212,   54.0768356,           9.,   34.4577789
   2213,   43.6298828,           9.,   67.1327744
   2214,   42.7476616,           9.,     32.92099
   2215,   37.8993492,           9.,    66.756813
   2216,    37.015358,           9.,   33.2688141
   2217,   34.1916924,           9.,   33.7330208
   2218,   28.7034397,           9.,    35.439743
   2219,   23.5378151,           9.,   38.3724174
   2220,   18.3707294,           9.,   42.2230301
   2221,   17.5704823,           9.,   44.7255058
   2222,   18.5653095,           9.,    57.082756
   2223,   22.2543087,           9.,   60.9667015
   2224,    24.538969,           9.,   62.4953651
   2225,   48.4760628,           9.,   33.2820206
   2226,   56.7746696,           9.,   35.3850746
   2227,   61.8235703,           9.,   37.9440575
   2228,   62.3097076,           9.,   62.2839966
   2229,   68.0834503,           9.,   43.0681152
   2230,   68.2229538,           9.,   57.0601044
   2231,   66.2435303,           9.,   41.2466316
   2232,   59.3624077,           9.,   36.5506859
   2233,   49.2157326,           9.,   66.8326569
   2234,   51.3129425,           9.,     33.76194
   2235,   45.6300278,           9.,   33.0115128
   2236,   39.8908348,           9.,   33.0049286
   2237,   29.6094284,           9.,     64.79953
   2238,   31.4259739,           9.,   34.4241028
   2239,    26.122242,           9.,   36.8125534
   2240,   18.9883251,           9.,   40.2219696
   2241,   20.2135029,           9.,   59.1246033
   2242,   26.9988728,           9.,   63.7630272
   2243,   32.2842102,           9.,   65.6375961
   2244,   35.0398788,           9.,   66.2907639
   2245,   40.7461624,           9.,   67.0406723
   2246,   46.4250488,           9.,   67.0781174
   2247,   51.9684601,           9.,   66.3809967
   2248,   54.6127319,           9.,   65.6337662
   2249,    59.809845,           9.,   63.5355911
   2250,   66.5377045,           9.,   58.9728966
   2251,   70.2496796,           9.,   50.0116234
   2252,   70.0942841,           9.,   52.5188904
   2253,   70.1056366,           9.,   47.5148582
   2254,   64.8537827,           9.,   57.0130463
   2255,    62.498333,           9.,   41.9572182
   2256,   44.1684036,           9.,   64.3484955
   2257,   42.5416718,           9.,    35.802124
   2258,   37.1260719,           9.,   35.9899559
   2259,    31.912077,           9.,     36.91362
   2260,   21.2092037,           9.,   42.1310959
   2261,   17.1820335,           9.,   54.9506035
   2262,   26.2218571,           9.,   60.4008675
   2263,   53.2028542,           9.,   37.0906258
   2264,   58.8643417,           9.,   60.9530945
   2265,   46.7970314,           9.,     64.29142
   2266,   27.2437439,           9.,   39.2777252
   2267,   21.2205143,           9.,   55.3573036
   2268,   22.3584595,           9.,   57.6029472
   2269,   56.3867455,           9.,   62.0087929
   2270,   55.6932716,           9.,   37.9509315
   2271,   47.9744492,           9.,   36.0638542
   2272,   38.7373009,           9.,   64.0381927
   2273,   39.8389473,           9.,   35.8393555
   2274,   24.1088371,           9.,   59.1722679
   2275,   21.0357323,           9.,   39.4640694
   2276,   16.8759727,           9.,   47.3389816
   2277,   16.5025902,           9.,   49.9550247
   2278,   16.5540085,           9.,   52.4923401
   2279,   29.4750519,           9.,   37.7222748
   2280,   28.5420494,           9.,   61.4215622
   2281,   34.4689331,           9.,   36.3734932
   2282,   50.6344414,           9.,    36.464119
   2283,   60.3350182,           9.,   40.4187241
   2284,   64.5367813,           9.,   60.7558823
   2285,   66.3790894,           9.,   44.8715477
   2286,   69.4853439,           9.,   45.1248016
   2287,   64.5266571,           9.,   43.5012894
   2288,   58.0614624,           9.,   39.0544739
   2289,   49.3019943,           9.,    64.213356
   2290,   45.2883339,           9.,    35.864769
   2291,   30.9813995,           9.,    62.256134
   2292,     33.47929,           9.,   62.9758644
   2293,    36.038311,           9.,   63.5869789
   2294,   41.4302063,           9.,   64.2943802
   2295,   51.7340622,           9.,   63.9519806
   2296,   53.9813423,           9.,   63.1387787
   2297,   67.4889603,           9.,   52.2971764
   2298,   19.6211452,           9.,   50.0282173
   2299,   19.3978615,           9.,   52.2965508
   2300,   67.6650848,           9.,   47.6967201
   2301,   60.9839745,           9.,   44.2896843
   2302,   24.0277767,           9.,   55.1374474
   2303,   58.9454041,           9.,    42.665493
   2304,   55.2454071,           9.,   59.4879303
   2305,   25.4997253,           9.,   57.4686279
   2306,   29.1467876,           9.,   41.0394859
   2307,   52.9031525,           9.,   60.8179131
   2308,   56.8489685,           9.,   41.3301086
   2309,   30.2728672,           9.,   39.3844986
   2310,   27.4855042,           9.,   58.3419189
   2311,   51.4066048,           9.,   62.0900307
   2312,    54.728775,           9.,   40.3304138
   2313,   32.2373238,           9.,   39.3974113
   2314,   29.7679958,           9.,   59.0754433
   2315,   52.4782677,           9.,   39.5564651
   2316,   34.6958961,           9.,   38.9447403
   2317,   32.1559029,           9.,   59.6202164
   2318,   50.1060257,           9.,   39.0519714
   2319,   47.1876717,           9.,   61.5444717
   2320,   37.2120209,           9.,   38.5316429
   2321,   34.5429001,           9.,    60.289463
   2322,   47.6472511,           9.,   38.7850266
   2323,   44.5611191,           9.,   61.6778717
   2324,   39.7127686,           9.,    38.682579
   2325,   36.9459648,           9.,   60.9521217
   2326,   41.9678764,           9.,   61.6954041
   2327,   39.4086037,           9.,   61.4758453
   2328,   45.0767441,           9.,   38.6921501
   2329,   42.3863678,           9.,   38.7110748
   2330,   24.5961475,           9.,   41.6742134
   2331,   61.1985397,           9.,   60.0969582
   2332,   55.7916832,           9.,   43.2951927
   2333,   28.2541256,           9.,   56.3502159
   2334,   53.7157021,           9.,   57.3310623
   2335,   32.0273056,           9.,   42.2763557
   2336,   50.7341576,           9.,   58.8133278
   2337,   30.4262714,           9.,   56.8440933
   2338,   35.0720825,           9.,   41.4131165
   2339,   53.9158134,           9.,   42.5683403
   2340,   47.4382057,           9.,   58.9273453
   2341,    33.041214,           9.,   56.5920982
   2342,   37.1724319,           9.,   40.5728149
   2343,   51.9499168,           9.,   41.8477364
   2344,   44.7308502,           9.,   59.1676445
   2345,   49.8235016,           9.,   41.5736275
   2346,   39.1664963,           9.,   41.8740578
   2347,   35.5614777,           9.,   57.6811714
   2348,   47.5694695,           9.,   41.4928131
   2349,   42.3445816,           9.,   41.5935326
   2350,   42.2771988,           9.,   59.3158264
   2351,    37.841011,           9.,   58.4649544
   2352,   45.0886765,           9.,   41.4849129
   2353,    39.977314,           9.,   59.1784744
   2354,   23.7237911,           9.,   45.1377563
   2355,   60.3494949,           9.,    58.391674
   2356,   27.5836697,           9.,   43.2286186
   2357,   58.0233688,           9.,   58.0963898
   2358,   49.8513222,           9.,   55.8540993
   2359,   34.7892799,           9.,   54.2829018
   2360,    49.993782,           9.,   44.1633835
   2361,   36.2482224,           9.,   43.5749626
   2362,   45.3517799,           9.,   44.1680717
   2363,   36.6720543,           9.,   55.4577103
   2364,   47.1110077,           9.,    56.359623
   2365,   40.1075058,           9.,   44.8102722
   2366,   58.4257469,           9.,   54.3369675
   2367,   26.7808304,           9.,   45.8613548
   2368,   23.0394611,           9.,   47.8604279
   2369,   64.4875183,           9.,   52.8398628
   2370,   33.4576302,           9.,   44.9283676
   2371,   52.4557915,           9.,   55.0684624
   2372,   25.9708405,           9.,   48.4167252
   2373,   60.9274178,           9.,   52.2579842
   2374,   20.6935787,           9.,   44.9070168
   2375,   66.3371735,           9.,   55.3498993
   2376,   29.9897976,           9.,   44.1250916
   2377,   56.2097092,           9.,   56.0212822
   2378,   54.8099709,           9.,   54.1287117
   2379,    30.386734,           9.,   46.6688614
   2380,   28.8450851,           9.,   49.3535805
   2381,   58.4308434,           9.,   51.3706551
   2382,   22.4648399,           9.,   50.3223991
   2383,   64.5959473,           9.,   49.7221413
   2384,   48.9066582,           9.,   53.0817604
   2385,   35.0271912,           9.,   47.2168045
   2386,    31.202486,           9.,   50.8439484
   2387,   56.7858009,           9.,   49.6878548
   2388,   25.1677208,           9.,   50.8225861
   2389,   61.4010887,           9.,    48.773243
   2390,   32.8042946,           9.,    48.889328
   2391,   51.4336548,           9.,   52.6240883
   2392,   21.9304905,           9.,    52.695118
   2393,   63.0517082,           9.,    45.960041
   2394,   56.0477753,           9.,   48.2975578
   2395,   33.1564941,           9.,   52.6107674
   2396,   27.7163906,           9.,   51.6110153
   2397,   58.6115761,           9.,   49.3105621
   2398,   24.4622059,           9.,   53.0792313
   2399,   59.4362602,           9.,   46.2192917
   2400,   65.3006668,           9.,   47.1064529
   2401,   57.6360054,           9.,   47.4296989
   2402,   29.8849373,           9.,   52.7154541
   2403,   50.8095245,           9.,   49.9740906
   2404,   34.6963539,           9.,   50.8540764
   2405,   51.0032387,           9.,   46.9707947
   2406,   36.1784554,           9.,   52.5564919
   2407,   47.8898163,           9.,   49.9758072
   2408,   37.9168777,           9.,   51.4255524
   2409,   55.0948296,           9.,   44.7945709
   2410,   31.6848087,           9.,    54.268959
   2411,   26.8513165,           9.,   53.6842232
   2412,   57.6553421,           9.,   44.5082436
   2413,   37.5210381,           9.,    45.877533
   2414,   46.3911476,           9.,   53.7689514
   2415,   48.1575966,           9.,   46.9196663
   2416,   38.8502235,           9.,   53.4980621
   2417,   45.3785858,           9.,   51.3352089
   2418,   38.7592201,           9.,   48.2539177
   2419,   43.3265953,           9.,   46.8430176
   2420,   41.6282921,           9.,   55.0105972
   2421,   40.8853722,           9.,   52.8403435
   2422,    45.820961,           9.,   48.5600624
   2423,   42.7586555,           9.,   44.3197327
   2424,   40.4475403,           9.,   57.3989334
   2425,   42.0494194,           9.,   49.8383408
   2426,   41.0448494,           9.,   47.4100266
   2427,   43.9574509,           9.,   54.4072533
   2428,   43.0807877,           9.,   52.1303596
   2429,   20.0720787,           9.,   47.5422592
   2430,   19.2821617,           9.,   54.1353416
   2431,   63.1057014,           9.,   58.7198639
   2432,   67.7481003,           9.,   54.1932373
   2433,   67.4813766,           9.,   49.9650421
   2434,   67.8375702,           9.,   45.8922653
   2435,   63.1173668,           9.,   55.2274666
   2436,   23.9585705,           9.,   56.6781311
   2437,   26.2027836,           9.,    55.633934
   2438,    61.336956,           9.,   54.3754768
   2439,   59.7883606,           9.,   55.8339844
   2440,   61.5589256,           9.,   57.0404892
   2441,   28.8441944,           9.,   54.4625244
   2442,   49.6240807,           9.,   61.6276169
   2443,   56.8710403,           9.,    52.958065
   2444,   36.5890999,           9.,   49.4011002
   2445,   56.2623062,           9.,   45.9445992
   2446,   53.2131271,           9.,   45.0796776
   2447,   47.8109932,           9.,   44.2313423
   2448,   51.6513214,           9.,   43.7319603
   2449,   57.0088844,           9.,   50.8470345
   2450,   55.7205391,           9.,   51.5851631
   2451,    53.750309,           9.,   52.1757774
   2452,    39.909584,           9.,   50.5724983
   2453,   30.3593502,           9.,   55.1999626
   2454,    54.703598,           9.,    46.931881
   2455,     55.14991,           9.,   50.1318436
   2456,   53.2119675,           9.,   50.1473732
   2457,   44.5306778,           9.,   56.7579956
   2458,   45.7276077,           9.,   46.6239967
   2459,   39.0665016,           9.,   55.9654274
   2460,   42.2286873,           9.,   57.0860214
   2461,   44.1511383,           9.,   49.2068748
   2462,   37.2552261,           9.,   53.8390388
   2463,   54.9376907,           9.,   48.9445496
   2464,   53.4485512,           9.,   48.2442551
   2465,   72.6548691,           6.,   46.9750137
   2466,   71.6628723,           6.,   44.0955849
   2467,   70.1294861,           6.,   41.4627342
   2468,   65.9075928,           6.,   37.0858841
   2469,   63.4072647,           6.,   35.3402519
   2470,   57.9375267,           6.,   32.6555138
   2471,   49.0830994,           6.,    30.415472
   2472,   42.9999504,           6.,          30.
   2473,   36.9168015,           6.,   30.4154854
   2474,   28.0623798,           6.,   32.6555481
   2475,   22.5926533,           6.,   35.3403015
   2476,   20.0923309,           6.,   37.0859489
   2477,   15.8704844,           6.,   41.4627762
   2478,   14.3371067,           6.,   44.0956306
   2479,   13.3451195,           6.,   46.9750633
   2480,          73.,           6.,          50.
   2481,          13.,           6.,          50.
   2482,     13.34513,           6.,   53.0249863
   2483,   14.3371286,           6.,   55.9044151
   2484,   15.8705158,           6.,   58.5372658
   2485,   20.0924091,           6.,   62.9141159
   2486,   22.5927353,           6.,   64.6597519
   2487,   28.0624714,           6.,   67.3444901
   2488,   36.9169006,           6.,   69.5845261
   2489,   43.0000496,           6.,          70.
   2490,   49.0831985,           6.,   69.5845108
   2491,   57.9376221,           6.,   67.3444519
   2492,   63.4073448,           6.,   64.6596985
   2493,   65.9076691,           6.,   62.9140511
   2494,   70.1295166,           6.,   58.5372238
   2495,   71.6628952,           6.,   55.9043694
   2496,   72.6548843,           6.,   53.0249367
   2497,   68.1757355,           6.,   39.1232681
   2498,   60.7356377,           6.,   33.8693237
   2499,   55.0464287,           6.,   31.6832371
   2500,   52.0880966,           6.,    30.939785
   2501,   46.0486526,           6.,   30.1035385
   2502,    39.951252,           6.,   30.1035442
   2503,    33.911808,           6.,    30.939806
   2504,    30.953476,           6.,   31.6832657
   2505,   25.2642746,           6.,   33.8693657
   2506,   17.8242264,           6.,   39.1233101
   2507,   17.8242664,           6.,   60.8767319
   2508,   25.2643623,           6.,   66.1306763
   2509,   30.9535713,           6.,   68.3167648
   2510,   33.9119034,           6.,   69.0602112
   2511,   39.9513474,           6.,   69.8964615
   2512,    46.048748,           6.,   69.8964539
   2513,    52.088192,           6.,   69.0601959
   2514,    55.046524,           6.,   68.3167343
   2515,   60.7357254,           6.,   66.1306305
   2516,   68.1757736,           6.,   60.8766899
   2517,   69.5258942,           6.,   54.9326172
   2518,   64.1362152,           6.,   39.5261269
   2519,    57.247551,           6.,   64.6263275
   2520,   54.0768356,           6.,   34.4577789
   2521,   43.6298828,           6.,   67.1327744
   2522,   42.7476616,           6.,     32.92099
   2523,   37.8993492,           6.,    66.756813
   2524,    37.015358,           6.,   33.2688141
   2525,   34.1916924,           6.,   33.7330208
   2526,   28.7034397,           6.,    35.439743
   2527,   23.5378151,           6.,   38.3724174
   2528,   18.3707294,           6.,   42.2230301
   2529,   17.5704823,           6.,   44.7255058
   2530,   18.5653095,           6.,    57.082756
   2531,   22.2543087,           6.,   60.9667015
   2532,    24.538969,           6.,   62.4953651
   2533,   48.4760628,           6.,   33.2820206
   2534,   56.7746696,           6.,   35.3850746
   2535,   61.8235703,           6.,   37.9440575
   2536,   62.3097076,           6.,   62.2839966
   2537,   68.0834503,           6.,   43.0681152
   2538,   68.2229538,           6.,   57.0601044
   2539,   66.2435303,           6.,   41.2466316
   2540,   59.3624077,           6.,   36.5506859
   2541,   49.2157326,           6.,   66.8326569
   2542,   51.3129425,           6.,     33.76194
   2543,   45.6300278,           6.,   33.0115128
   2544,   39.8908348,           6.,   33.0049286
   2545,   29.6094284,           6.,     64.79953
   2546,   31.4259739,           6.,   34.4241028
   2547,    26.122242,           6.,   36.8125534
   2548,   18.9883251,           6.,   40.2219696
   2549,   20.2135029,           6.,   59.1246033
   2550,   26.9988728,           6.,   63.7630272
   2551,   32.2842102,           6.,   65.6375961
   2552,   35.0398788,           6.,   66.2907639
   2553,   40.7461624,           6.,   67.0406723
   2554,   46.4250488,           6.,   67.0781174
   2555,   51.9684601,           6.,   66.3809967
   2556,   54.6127319,           6.,   65.6337662
   2557,    59.809845,           6.,   63.5355911
   2558,   66.5377045,           6.,   58.9728966
   2559,   70.2496796,           6.,   50.0116234
   2560,   70.0942841,           6.,   52.5188904
   2561,   70.1056366,           6.,   47.5148582
   2562,   64.8537827,           6.,   57.0130463
   2563,    62.498333,           6.,   41.9572182
   2564,   44.1684036,           6.,   64.3484955
   2565,   42.5416718,           6.,    35.802124
   2566,   37.1260719,           6.,   35.9899559
   2567,    31.912077,           6.,     36.91362
   2568,   21.2092037,           6.,   42.1310959
   2569,   17.1820335,           6.,   54.9506035
   2570,   26.2218571,           6.,   60.4008675
   2571,   53.2028542,           6.,   37.0906258
   2572,   58.8643417,           6.,   60.9530945
   2573,   46.7970314,           6.,     64.29142
   2574,   27.2437439,           6.,   39.2777252
   2575,   21.2205143,           6.,   55.3573036
   2576,   22.3584595,           6.,   57.6029472
   2577,   56.3867455,           6.,   62.0087929
   2578,   55.6932716,           6.,   37.9509315
   2579,   47.9744492,           6.,   36.0638542
   2580,   38.7373009,           6.,   64.0381927
   2581,   39.8389473,           6.,   35.8393555
   2582,   24.1088371,           6.,   59.1722679
   2583,   21.0357323,           6.,   39.4640694
   2584,   16.8759727,           6.,   47.3389816
   2585,   16.5025902,           6.,   49.9550247
   2586,   16.5540085,           6.,   52.4923401
   2587,   29.4750519,           6.,   37.7222748
   2588,   28.5420494,           6.,   61.4215622
   2589,   34.4689331,           6.,   36.3734932
   2590,   50.6344414,           6.,    36.464119
   2591,   60.3350182,           6.,   40.4187241
   2592,   64.5367813,           6.,   60.7558823
   2593,   66.3790894,           6.,   44.8715477
   2594,   69.4853439,           6.,   45.1248016
   2595,   64.5266571,           6.,   43.5012894
   2596,   58.0614624,           6.,   39.0544739
   2597,   49.3019943,           6.,    64.213356
   2598,   45.2883339,           6.,    35.864769
   2599,   30.9813995,           6.,    62.256134
   2600,     33.47929,           6.,   62.9758644
   2601,    36.038311,           6.,   63.5869789
   2602,   41.4302063,           6.,   64.2943802
   2603,   51.7340622,           6.,   63.9519806
   2604,   53.9813423,           6.,   63.1387787
   2605,   67.4889603,           6.,   52.2971764
   2606,   19.6211452,           6.,   50.0282173
   2607,   19.3978615,           6.,   52.2965508
   2608,   67.6650848,           6.,   47.6967201
   2609,   60.9839745,           6.,   44.2896843
   2610,   24.0277767,           6.,   55.1374474
   2611,   58.9454041,           6.,    42.665493
   2612,   55.2454071,           6.,   59.4879303
   2613,   25.4997253,           6.,   57.4686279
   2614,   29.1467876,           6.,   41.0394859
   2615,   52.9031525,           6.,   60.8179131
   2616,   56.8489685,           6.,   41.3301086
   2617,   30.2728672,           6.,   39.3844986
   2618,   27.4855042,           6.,   58.3419189
   2619,   51.4066048,           6.,   62.0900307
   2620,    54.728775,           6.,   40.3304138
   2621,   32.2373238,           6.,   39.3974113
   2622,   29.7679958,           6.,   59.0754433
   2623,   52.4782677,           6.,   39.5564651
   2624,   34.6958961,           6.,   38.9447403
   2625,   32.1559029,           6.,   59.6202164
   2626,   50.1060257,           6.,   39.0519714
   2627,   47.1876717,           6.,   61.5444717
   2628,   37.2120209,           6.,   38.5316429
   2629,   34.5429001,           6.,    60.289463
   2630,   47.6472511,           6.,   38.7850266
   2631,   44.5611191,           6.,   61.6778717
   2632,   39.7127686,           6.,    38.682579
   2633,   36.9459648,           6.,   60.9521217
   2634,   41.9678764,           6.,   61.6954041
   2635,   39.4086037,           6.,   61.4758453
   2636,   45.0767441,           6.,   38.6921501
   2637,   42.3863678,           6.,   38.7110748
   2638,   24.5961475,           6.,   41.6742134
   2639,   61.1985397,           6.,   60.0969582
   2640,   55.7916832,           6.,   43.2951927
   2641,   28.2541256,           6.,   56.3502159
   2642,   53.7157021,           6.,   57.3310623
   2643,   32.0273056,           6.,   42.2763557
   2644,   50.7341576,           6.,   58.8133278
   2645,   30.4262714,           6.,   56.8440933
   2646,   35.0720825,           6.,   41.4131165
   2647,   53.9158134,           6.,   42.5683403
   2648,   47.4382057,           6.,   58.9273453
   2649,    33.041214,           6.,   56.5920982
   2650,   37.1724319,           6.,   40.5728149
   2651,   51.9499168,           6.,   41.8477364
   2652,   44.7308502,           6.,   59.1676445
   2653,   49.8235016,           6.,   41.5736275
   2654,   39.1664963,           6.,   41.8740578
   2655,   35.5614777,           6.,   57.6811714
   2656,   47.5694695,           6.,   41.4928131
   2657,   42.3445816,           6.,   41.5935326
   2658,   42.2771988,           6.,   59.3158264
   2659,    37.841011,           6.,   58.4649544
   2660,   45.0886765,           6.,   41.4849129
   2661,    39.977314,           6.,   59.1784744
   2662,   23.7237911,           6.,   45.1377563
   2663,   60.3494949,           6.,    58.391674
   2664,   27.5836697,           6.,   43.2286186
   2665,   58.0233688,           6.,   58.0963898
   2666,   49.8513222,           6.,   55.8540993
   2667,   34.7892799,           6.,   54.2829018
   2668,    49.993782,           6.,   44.1633835
   2669,   36.2482224,           6.,   43.5749626
   2670,   45.3517799,           6.,   44.1680717
   2671,   36.6720543,           6.,   55.4577103
   2672,   47.1110077,           6.,    56.359623
   2673,   40.1075058,           6.,   44.8102722
   2674,   58.4257469,           6.,   54.3369675
   2675,   26.7808304,           6.,   45.8613548
   2676,   23.0394611,           6.,   47.8604279
   2677,   64.4875183,           6.,   52.8398628
   2678,   33.4576302,           6.,   44.9283676
   2679,   52.4557915,           6.,   55.0684624
   2680,   25.9708405,           6.,   48.4167252
   2681,   60.9274178,           6.,   52.2579842
   2682,   20.6935787,           6.,   44.9070168
   2683,   66.3371735,           6.,   55.3498993
   2684,   29.9897976,           6.,   44.1250916
   2685,   56.2097092,           6.,   56.0212822
   2686,   54.8099709,           6.,   54.1287117
   2687,    30.386734,           6.,   46.6688614
   2688,   28.8450851,           6.,   49.3535805
   2689,   58.4308434,           6.,   51.3706551
   2690,   22.4648399,           6.,   50.3223991
   2691,   64.5959473,           6.,   49.7221413
   2692,   48.9066582,           6.,   53.0817604
   2693,   35.0271912,           6.,   47.2168045
   2694,    31.202486,           6.,   50.8439484
   2695,   56.7858009,           6.,   49.6878548
   2696,   25.1677208,           6.,   50.8225861
   2697,   61.4010887,           6.,    48.773243
   2698,   32.8042946,           6.,    48.889328
   2699,   51.4336548,           6.,   52.6240883
   2700,   21.9304905,           6.,    52.695118
   2701,   63.0517082,           6.,    45.960041
   2702,   56.0477753,           6.,   48.2975578
   2703,   33.1564941,           6.,   52.6107674
   2704,   27.7163906,           6.,   51.6110153
   2705,   58.6115761,           6.,   49.3105621
   2706,   24.4622059,           6.,   53.0792313
   2707,   59.4362602,           6.,   46.2192917
   2708,   65.3006668,           6.,   47.1064529
   2709,   57.6360054,           6.,   47.4296989
   2710,   29.8849373,           6.,   52.7154541
   2711,   50.8095245,           6.,   49.9740906
   2712,   34.6963539,           6.,   50.8540764
   2713,   51.0032387,           6.,   46.9707947
   2714,   36.1784554,           6.,   52.5564919
   2715,   47.8898163,           6.,   49.9758072
   2716,   37.9168777,           6.,   51.4255524
   2717,   55.0948296,           6.,   44.7945709
   2718,   31.6848087,           6.,    54.268959
   2719,   26.8513165,           6.,   53.6842232
   2720,   57.6553421,           6.,   44.5082436
   2721,   37.5210381,           6.,    45.877533
   2722,   46.3911476,           6.,   53.7689514
   2723,   48.1575966,           6.,   46.9196663
   2724,   38.8502235,           6.,   53.4980621
   2725,   45.3785858,           6.,   51.3352089
   2726,   38.7592201,           6.,   48.2539177
   2727,   43.3265953,           6.,   46.8430176
   2728,   41.6282921,           6.,   55.0105972
   2729,   40.8853722,           6.,   52.8403435
   2730,    45.820961,           6.,   48.5600624
   2731,   42.7586555,           6.,   44.3197327
   2732,   40.4475403,           6.,   57.3989334
   2733,   42.0494194,           6.,   49.8383408
   2734,   41.0448494,           6.,   47.4100266
   2735,   43.9574509,           6.,   54.4072533
   2736,   43.0807877,           6.,   52.1303596
   2737,   20.0720787,           6.,   47.5422592
   2738,   19.2821617,           6.,   54.1353416
   2739,   63.1057014,           6.,   58.7198639
   2740,   67.7481003,           6.,   54.1932373
   2741,   67.4813766,           6.,   49.9650421
   2742,   67.8375702,           6.,   45.8922653
   2743,   63.1173668,           6.,   55.2274666
   2744,   23.9585705,           6.,   56.6781311
   2745,   26.2027836,           6.,    55.633934
   2746,    61.336956,           6.,   54.3754768
   2747,   59.7883606,           6.,   55.8339844
   2748,   61.5589256,           6.,   57.0404892
   2749,   28.8441944,           6.,   54.4625244
   2750,   49.6240807,           6.,   61.6276169
   2751,   56.8710403,           6.,    52.958065
   2752,   36.5890999,           6.,   49.4011002
   2753,   56.2623062,           6.,   45.9445992
   2754,   53.2131271,           6.,   45.0796776
   2755,   47.8109932,           6.,   44.2313423
   2756,   51.6513214,           6.,   43.7319603
   2757,   57.0088844,           6.,   50.8470345
   2758,   55.7205391,           6.,   51.5851631
   2759,    53.750309,           6.,   52.1757774
   2760,    39.909584,           6.,   50.5724983
   2761,   30.3593502,           6.,   55.1999626
   2762,    54.703598,           6.,    46.931881
   2763,     55.14991,           6.,   50.1318436
   2764,   53.2119675,           6.,   50.1473732
   2765,   44.5306778,           6.,   56.7579956
   2766,   45.7276077,           6.,   46.6239967
   2767,   39.0665016,           6.,   55.9654274
   2768,   42.2286873,           6.,   57.0860214
   2769,   44.1511383,           6.,   49.2068748
   2770,   37.2552261,           6.,   53.8390388
   2771,   54.9376907,           6.,   48.9445496
   2772,   53.4485512,           6.,   48.2442551
   2773,   72.6548691,           3.,   46.9750137
   2774,   71.6628723,           3.,   44.0955849
   2775,   70.1294861,           3.,   41.4627342
   2776,   65.9075928,           3.,   37.0858841
   2777,   63.4072647,           3.,   35.3402519
   2778,   57.9375267,           3.,   32.6555138
   2779,   49.0830994,           3.,    30.415472
   2780,   42.9999504,           3.,          30.
   2781,   36.9168015,           3.,   30.4154854
   2782,   28.0623798,           3.,   32.6555481
   2783,   22.5926533,           3.,   35.3403015
   2784,   20.0923309,           3.,   37.0859489
   2785,   15.8704844,           3.,   41.4627762
   2786,   14.3371067,           3.,   44.0956306
   2787,   13.3451195,           3.,   46.9750633
   2788,          73.,           3.,          50.
   2789,          13.,           3.,          50.
   2790,     13.34513,           3.,   53.0249863
   2791,   14.3371286,           3.,   55.9044151
   2792,   15.8705158,           3.,   58.5372658
   2793,   20.0924091,           3.,   62.9141159
   2794,   22.5927353,           3.,   64.6597519
   2795,   28.0624714,           3.,   67.3444901
   2796,   36.9169006,           3.,   69.5845261
   2797,   43.0000496,           3.,          70.
   2798,   49.0831985,           3.,   69.5845108
   2799,   57.9376221,           3.,   67.3444519
   2800,   63.4073448,           3.,   64.6596985
   2801,   65.9076691,           3.,   62.9140511
   2802,   70.1295166,           3.,   58.5372238
   2803,   71.6628952,           3.,   55.9043694
   2804,   72.6548843,           3.,   53.0249367
   2805,   68.1757355,           3.,   39.1232681
   2806,   60.7356377,           3.,   33.8693237
   2807,   55.0464287,           3.,   31.6832371
   2808,   52.0880966,           3.,    30.939785
   2809,   46.0486526,           3.,   30.1035385
   2810,    39.951252,           3.,   30.1035442
   2811,    33.911808,           3.,    30.939806
   2812,    30.953476,           3.,   31.6832657
   2813,   25.2642746,           3.,   33.8693657
   2814,   17.8242264,           3.,   39.1233101
   2815,   17.8242664,           3.,   60.8767319
   2816,   25.2643623,           3.,   66.1306763
   2817,   30.9535713,           3.,   68.3167648
   2818,   33.9119034,           3.,   69.0602112
   2819,   39.9513474,           3.,   69.8964615
   2820,    46.048748,           3.,   69.8964539
   2821,    52.088192,           3.,   69.0601959
   2822,    55.046524,           3.,   68.3167343
   2823,   60.7357254,           3.,   66.1306305
   2824,   68.1757736,           3.,   60.8766899
   2825,   69.5258942,           3.,   54.9326172
   2826,   64.1362152,           3.,   39.5261269
   2827,    57.247551,           3.,   64.6263275
   2828,   54.0768356,           3.,   34.4577789
   2829,   43.6298828,           3.,   67.1327744
   2830,   42.7476616,           3.,     32.92099
   2831,   37.8993492,           3.,    66.756813
   2832,    37.015358,           3.,   33.2688141
   2833,   34.1916924,           3.,   33.7330208
   2834,   28.7034397,           3.,    35.439743
   2835,   23.5378151,           3.,   38.3724174
   2836,   18.3707294,           3.,   42.2230301
   2837,   17.5704823,           3.,   44.7255058
   2838,   18.5653095,           3.,    57.082756
   2839,   22.2543087,           3.,   60.9667015
   2840,    24.538969,           3.,   62.4953651
   2841,   48.4760628,           3.,   33.2820206
   2842,   56.7746696,           3.,   35.3850746
   2843,   61.8235703,           3.,   37.9440575
   2844,   62.3097076,           3.,   62.2839966
   2845,   68.0834503,           3.,   43.0681152
   2846,   68.2229538,           3.,   57.0601044
   2847,   66.2435303,           3.,   41.2466316
   2848,   59.3624077,           3.,   36.5506859
   2849,   49.2157326,           3.,   66.8326569
   2850,   51.3129425,           3.,     33.76194
   2851,   45.6300278,           3.,   33.0115128
   2852,   39.8908348,           3.,   33.0049286
   2853,   29.6094284,           3.,     64.79953
   2854,   31.4259739,           3.,   34.4241028
   2855,    26.122242,           3.,   36.8125534
   2856,   18.9883251,           3.,   40.2219696
   2857,   20.2135029,           3.,   59.1246033
   2858,   26.9988728,           3.,   63.7630272
   2859,   32.2842102,           3.,   65.6375961
   2860,   35.0398788,           3.,   66.2907639
   2861,   40.7461624,           3.,   67.0406723
   2862,   46.4250488,           3.,   67.0781174
   2863,   51.9684601,           3.,   66.3809967
   2864,   54.6127319,           3.,   65.6337662
   2865,    59.809845,           3.,   63.5355911
   2866,   66.5377045,           3.,   58.9728966
   2867,   70.2496796,           3.,   50.0116234
   2868,   70.0942841,           3.,   52.5188904
   2869,   70.1056366,           3.,   47.5148582
   2870,   64.8537827,           3.,   57.0130463
   2871,    62.498333,           3.,   41.9572182
   2872,   44.1684036,           3.,   64.3484955
   2873,   42.5416718,           3.,    35.802124
   2874,   37.1260719,           3.,   35.9899559
   2875,    31.912077,           3.,     36.91362
   2876,   21.2092037,           3.,   42.1310959
   2877,   17.1820335,           3.,   54.9506035
   2878,   26.2218571,           3.,   60.4008675
   2879,   53.2028542,           3.,   37.0906258
   2880,   58.8643417,           3.,   60.9530945
   2881,   46.7970314,           3.,     64.29142
   2882,   27.2437439,           3.,   39.2777252
   2883,   21.2205143,           3.,   55.3573036
   2884,   22.3584595,           3.,   57.6029472
   2885,   56.3867455,           3.,   62.0087929
   2886,   55.6932716,           3.,   37.9509315
   2887,   47.9744492,           3.,   36.0638542
   2888,   38.7373009,           3.,   64.0381927
   2889,   39.8389473,           3.,   35.8393555
   2890,   24.1088371,           3.,   59.1722679
   2891,   21.0357323,           3.,   39.4640694
   2892,   16.8759727,           3.,   47.3389816
   2893,   16.5025902,           3.,   49.9550247
   2894,   16.5540085,           3.,   52.4923401
   2895,   29.4750519,           3.,   37.7222748
   2896,   28.5420494,           3.,   61.4215622
   2897,   34.4689331,           3.,   36.3734932
   2898,   50.6344414,           3.,    36.464119
   2899,   60.3350182,           3.,   40.4187241
   2900,   64.5367813,           3.,   60.7558823
   2901,   66.3790894,           3.,   44.8715477
   2902,   69.4853439,           3.,   45.1248016
   2903,   64.5266571,           3.,   43.5012894
   2904,   58.0614624,           3.,   39.0544739
   2905,   49.3019943,           3.,    64.213356
   2906,   45.2883339,           3.,    35.864769
   2907,   30.9813995,           3.,    62.256134
   2908,     33.47929,           3.,   62.9758644
   2909,    36.038311,           3.,   63.5869789
   2910,   41.4302063,           3.,   64.2943802
   2911,   51.7340622,           3.,   63.9519806
   2912,   53.9813423,           3.,   63.1387787
   2913,   67.4889603,           3.,   52.2971764
   2914,   19.6211452,           3.,   50.0282173
   2915,   19.3978615,           3.,   52.2965508
   2916,   67.6650848,           3.,   47.6967201
   2917,   60.9839745,           3.,   44.2896843
   2918,   24.0277767,           3.,   55.1374474
   2919,   58.9454041,           3.,    42.665493
   2920,   55.2454071,           3.,   59.4879303
   2921,   25.4997253,           3.,   57.4686279
   2922,   29.1467876,           3.,   41.0394859
   2923,   52.9031525,           3.,   60.8179131
   2924,   56.8489685,           3.,   41.3301086
   2925,   30.2728672,           3.,   39.3844986
   2926,   27.4855042,           3.,   58.3419189
   2927,   51.4066048,           3.,   62.0900307
   2928,    54.728775,           3.,   40.3304138
   2929,   32.2373238,           3.,   39.3974113
   2930,   29.7679958,           3.,   59.0754433
   2931,   52.4782677,           3.,   39.5564651
   2932,   34.6958961,           3.,   38.9447403
   2933,   32.1559029,           3.,   59.6202164
   2934,   50.1060257,           3.,   39.0519714
   2935,   47.1876717,           3.,   61.5444717
   2936,   37.2120209,           3.,   38.5316429
   2937,   34.5429001,           3.,    60.289463
   2938,   47.6472511,           3.,   38.7850266
   2939,   44.5611191,           3.,   61.6778717
   2940,   39.7127686,           3.,    38.682579
   2941,   36.9459648,           3.,   60.9521217
   2942,   41.9678764,           3.,   61.6954041
   2943,   39.4086037,           3.,   61.4758453
   2944,   45.0767441,           3.,   38.6921501
   2945,   42.3863678,           3.,   38.7110748
   2946,   24.5961475,           3.,   41.6742134
   2947,   61.1985397,           3.,   60.0969582
   2948,   55.7916832,           3.,   43.2951927
   2949,   28.2541256,           3.,   56.3502159
   2950,   53.7157021,           3.,   57.3310623
   2951,   32.0273056,           3.,   42.2763557
   2952,   50.7341576,           3.,   58.8133278
   2953,   30.4262714,           3.,   56.8440933
   2954,   35.0720825,           3.,   41.4131165
   2955,   53.9158134,           3.,   42.5683403
   2956,   47.4382057,           3.,   58.9273453
   2957,    33.041214,           3.,   56.5920982
   2958,   37.1724319,           3.,   40.5728149
   2959,   51.9499168,           3.,   41.8477364
   2960,   44.7308502,           3.,   59.1676445
   2961,   49.8235016,           3.,   41.5736275
   2962,   39.1664963,           3.,   41.8740578
   2963,   35.5614777,           3.,   57.6811714
   2964,   47.5694695,           3.,   41.4928131
   2965,   42.3445816,           3.,   41.5935326
   2966,   42.2771988,           3.,   59.3158264
   2967,    37.841011,           3.,   58.4649544
   2968,   45.0886765,           3.,   41.4849129
   2969,    39.977314,           3.,   59.1784744
   2970,   23.7237911,           3.,   45.1377563
   2971,   60.3494949,           3.,    58.391674
   2972,   27.5836697,           3.,   43.2286186
   2973,   58.0233688,           3.,   58.0963898
   2974,   49.8513222,           3.,   55.8540993
   2975,   34.7892799,           3.,   54.2829018
   2976,    49.993782,           3.,   44.1633835
   2977,   36.2482224,           3.,   43.5749626
   2978,   45.3517799,           3.,   44.1680717
   2979,   36.6720543,           3.,   55.4577103
   2980,   47.1110077,           3.,    56.359623
   2981,   40.1075058,           3.,   44.8102722
   2982,   58.4257469,           3.,   54.3369675
   2983,   26.7808304,           3.,   45.8613548
   2984,   23.0394611,           3.,   47.8604279
   2985,   64.4875183,           3.,   52.8398628
   2986,   33.4576302,           3.,   44.9283676
   2987,   52.4557915,           3.,   55.0684624
   2988,   25.9708405,           3.,   48.4167252
   2989,   60.9274178,           3.,   52.2579842
   2990,   20.6935787,           3.,   44.9070168
   2991,   66.3371735,           3.,   55.3498993
   2992,   29.9897976,           3.,   44.1250916
   2993,   56.2097092,           3.,   56.0212822
   2994,   54.8099709,           3.,   54.1287117
   2995,    30.386734,           3.,   46.6688614
   2996,   28.8450851,           3.,   49.3535805
   2997,   58.4308434,           3.,   51.3706551
   2998,   22.4648399,           3.,   50.3223991
   2999,   64.5959473,           3.,   49.7221413
   3000,   48.9066582,           3.,   53.0817604
   3001,   35.0271912,           3.,   47.2168045
   3002,    31.202486,           3.,   50.8439484
   3003,   56.7858009,           3.,   49.6878548
   3004,   25.1677208,           3.,   50.8225861
   3005,   61.4010887,           3.,    48.773243
   3006,   32.8042946,           3.,    48.889328
   3007,   51.4336548,           3.,   52.6240883
   3008,   21.9304905,           3.,    52.695118
   3009,   63.0517082,           3.,    45.960041
   3010,   56.0477753,           3.,   48.2975578
   3011,   33.1564941,           3.,   52.6107674
   3012,   27.7163906,           3.,   51.6110153
   3013,   58.6115761,           3.,   49.3105621
   3014,   24.4622059,           3.,   53.0792313
   3015,   59.4362602,           3.,   46.2192917
   3016,   65.3006668,           3.,   47.1064529
   3017,   57.6360054,           3.,   47.4296989
   3018,   29.8849373,           3.,   52.7154541
   3019,   50.8095245,           3.,   49.9740906
   3020,   34.6963539,           3.,   50.8540764
   3021,   51.0032387,           3.,   46.9707947
   3022,   36.1784554,           3.,   52.5564919
   3023,   47.8898163,           3.,   49.9758072
   3024,   37.9168777,           3.,   51.4255524
   3025,   55.0948296,           3.,   44.7945709
   3026,   31.6848087,           3.,    54.268959
   3027,   26.8513165,           3.,   53.6842232
   3028,   57.6553421,           3.,   44.5082436
   3029,   37.5210381,           3.,    45.877533
   3030,   46.3911476,           3.,   53.7689514
   3031,   48.1575966,           3.,   46.9196663
   3032,   38.8502235,           3.,   53.4980621
   3033,   45.3785858,           3.,   51.3352089
   3034,   38.7592201,           3.,   48.2539177
   3035,   43.3265953,           3.,   46.8430176
   3036,   41.6282921,           3.,   55.0105972
   3037,   40.8853722,           3.,   52.8403435
   3038,    45.820961,           3.,   48.5600624
   3039,   42.7586555,           3.,   44.3197327
   3040,   40.4475403,           3.,   57.3989334
   3041,   42.0494194,           3.,   49.8383408
   3042,   41.0448494,           3.,   47.4100266
   3043,   43.9574509,           3.,   54.4072533
   3044,   43.0807877,           3.,   52.1303596
   3045,   20.0720787,           3.,   47.5422592
   3046,   19.2821617,           3.,   54.1353416
   3047,   63.1057014,           3.,   58.7198639
   3048,   67.7481003,           3.,   54.1932373
   3049,   67.4813766,           3.,   49.9650421
   3050,   67.8375702,           3.,   45.8922653
   3051,   63.1173668,           3.,   55.2274666
   3052,   23.9585705,           3.,   56.6781311
   3053,   26.2027836,           3.,    55.633934
   3054,    61.336956,           3.,   54.3754768
   3055,   59.7883606,           3.,   55.8339844
   3056,   61.5589256,           3.,   57.0404892
   3057,   28.8441944,           3.,   54.4625244
   3058,   49.6240807,           3.,   61.6276169
   3059,   56.8710403,           3.,    52.958065
   3060,   36.5890999,           3.,   49.4011002
   3061,   56.2623062,           3.,   45.9445992
   3062,   53.2131271,           3.,   45.0796776
   3063,   47.8109932,           3.,   44.2313423
   3064,   51.6513214,           3.,   43.7319603
   3065,   57.0088844,           3.,   50.8470345
   3066,   55.7205391,           3.,   51.5851631
   3067,    53.750309,           3.,   52.1757774
   3068,    39.909584,           3.,   50.5724983
   3069,   30.3593502,           3.,   55.1999626
   3070,    54.703598,           3.,    46.931881
   3071,     55.14991,           3.,   50.1318436
   3072,   53.2119675,           3.,   50.1473732
   3073,   44.5306778,           3.,   56.7579956
   3074,   45.7276077,           3.,   46.6239967
   3075,   39.0665016,           3.,   55.9654274
   3076,   42.2286873,           3.,   57.0860214
   3077,   44.1511383,           3.,   49.2068748
   3078,   37.2552261,           3.,   53.8390388
   3079,   54.9376907,           3.,   48.9445496
   3080,   53.4485512,           3.,   48.2442551
   3081,   72.6548691,           0.,   46.9750137
   3082,   71.6628723,           0.,   44.0955849
   3083,   70.1294861,           0.,   41.4627342
   3084,   65.9075928,           0.,   37.0858841
   3085,   63.4072647,           0.,   35.3402519
   3086,   57.9375267,           0.,   32.6555138
   3087,   49.0830994,           0.,    30.415472
   3088,   42.9999504,           0.,          30.
   3089,   36.9168015,           0.,   30.4154854
   3090,   28.0623798,           0.,   32.6555481
   3091,   22.5926533,           0.,   35.3403015
   3092,   20.0923309,           0.,   37.0859489
   3093,   15.8704844,           0.,   41.4627762
   3094,   14.3371067,           0.,   44.0956306
   3095,   13.3451195,           0.,   46.9750633
   3096,          73.,           0.,          50.
   3097,          13.,           0.,          50.
   3098,     13.34513,           0.,   53.0249863
   3099,   14.3371286,           0.,   55.9044151
   3100,   15.8705158,           0.,   58.5372658
   3101,   20.0924091,           0.,   62.9141159
   3102,   22.5927353,           0.,   64.6597519
   3103,   28.0624714,           0.,   67.3444901
   3104,   36.9169006,           0.,   69.5845261
   3105,   43.0000496,           0.,          70.
   3106,   49.0831985,           0.,   69.5845108
   3107,   57.9376221,           0.,   67.3444519
   3108,   63.4073448,           0.,   64.6596985
   3109,   65.9076691,           0.,   62.9140511
   3110,   70.1295166,           0.,   58.5372238
   3111,   71.6628952,           0.,   55.9043694
   3112,   72.6548843,           0.,   53.0249367
   3113,   68.1757355,           0.,   39.1232681
   3114,   60.7356377,           0.,   33.8693237
   3115,   55.0464287,           0.,   31.6832371
   3116,   52.0880966,           0.,    30.939785
   3117,   46.0486526,           0.,   30.1035385
   3118,    39.951252,           0.,   30.1035442
   3119,    33.911808,           0.,    30.939806
   3120,    30.953476,           0.,   31.6832657
   3121,   25.2642746,           0.,   33.8693657
   3122,   17.8242264,           0.,   39.1233101
   3123,   17.8242664,           0.,   60.8767319
   3124,   25.2643623,           0.,   66.1306763
   3125,   30.9535713,           0.,   68.3167648
   3126,   33.9119034,           0.,   69.0602112
   3127,   39.9513474,           0.,   69.8964615
   3128,    46.048748,           0.,   69.8964539
   3129,    52.088192,           0.,   69.0601959
   3130,    55.046524,           0.,   68.3167343
   3131,   60.7357254,           0.,   66.1306305
   3132,   68.1757736,           0.,   60.8766899
   3133,   69.5258942,           0.,   54.9326172
   3134,   64.1362152,           0.,   39.5261269
   3135,    57.247551,           0.,   64.6263275
   3136,   54.0768356,           0.,   34.4577789
   3137,   43.6298828,           0.,   67.1327744
   3138,   42.7476616,           0.,     32.92099
   3139,   37.8993492,           0.,    66.756813
   3140,    37.015358,           0.,   33.2688141
   3141,   34.1916924,           0.,   33.7330208
   3142,   28.7034397,           0.,    35.439743
   3143,   23.5378151,           0.,   38.3724174
   3144,   18.3707294,           0.,   42.2230301
   3145,   17.5704823,           0.,   44.7255058
   3146,   18.5653095,           0.,    57.082756
   3147,   22.2543087,           0.,   60.9667015
   3148,    24.538969,           0.,   62.4953651
   3149,   48.4760628,           0.,   33.2820206
   3150,   56.7746696,           0.,   35.3850746
   3151,   61.8235703,           0.,   37.9440575
   3152,   62.3097076,           0.,   62.2839966
   3153,   68.0834503,           0.,   43.0681152
   3154,   68.2229538,           0.,   57.0601044
   3155,   66.2435303,           0.,   41.2466316
   3156,   59.3624077,           0.,   36.5506859
   3157,   49.2157326,           0.,   66.8326569
   3158,   51.3129425,           0.,     33.76194
   3159,   45.6300278,           0.,   33.0115128
   3160,   39.8908348,           0.,   33.0049286
   3161,   29.6094284,           0.,     64.79953
   3162,   31.4259739,           0.,   34.4241028
   3163,    26.122242,           0.,   36.8125534
   3164,   18.9883251,           0.,   40.2219696
   3165,   20.2135029,           0.,   59.1246033
   3166,   26.9988728,           0.,   63.7630272
   3167,   32.2842102,           0.,   65.6375961
   3168,   35.0398788,           0.,   66.2907639
   3169,   40.7461624,           0.,   67.0406723
   3170,   46.4250488,           0.,   67.0781174
   3171,   51.9684601,           0.,   66.3809967
   3172,   54.6127319,           0.,   65.6337662
   3173,    59.809845,           0.,   63.5355911
   3174,   66.5377045,           0.,   58.9728966
   3175,   70.2496796,           0.,   50.0116234
   3176,   70.0942841,           0.,   52.5188904
   3177,   70.1056366,           0.,   47.5148582
   3178,   64.8537827,           0.,   57.0130463
   3179,    62.498333,           0.,   41.9572182
   3180,   44.1684036,           0.,   64.3484955
   3181,   42.5416718,           0.,    35.802124
   3182,   37.1260719,           0.,   35.9899559
   3183,    31.912077,           0.,     36.91362
   3184,   21.2092037,           0.,   42.1310959
   3185,   17.1820335,           0.,   54.9506035
   3186,   26.2218571,           0.,   60.4008675
   3187,   53.2028542,           0.,   37.0906258
   3188,   58.8643417,           0.,   60.9530945
   3189,   46.7970314,           0.,     64.29142
   3190,   27.2437439,           0.,   39.2777252
   3191,   21.2205143,           0.,   55.3573036
   3192,   22.3584595,           0.,   57.6029472
   3193,   56.3867455,           0.,   62.0087929
   3194,   55.6932716,           0.,   37.9509315
   3195,   47.9744492,           0.,   36.0638542
   3196,   38.7373009,           0.,   64.0381927
   3197,   39.8389473,           0.,   35.8393555
   3198,   24.1088371,           0.,   59.1722679
   3199,   21.0357323,           0.,   39.4640694
   3200,   16.8759727,           0.,   47.3389816
   3201,   16.5025902,           0.,   49.9550247
   3202,   16.5540085,           0.,   52.4923401
   3203,   29.4750519,           0.,   37.7222748
   3204,   28.5420494,           0.,   61.4215622
   3205,   34.4689331,           0.,   36.3734932
   3206,   50.6344414,           0.,    36.464119
   3207,   60.3350182,           0.,   40.4187241
   3208,   64.5367813,           0.,   60.7558823
   3209,   66.3790894,           0.,   44.8715477
   3210,   69.4853439,           0.,   45.1248016
   3211,   64.5266571,           0.,   43.5012894
   3212,   58.0614624,           0.,   39.0544739
   3213,   49.3019943,           0.,    64.213356
   3214,   45.2883339,           0.,    35.864769
   3215,   30.9813995,           0.,    62.256134
   3216,     33.47929,           0.,   62.9758644
   3217,    36.038311,           0.,   63.5869789
   3218,   41.4302063,           0.,   64.2943802
   3219,   51.7340622,           0.,   63.9519806
   3220,   53.9813423,           0.,   63.1387787
   3221,   67.4889603,           0.,   52.2971764
   3222,   19.6211452,           0.,   50.0282173
   3223,   19.3978615,           0.,   52.2965508
   3224,   67.6650848,           0.,   47.6967201
   3225,   60.9839745,           0.,   44.2896843
   3226,   24.0277767,           0.,   55.1374474
   3227,   58.9454041,           0.,    42.665493
   3228,   55.2454071,           0.,   59.4879303
   3229,   25.4997253,           0.,   57.4686279
   3230,   29.1467876,           0.,   41.0394859
   3231,   52.9031525,           0.,   60.8179131
   3232,   56.8489685,           0.,   41.3301086
   3233,   30.2728672,           0.,   39.3844986
   3234,   27.4855042,           0.,   58.3419189
   3235,   51.4066048,           0.,   62.0900307
   3236,    54.728775,           0.,   40.3304138
   3237,   32.2373238,           0.,   39.3974113
   3238,   29.7679958,           0.,   59.0754433
   3239,   52.4782677,           0.,   39.5564651
   3240,   34.6958961,           0.,   38.9447403
   3241,   32.1559029,           0.,   59.6202164
   3242,   50.1060257,           0.,   39.0519714
   3243,   47.1876717,           0.,   61.5444717
   3244,   37.2120209,           0.,   38.5316429
   3245,   34.5429001,           0.,    60.289463
   3246,   47.6472511,           0.,   38.7850266
   3247,   44.5611191,           0.,   61.6778717
   3248,   39.7127686,           0.,    38.682579
   3249,   36.9459648,           0.,   60.9521217
   3250,   41.9678764,           0.,   61.6954041
   3251,   39.4086037,           0.,   61.4758453
   3252,   45.0767441,           0.,   38.6921501
   3253,   42.3863678,           0.,   38.7110748
   3254,   24.5961475,           0.,   41.6742134
   3255,   61.1985397,           0.,   60.0969582
   3256,   55.7916832,           0.,   43.2951927
   3257,   28.2541256,           0.,   56.3502159
   3258,   53.7157021,           0.,   57.3310623
   3259,   32.0273056,           0.,   42.2763557
   3260,   50.7341576,           0.,   58.8133278
   3261,   30.4262714,           0.,   56.8440933
   3262,   35.0720825,           0.,   41.4131165
   3263,   53.9158134,           0.,   42.5683403
   3264,   47.4382057,           0.,   58.9273453
   3265,    33.041214,           0.,   56.5920982
   3266,   37.1724319,           0.,   40.5728149
   3267,   51.9499168,           0.,   41.8477364
   3268,   44.7308502,           0.,   59.1676445
   3269,   49.8235016,           0.,   41.5736275
   3270,   39.1664963,           0.,   41.8740578
   3271,   35.5614777,           0.,   57.6811714
   3272,   47.5694695,           0.,   41.4928131
   3273,   42.3445816,           0.,   41.5935326
   3274,   42.2771988,           0.,   59.3158264
   3275,    37.841011,           0.,   58.4649544
   3276,   45.0886765,           0.,   41.4849129
   3277,    39.977314,           0.,   59.1784744
   3278,   23.7237911,           0.,   45.1377563
   3279,   60.3494949,           0.,    58.391674
   3280,   27.5836697,           0.,   43.2286186
   3281,   58.0233688,           0.,   58.0963898
   3282,   49.8513222,           0.,   55.8540993
   3283,   34.7892799,           0.,   54.2829018
   3284,    49.993782,           0.,   44.1633835
   3285,   36.2482224,           0.,   43.5749626
   3286,   45.3517799,           0.,   44.1680717
   3287,   36.6720543,           0.,   55.4577103
   3288,   47.1110077,           0.,    56.359623
   3289,   40.1075058,           0.,   44.8102722
   3290,   58.4257469,           0.,   54.3369675
   3291,   26.7808304,           0.,   45.8613548
   3292,   23.0394611,           0.,   47.8604279
   3293,   64.4875183,           0.,   52.8398628
   3294,   33.4576302,           0.,   44.9283676
   3295,   52.4557915,           0.,   55.0684624
   3296,   25.9708405,           0.,   48.4167252
   3297,   60.9274178,           0.,   52.2579842
   3298,   20.6935787,           0.,   44.9070168
   3299,   66.3371735,           0.,   55.3498993
   3300,   29.9897976,           0.,   44.1250916
   3301,   56.2097092,           0.,   56.0212822
   3302,   54.8099709,           0.,   54.1287117
   3303,    30.386734,           0.,   46.6688614
   3304,   28.8450851,           0.,   49.3535805
   3305,   58.4308434,           0.,   51.3706551
   3306,   22.4648399,           0.,   50.3223991
   3307,   64.5959473,           0.,   49.7221413
   3308,   48.9066582,           0.,   53.0817604
   3309,   35.0271912,           0.,   47.2168045
   3310,    31.202486,           0.,   50.8439484
   3311,   56.7858009,           0.,   49.6878548
   3312,   25.1677208,           0.,   50.8225861
   3313,   61.4010887,           0.,    48.773243
   3314,   32.8042946,           0.,    48.889328
   3315,   51.4336548,           0.,   52.6240883
   3316,   21.9304905,           0.,    52.695118
   3317,   63.0517082,           0.,    45.960041
   3318,   56.0477753,           0.,   48.2975578
   3319,   33.1564941,           0.,   52.6107674
   3320,   27.7163906,           0.,   51.6110153
   3321,   58.6115761,           0.,   49.3105621
   3322,   24.4622059,           0.,   53.0792313
   3323,   59.4362602,           0.,   46.2192917
   3324,   65.3006668,           0.,   47.1064529
   3325,   57.6360054,           0.,   47.4296989
   3326,   29.8849373,           0.,   52.7154541
   3327,   50.8095245,           0.,   49.9740906
   3328,   34.6963539,           0.,   50.8540764
   3329,   51.0032387,           0.,   46.9707947
   3330,   36.1784554,           0.,   52.5564919
   3331,   47.8898163,           0.,   49.9758072
   3332,   37.9168777,           0.,   51.4255524
   3333,   55.0948296,           0.,   44.7945709
   3334,   31.6848087,           0.,    54.268959
   3335,   26.8513165,           0.,   53.6842232
   3336,   57.6553421,           0.,   44.5082436
   3337,   37.5210381,           0.,    45.877533
   3338,   46.3911476,           0.,   53.7689514
   3339,   48.1575966,           0.,   46.9196663
   3340,   38.8502235,           0.,   53.4980621
   3341,   45.3785858,           0.,   51.3352089
   3342,   38.7592201,           0.,   48.2539177
   3343,   43.3265953,           0.,   46.8430176
   3344,   41.6282921,           0.,   55.0105972
   3345,   40.8853722,           0.,   52.8403435
   3346,    45.820961,           0.,   48.5600624
   3347,   42.7586555,           0.,   44.3197327
   3348,   40.4475403,           0.,   57.3989334
   3349,   42.0494194,           0.,   49.8383408
   3350,   41.0448494,           0.,   47.4100266
   3351,   43.9574509,           0.,   54.4072533
   3352,   43.0807877,           0.,   52.1303596
   3353,   20.0720787,           0.,   47.5422592
   3354,   19.2821617,           0.,   54.1353416
   3355,   63.1057014,           0.,   58.7198639
   3356,   67.7481003,           0.,   54.1932373
   3357,   67.4813766,           0.,   49.9650421
   3358,   67.8375702,           0.,   45.8922653
   3359,   63.1173668,           0.,   55.2274666
   3360,   23.9585705,           0.,   56.6781311
   3361,   26.2027836,           0.,    55.633934
   3362,    61.336956,           0.,   54.3754768
   3363,   59.7883606,           0.,   55.8339844
   3364,   61.5589256,           0.,   57.0404892
   3365,   28.8441944,           0.,   54.4625244
   3366,   49.6240807,           0.,   61.6276169
   3367,   56.8710403,           0.,    52.958065
   3368,   36.5890999,           0.,   49.4011002
   3369,   56.2623062,           0.,   45.9445992
   3370,   53.2131271,           0.,   45.0796776
   3371,   47.8109932,           0.,   44.2313423
   3372,   51.6513214,           0.,   43.7319603
   3373,   57.0088844,           0.,   50.8470345
   3374,   55.7205391,           0.,   51.5851631
   3375,    53.750309,           0.,   52.1757774
   3376,    39.909584,           0.,   50.5724983
   3377,   30.3593502,           0.,   55.1999626
   3378,    54.703598,           0.,    46.931881
   3379,     55.14991,           0.,   50.1318436
   3380,   53.2119675,           0.,   50.1473732
   3381,   44.5306778,           0.,   56.7579956
   3382,   45.7276077,           0.,   46.6239967
   3383,   39.0665016,           0.,   55.9654274
   3384,   42.2286873,           0.,   57.0860214
   3385,   44.1511383,           0.,   49.2068748
   3386,   37.2552261,           0.,   53.8390388
   3387,   54.9376907,           0.,   48.9445496
   3388,   53.4485512,           0.,   48.2442551
   3389,   72.6548691,          -3.,   46.9750137
   3390,   71.6628723,          -3.,   44.0955849
   3391,   70.1294861,          -3.,   41.4627342
   3392,   65.9075928,          -3.,   37.0858841
   3393,   63.4072647,          -3.,   35.3402519
   3394,   57.9375267,          -3.,   32.6555138
   3395,   49.0830994,          -3.,    30.415472
   3396,   42.9999504,          -3.,          30.
   3397,   36.9168015,          -3.,   30.4154854
   3398,   28.0623798,          -3.,   32.6555481
   3399,   22.5926533,          -3.,   35.3403015
   3400,   20.0923309,          -3.,   37.0859489
   3401,   15.8704844,          -3.,   41.4627762
   3402,   14.3371067,          -3.,   44.0956306
   3403,   13.3451195,          -3.,   46.9750633
   3404,          73.,          -3.,          50.
   3405,          13.,          -3.,          50.
   3406,     13.34513,          -3.,   53.0249863
   3407,   14.3371286,          -3.,   55.9044151
   3408,   15.8705158,          -3.,   58.5372658
   3409,   20.0924091,          -3.,   62.9141159
   3410,   22.5927353,          -3.,   64.6597519
   3411,   28.0624714,          -3.,   67.3444901
   3412,   36.9169006,          -3.,   69.5845261
   3413,   43.0000496,          -3.,          70.
   3414,   49.0831985,          -3.,   69.5845108
   3415,   57.9376221,          -3.,   67.3444519
   3416,   63.4073448,          -3.,   64.6596985
   3417,   65.9076691,          -3.,   62.9140511
   3418,   70.1295166,          -3.,   58.5372238
   3419,   71.6628952,          -3.,   55.9043694
   3420,   72.6548843,          -3.,   53.0249367
   3421,   68.1757355,          -3.,   39.1232681
   3422,   60.7356377,          -3.,   33.8693237
   3423,   55.0464287,          -3.,   31.6832371
   3424,   52.0880966,          -3.,    30.939785
   3425,   46.0486526,          -3.,   30.1035385
   3426,    39.951252,          -3.,   30.1035442
   3427,    33.911808,          -3.,    30.939806
   3428,    30.953476,          -3.,   31.6832657
   3429,   25.2642746,          -3.,   33.8693657
   3430,   17.8242264,          -3.,   39.1233101
   3431,   17.8242664,          -3.,   60.8767319
   3432,   25.2643623,          -3.,   66.1306763
   3433,   30.9535713,          -3.,   68.3167648
   3434,   33.9119034,          -3.,   69.0602112
   3435,   39.9513474,          -3.,   69.8964615
   3436,    46.048748,          -3.,   69.8964539
   3437,    52.088192,          -3.,   69.0601959
   3438,    55.046524,          -3.,   68.3167343
   3439,   60.7357254,          -3.,   66.1306305
   3440,   68.1757736,          -3.,   60.8766899
   3441,   69.5258942,          -3.,   54.9326172
   3442,   64.1362152,          -3.,   39.5261269
   3443,    57.247551,          -3.,   64.6263275
   3444,   54.0768356,          -3.,   34.4577789
   3445,   43.6298828,          -3.,   67.1327744
   3446,   42.7476616,          -3.,     32.92099
   3447,   37.8993492,          -3.,    66.756813
   3448,    37.015358,          -3.,   33.2688141
   3449,   34.1916924,          -3.,   33.7330208
   3450,   28.7034397,          -3.,    35.439743
   3451,   23.5378151,          -3.,   38.3724174
   3452,   18.3707294,          -3.,   42.2230301
   3453,   17.5704823,          -3.,   44.7255058
   3454,   18.5653095,          -3.,    57.082756
   3455,   22.2543087,          -3.,   60.9667015
   3456,    24.538969,          -3.,   62.4953651
   3457,   48.4760628,          -3.,   33.2820206
   3458,   56.7746696,          -3.,   35.3850746
   3459,   61.8235703,          -3.,   37.9440575
   3460,   62.3097076,          -3.,   62.2839966
   3461,   68.0834503,          -3.,   43.0681152
   3462,   68.2229538,          -3.,   57.0601044
   3463,   66.2435303,          -3.,   41.2466316
   3464,   59.3624077,          -3.,   36.5506859
   3465,   49.2157326,          -3.,   66.8326569
   3466,   51.3129425,          -3.,     33.76194
   3467,   45.6300278,          -3.,   33.0115128
   3468,   39.8908348,          -3.,   33.0049286
   3469,   29.6094284,          -3.,     64.79953
   3470,   31.4259739,          -3.,   34.4241028
   3471,    26.122242,          -3.,   36.8125534
   3472,   18.9883251,          -3.,   40.2219696
   3473,   20.2135029,          -3.,   59.1246033
   3474,   26.9988728,          -3.,   63.7630272
   3475,   32.2842102,          -3.,   65.6375961
   3476,   35.0398788,          -3.,   66.2907639
   3477,   40.7461624,          -3.,   67.0406723
   3478,   46.4250488,          -3.,   67.0781174
   3479,   51.9684601,          -3.,   66.3809967
   3480,   54.6127319,          -3.,   65.6337662
   3481,    59.809845,          -3.,   63.5355911
   3482,   66.5377045,          -3.,   58.9728966
   3483,   70.2496796,          -3.,   50.0116234
   3484,   70.0942841,          -3.,   52.5188904
   3485,   70.1056366,          -3.,   47.5148582
   3486,   64.8537827,          -3.,   57.0130463
   3487,    62.498333,          -3.,   41.9572182
   3488,   44.1684036,          -3.,   64.3484955
   3489,   42.5416718,          -3.,    35.802124
   3490,   37.1260719,          -3.,   35.9899559
   3491,    31.912077,          -3.,     36.91362
   3492,   21.2092037,          -3.,   42.1310959
   3493,   17.1820335,          -3.,   54.9506035
   3494,   26.2218571,          -3.,   60.4008675
   3495,   53.2028542,          -3.,   37.0906258
   3496,   58.8643417,          -3.,   60.9530945
   3497,   46.7970314,          -3.,     64.29142
   3498,   27.2437439,          -3.,   39.2777252
   3499,   21.2205143,          -3.,   55.3573036
   3500,   22.3584595,          -3.,   57.6029472
   3501,   56.3867455,          -3.,   62.0087929
   3502,   55.6932716,          -3.,   37.9509315
   3503,   47.9744492,          -3.,   36.0638542
   3504,   38.7373009,          -3.,   64.0381927
   3505,   39.8389473,          -3.,   35.8393555
   3506,   24.1088371,          -3.,   59.1722679
   3507,   21.0357323,          -3.,   39.4640694
   3508,   16.8759727,          -3.,   47.3389816
   3509,   16.5025902,          -3.,   49.9550247
   3510,   16.5540085,          -3.,   52.4923401
   3511,   29.4750519,          -3.,   37.7222748
   3512,   28.5420494,          -3.,   61.4215622
   3513,   34.4689331,          -3.,   36.3734932
   3514,   50.6344414,          -3.,    36.464119
   3515,   60.3350182,          -3.,   40.4187241
   3516,   64.5367813,          -3.,   60.7558823
   3517,   66.3790894,          -3.,   44.8715477
   3518,   69.4853439,          -3.,   45.1248016
   3519,   64.5266571,          -3.,   43.5012894
   3520,   58.0614624,          -3.,   39.0544739
   3521,   49.3019943,          -3.,    64.213356
   3522,   45.2883339,          -3.,    35.864769
   3523,   30.9813995,          -3.,    62.256134
   3524,     33.47929,          -3.,   62.9758644
   3525,    36.038311,          -3.,   63.5869789
   3526,   41.4302063,          -3.,   64.2943802
   3527,   51.7340622,          -3.,   63.9519806
   3528,   53.9813423,          -3.,   63.1387787
   3529,   67.4889603,          -3.,   52.2971764
   3530,   19.6211452,          -3.,   50.0282173
   3531,   19.3978615,          -3.,   52.2965508
   3532,   67.6650848,          -3.,   47.6967201
   3533,   60.9839745,          -3.,   44.2896843
   3534,   24.0277767,          -3.,   55.1374474
   3535,   58.9454041,          -3.,    42.665493
   3536,   55.2454071,          -3.,   59.4879303
   3537,   25.4997253,          -3.,   57.4686279
   3538,   29.1467876,          -3.,   41.0394859
   3539,   52.9031525,          -3.,   60.8179131
   3540,   56.8489685,          -3.,   41.3301086
   3541,   30.2728672,          -3.,   39.3844986
   3542,   27.4855042,          -3.,   58.3419189
   3543,   51.4066048,          -3.,   62.0900307
   3544,    54.728775,          -3.,   40.3304138
   3545,   32.2373238,          -3.,   39.3974113
   3546,   29.7679958,          -3.,   59.0754433
   3547,   52.4782677,          -3.,   39.5564651
   3548,   34.6958961,          -3.,   38.9447403
   3549,   32.1559029,          -3.,   59.6202164
   3550,   50.1060257,          -3.,   39.0519714
   3551,   47.1876717,          -3.,   61.5444717
   3552,   37.2120209,          -3.,   38.5316429
   3553,   34.5429001,          -3.,    60.289463
   3554,   47.6472511,          -3.,   38.7850266
   3555,   44.5611191,          -3.,   61.6778717
   3556,   39.7127686,          -3.,    38.682579
   3557,   36.9459648,          -3.,   60.9521217
   3558,   41.9678764,          -3.,   61.6954041
   3559,   39.4086037,          -3.,   61.4758453
   3560,   45.0767441,          -3.,   38.6921501
   3561,   42.3863678,          -3.,   38.7110748
   3562,   24.5961475,          -3.,   41.6742134
   3563,   61.1985397,          -3.,   60.0969582
   3564,   55.7916832,          -3.,   43.2951927
   3565,   28.2541256,          -3.,   56.3502159
   3566,   53.7157021,          -3.,   57.3310623
   3567,   32.0273056,          -3.,   42.2763557
   3568,   50.7341576,          -3.,   58.8133278
   3569,   30.4262714,          -3.,   56.8440933
   3570,   35.0720825,          -3.,   41.4131165
   3571,   53.9158134,          -3.,   42.5683403
   3572,   47.4382057,          -3.,   58.9273453
   3573,    33.041214,          -3.,   56.5920982
   3574,   37.1724319,          -3.,   40.5728149
   3575,   51.9499168,          -3.,   41.8477364
   3576,   44.7308502,          -3.,   59.1676445
   3577,   49.8235016,          -3.,   41.5736275
   3578,   39.1664963,          -3.,   41.8740578
   3579,   35.5614777,          -3.,   57.6811714
   3580,   47.5694695,          -3.,   41.4928131
   3581,   42.3445816,          -3.,   41.5935326
   3582,   42.2771988,          -3.,   59.3158264
   3583,    37.841011,          -3.,   58.4649544
   3584,   45.0886765,          -3.,   41.4849129
   3585,    39.977314,          -3.,   59.1784744
   3586,   23.7237911,          -3.,   45.1377563
   3587,   60.3494949,          -3.,    58.391674
   3588,   27.5836697,          -3.,   43.2286186
   3589,   58.0233688,          -3.,   58.0963898
   3590,   49.8513222,          -3.,   55.8540993
   3591,   34.7892799,          -3.,   54.2829018
   3592,    49.993782,          -3.,   44.1633835
   3593,   36.2482224,          -3.,   43.5749626
   3594,   45.3517799,          -3.,   44.1680717
   3595,   36.6720543,          -3.,   55.4577103
   3596,   47.1110077,          -3.,    56.359623
   3597,   40.1075058,          -3.,   44.8102722
   3598,   58.4257469,          -3.,   54.3369675
   3599,   26.7808304,          -3.,   45.8613548
   3600,   23.0394611,          -3.,   47.8604279
   3601,   64.4875183,          -3.,   52.8398628
   3602,   33.4576302,          -3.,   44.9283676
   3603,   52.4557915,          -3.,   55.0684624
   3604,   25.9708405,          -3.,   48.4167252
   3605,   60.9274178,          -3.,   52.2579842
   3606,   20.6935787,          -3.,   44.9070168
   3607,   66.3371735,          -3.,   55.3498993
   3608,   29.9897976,          -3.,   44.1250916
   3609,   56.2097092,          -3.,   56.0212822
   3610,   54.8099709,          -3.,   54.1287117
   3611,    30.386734,          -3.,   46.6688614
   3612,   28.8450851,          -3.,   49.3535805
   3613,   58.4308434,          -3.,   51.3706551
   3614,   22.4648399,          -3.,   50.3223991
   3615,   64.5959473,          -3.,   49.7221413
   3616,   48.9066582,          -3.,   53.0817604
   3617,   35.0271912,          -3.,   47.2168045
   3618,    31.202486,          -3.,   50.8439484
   3619,   56.7858009,          -3.,   49.6878548
   3620,   25.1677208,          -3.,   50.8225861
   3621,   61.4010887,          -3.,    48.773243
   3622,   32.8042946,          -3.,    48.889328
   3623,   51.4336548,          -3.,   52.6240883
   3624,   21.9304905,          -3.,    52.695118
   3625,   63.0517082,          -3.,    45.960041
   3626,   56.0477753,          -3.,   48.2975578
   3627,   33.1564941,          -3.,   52.6107674
   3628,   27.7163906,          -3.,   51.6110153
   3629,   58.6115761,          -3.,   49.3105621
   3630,   24.4622059,          -3.,   53.0792313
   3631,   59.4362602,          -3.,   46.2192917
   3632,   65.3006668,          -3.,   47.1064529
   3633,   57.6360054,          -3.,   47.4296989
   3634,   29.8849373,          -3.,   52.7154541
   3635,   50.8095245,          -3.,   49.9740906
   3636,   34.6963539,          -3.,   50.8540764
   3637,   51.0032387,          -3.,   46.9707947
   3638,   36.1784554,          -3.,   52.5564919
   3639,   47.8898163,          -3.,   49.9758072
   3640,   37.9168777,          -3.,   51.4255524
   3641,   55.0948296,          -3.,   44.7945709
   3642,   31.6848087,          -3.,    54.268959
   3643,   26.8513165,          -3.,   53.6842232
   3644,   57.6553421,          -3.,   44.5082436
   3645,   37.5210381,          -3.,    45.877533
   3646,   46.3911476,          -3.,   53.7689514
   3647,   48.1575966,          -3.,   46.9196663
   3648,   38.8502235,          -3.,   53.4980621
   3649,   45.3785858,          -3.,   51.3352089
   3650,   38.7592201,          -3.,   48.2539177
   3651,   43.3265953,          -3.,   46.8430176
   3652,   41.6282921,          -3.,   55.0105972
   3653,   40.8853722,          -3.,   52.8403435
   3654,    45.820961,          -3.,   48.5600624
   3655,   42.7586555,          -3.,   44.3197327
   3656,   40.4475403,          -3.,   57.3989334
   3657,   42.0494194,          -3.,   49.8383408
   3658,   41.0448494,          -3.,   47.4100266
   3659,   43.9574509,          -3.,   54.4072533
   3660,   43.0807877,          -3.,   52.1303596
   3661,   20.0720787,          -3.,   47.5422592
   3662,   19.2821617,          -3.,   54.1353416
   3663,   63.1057014,          -3.,   58.7198639
   3664,   67.7481003,          -3.,   54.1932373
   3665,   67.4813766,          -3.,   49.9650421
   3666,   67.8375702,          -3.,   45.8922653
   3667,   63.1173668,          -3.,   55.2274666
   3668,   23.9585705,          -3.,   56.6781311
   3669,   26.2027836,          -3.,    55.633934
   3670,    61.336956,          -3.,   54.3754768
   3671,   59.7883606,          -3.,   55.8339844
   3672,   61.5589256,          -3.,   57.0404892
   3673,   28.8441944,          -3.,   54.4625244
   3674,   49.6240807,          -3.,   61.6276169
   3675,   56.8710403,          -3.,    52.958065
   3676,   36.5890999,          -3.,   49.4011002
   3677,   56.2623062,          -3.,   45.9445992
   3678,   53.2131271,          -3.,   45.0796776
   3679,   47.8109932,          -3.,   44.2313423
   3680,   51.6513214,          -3.,   43.7319603
   3681,   57.0088844,          -3.,   50.8470345
   3682,   55.7205391,          -3.,   51.5851631
   3683,    53.750309,          -3.,   52.1757774
   3684,    39.909584,          -3.,   50.5724983
   3685,   30.3593502,          -3.,   55.1999626
   3686,    54.703598,          -3.,    46.931881
   3687,     55.14991,          -3.,   50.1318436
   3688,   53.2119675,          -3.,   50.1473732
   3689,   44.5306778,          -3.,   56.7579956
   3690,   45.7276077,          -3.,   46.6239967
   3691,   39.0665016,          -3.,   55.9654274
   3692,   42.2286873,          -3.,   57.0860214
   3693,   44.1511383,          -3.,   49.2068748
   3694,   37.2552261,          -3.,   53.8390388
   3695,   54.9376907,          -3.,   48.9445496
   3696,   53.4485512,          -3.,   48.2442551
   3697,   72.6548691,          -6.,   46.9750137
   3698,   71.6628723,          -6.,   44.0955849
   3699,   70.1294861,          -6.,   41.4627342
   3700,   65.9075928,          -6.,   37.0858841
   3701,   63.4072647,          -6.,   35.3402519
   3702,   57.9375267,          -6.,   32.6555138
   3703,   49.0830994,          -6.,    30.415472
   3704,   42.9999504,          -6.,          30.
   3705,   36.9168015,          -6.,   30.4154854
   3706,   28.0623798,          -6.,   32.6555481
   3707,   22.5926533,          -6.,   35.3403015
   3708,   20.0923309,          -6.,   37.0859489
   3709,   15.8704844,          -6.,   41.4627762
   3710,   14.3371067,          -6.,   44.0956306
   3711,   13.3451195,          -6.,   46.9750633
   3712,          73.,          -6.,          50.
   3713,          13.,          -6.,          50.
   3714,     13.34513,          -6.,   53.0249863
   3715,   14.3371286,          -6.,   55.9044151
   3716,   15.8705158,          -6.,   58.5372658
   3717,   20.0924091,          -6.,   62.9141159
   3718,   22.5927353,          -6.,   64.6597519
   3719,   28.0624714,          -6.,   67.3444901
   3720,   36.9169006,          -6.,   69.5845261
   3721,   43.0000496,          -6.,          70.
   3722,   49.0831985,          -6.,   69.5845108
   3723,   57.9376221,          -6.,   67.3444519
   3724,   63.4073448,          -6.,   64.6596985
   3725,   65.9076691,          -6.,   62.9140511
   3726,   70.1295166,          -6.,   58.5372238
   3727,   71.6628952,          -6.,   55.9043694
   3728,   72.6548843,          -6.,   53.0249367
   3729,   68.1757355,          -6.,   39.1232681
   3730,   60.7356377,          -6.,   33.8693237
   3731,   55.0464287,          -6.,   31.6832371
   3732,   52.0880966,          -6.,    30.939785
   3733,   46.0486526,          -6.,   30.1035385
   3734,    39.951252,          -6.,   30.1035442
   3735,    33.911808,          -6.,    30.939806
   3736,    30.953476,          -6.,   31.6832657
   3737,   25.2642746,          -6.,   33.8693657
   3738,   17.8242264,          -6.,   39.1233101
   3739,   17.8242664,          -6.,   60.8767319
   3740,   25.2643623,          -6.,   66.1306763
   3741,   30.9535713,          -6.,   68.3167648
   3742,   33.9119034,          -6.,   69.0602112
   3743,   39.9513474,          -6.,   69.8964615
   3744,    46.048748,          -6.,   69.8964539
   3745,    52.088192,          -6.,   69.0601959
   3746,    55.046524,          -6.,   68.3167343
   3747,   60.7357254,          -6.,   66.1306305
   3748,   68.1757736,          -6.,   60.8766899
   3749,   69.5258942,          -6.,   54.9326172
   3750,   64.1362152,          -6.,   39.5261269
   3751,    57.247551,          -6.,   64.6263275
   3752,   54.0768356,          -6.,   34.4577789
   3753,   43.6298828,          -6.,   67.1327744
   3754,   42.7476616,          -6.,     32.92099
   3755,   37.8993492,          -6.,    66.756813
   3756,    37.015358,          -6.,   33.2688141
   3757,   34.1916924,          -6.,   33.7330208
   3758,   28.7034397,          -6.,    35.439743
   3759,   23.5378151,          -6.,   38.3724174
   3760,   18.3707294,          -6.,   42.2230301
   3761,   17.5704823,          -6.,   44.7255058
   3762,   18.5653095,          -6.,    57.082756
   3763,   22.2543087,          -6.,   60.9667015
   3764,    24.538969,          -6.,   62.4953651
   3765,   48.4760628,          -6.,   33.2820206
   3766,   56.7746696,          -6.,   35.3850746
   3767,   61.8235703,          -6.,   37.9440575
   3768,   62.3097076,          -6.,   62.2839966
   3769,   68.0834503,          -6.,   43.0681152
   3770,   68.2229538,          -6.,   57.0601044
   3771,   66.2435303,          -6.,   41.2466316
   3772,   59.3624077,          -6.,   36.5506859
   3773,   49.2157326,          -6.,   66.8326569
   3774,   51.3129425,          -6.,     33.76194
   3775,   45.6300278,          -6.,   33.0115128
   3776,   39.8908348,          -6.,   33.0049286
   3777,   29.6094284,          -6.,     64.79953
   3778,   31.4259739,          -6.,   34.4241028
   3779,    26.122242,          -6.,   36.8125534
   3780,   18.9883251,          -6.,   40.2219696
   3781,   20.2135029,          -6.,   59.1246033
   3782,   26.9988728,          -6.,   63.7630272
   3783,   32.2842102,          -6.,   65.6375961
   3784,   35.0398788,          -6.,   66.2907639
   3785,   40.7461624,          -6.,   67.0406723
   3786,   46.4250488,          -6.,   67.0781174
   3787,   51.9684601,          -6.,   66.3809967
   3788,   54.6127319,          -6.,   65.6337662
   3789,    59.809845,          -6.,   63.5355911
   3790,   66.5377045,          -6.,   58.9728966
   3791,   70.2496796,          -6.,   50.0116234
   3792,   70.0942841,          -6.,   52.5188904
   3793,   70.1056366,          -6.,   47.5148582
   3794,   64.8537827,          -6.,   57.0130463
   3795,    62.498333,          -6.,   41.9572182
   3796,   44.1684036,          -6.,   64.3484955
   3797,   42.5416718,          -6.,    35.802124
   3798,   37.1260719,          -6.,   35.9899559
   3799,    31.912077,          -6.,     36.91362
   3800,   21.2092037,          -6.,   42.1310959
   3801,   17.1820335,          -6.,   54.9506035
   3802,   26.2218571,          -6.,   60.4008675
   3803,   53.2028542,          -6.,   37.0906258
   3804,   58.8643417,          -6.,   60.9530945
   3805,   46.7970314,          -6.,     64.29142
   3806,   27.2437439,          -6.,   39.2777252
   3807,   21.2205143,          -6.,   55.3573036
   3808,   22.3584595,          -6.,   57.6029472
   3809,   56.3867455,          -6.,   62.0087929
   3810,   55.6932716,          -6.,   37.9509315
   3811,   47.9744492,          -6.,   36.0638542
   3812,   38.7373009,          -6.,   64.0381927
   3813,   39.8389473,          -6.,   35.8393555
   3814,   24.1088371,          -6.,   59.1722679
   3815,   21.0357323,          -6.,   39.4640694
   3816,   16.8759727,          -6.,   47.3389816
   3817,   16.5025902,          -6.,   49.9550247
   3818,   16.5540085,          -6.,   52.4923401
   3819,   29.4750519,          -6.,   37.7222748
   3820,   28.5420494,          -6.,   61.4215622
   3821,   34.4689331,          -6.,   36.3734932
   3822,   50.6344414,          -6.,    36.464119
   3823,   60.3350182,          -6.,   40.4187241
   3824,   64.5367813,          -6.,   60.7558823
   3825,   66.3790894,          -6.,   44.8715477
   3826,   69.4853439,          -6.,   45.1248016
   3827,   64.5266571,          -6.,   43.5012894
   3828,   58.0614624,          -6.,   39.0544739
   3829,   49.3019943,          -6.,    64.213356
   3830,   45.2883339,          -6.,    35.864769
   3831,   30.9813995,          -6.,    62.256134
   3832,     33.47929,          -6.,   62.9758644
   3833,    36.038311,          -6.,   63.5869789
   3834,   41.4302063,          -6.,   64.2943802
   3835,   51.7340622,          -6.,   63.9519806
   3836,   53.9813423,          -6.,   63.1387787
   3837,   67.4889603,          -6.,   52.2971764
   3838,   19.6211452,          -6.,   50.0282173
   3839,   19.3978615,          -6.,   52.2965508
   3840,   67.6650848,          -6.,   47.6967201
   3841,   60.9839745,          -6.,   44.2896843
   3842,   24.0277767,          -6.,   55.1374474
   3843,   58.9454041,          -6.,    42.665493
   3844,   55.2454071,          -6.,   59.4879303
   3845,   25.4997253,          -6.,   57.4686279
   3846,   29.1467876,          -6.,   41.0394859
   3847,   52.9031525,          -6.,   60.8179131
   3848,   56.8489685,          -6.,   41.3301086
   3849,   30.2728672,          -6.,   39.3844986
   3850,   27.4855042,          -6.,   58.3419189
   3851,   51.4066048,          -6.,   62.0900307
   3852,    54.728775,          -6.,   40.3304138
   3853,   32.2373238,          -6.,   39.3974113
   3854,   29.7679958,          -6.,   59.0754433
   3855,   52.4782677,          -6.,   39.5564651
   3856,   34.6958961,          -6.,   38.9447403
   3857,   32.1559029,          -6.,   59.6202164
   3858,   50.1060257,          -6.,   39.0519714
   3859,   47.1876717,          -6.,   61.5444717
   3860,   37.2120209,          -6.,   38.5316429
   3861,   34.5429001,          -6.,    60.289463
   3862,   47.6472511,          -6.,   38.7850266
   3863,   44.5611191,          -6.,   61.6778717
   3864,   39.7127686,          -6.,    38.682579
   3865,   36.9459648,          -6.,   60.9521217
   3866,   41.9678764,          -6.,   61.6954041
   3867,   39.4086037,          -6.,   61.4758453
   3868,   45.0767441,          -6.,   38.6921501
   3869,   42.3863678,          -6.,   38.7110748
   3870,   24.5961475,          -6.,   41.6742134
   3871,   61.1985397,          -6.,   60.0969582
   3872,   55.7916832,          -6.,   43.2951927
   3873,   28.2541256,          -6.,   56.3502159
   3874,   53.7157021,          -6.,   57.3310623
   3875,   32.0273056,          -6.,   42.2763557
   3876,   50.7341576,          -6.,   58.8133278
   3877,   30.4262714,          -6.,   56.8440933
   3878,   35.0720825,          -6.,   41.4131165
   3879,   53.9158134,          -6.,   42.5683403
   3880,   47.4382057,          -6.,   58.9273453
   3881,    33.041214,          -6.,   56.5920982
   3882,   37.1724319,          -6.,   40.5728149
   3883,   51.9499168,          -6.,   41.8477364
   3884,   44.7308502,          -6.,   59.1676445
   3885,   49.8235016,          -6.,   41.5736275
   3886,   39.1664963,          -6.,   41.8740578
   3887,   35.5614777,          -6.,   57.6811714
   3888,   47.5694695,          -6.,   41.4928131
   3889,   42.3445816,          -6.,   41.5935326
   3890,   42.2771988,          -6.,   59.3158264
   3891,    37.841011,          -6.,   58.4649544
   3892,   45.0886765,          -6.,   41.4849129
   3893,    39.977314,          -6.,   59.1784744
   3894,   23.7237911,          -6.,   45.1377563
   3895,   60.3494949,          -6.,    58.391674
   3896,   27.5836697,          -6.,   43.2286186
   3897,   58.0233688,          -6.,   58.0963898
   3898,   49.8513222,          -6.,   55.8540993
   3899,   34.7892799,          -6.,   54.2829018
   3900,    49.993782,          -6.,   44.1633835
   3901,   36.2482224,          -6.,   43.5749626
   3902,   45.3517799,          -6.,   44.1680717
   3903,   36.6720543,          -6.,   55.4577103
   3904,   47.1110077,          -6.,    56.359623
   3905,   40.1075058,          -6.,   44.8102722
   3906,   58.4257469,          -6.,   54.3369675
   3907,   26.7808304,          -6.,   45.8613548
   3908,   23.0394611,          -6.,   47.8604279
   3909,   64.4875183,          -6.,   52.8398628
   3910,   33.4576302,          -6.,   44.9283676
   3911,   52.4557915,          -6.,   55.0684624
   3912,   25.9708405,          -6.,   48.4167252
   3913,   60.9274178,          -6.,   52.2579842
   3914,   20.6935787,          -6.,   44.9070168
   3915,   66.3371735,          -6.,   55.3498993
   3916,   29.9897976,          -6.,   44.1250916
   3917,   56.2097092,          -6.,   56.0212822
   3918,   54.8099709,          -6.,   54.1287117
   3919,    30.386734,          -6.,   46.6688614
   3920,   28.8450851,          -6.,   49.3535805
   3921,   58.4308434,          -6.,   51.3706551
   3922,   22.4648399,          -6.,   50.3223991
   3923,   64.5959473,          -6.,   49.7221413
   3924,   48.9066582,          -6.,   53.0817604
   3925,   35.0271912,          -6.,   47.2168045
   3926,    31.202486,          -6.,   50.8439484
   3927,   56.7858009,          -6.,   49.6878548
   3928,   25.1677208,          -6.,   50.8225861
   3929,   61.4010887,          -6.,    48.773243
   3930,   32.8042946,          -6.,    48.889328
   3931,   51.4336548,          -6.,   52.6240883
   3932,   21.9304905,          -6.,    52.695118
   3933,   63.0517082,          -6.,    45.960041
   3934,   56.0477753,          -6.,   48.2975578
   3935,   33.1564941,          -6.,   52.6107674
   3936,   27.7163906,          -6.,   51.6110153
   3937,   58.6115761,          -6.,   49.3105621
   3938,   24.4622059,          -6.,   53.0792313
   3939,   59.4362602,          -6.,   46.2192917
   3940,   65.3006668,          -6.,   47.1064529
   3941,   57.6360054,          -6.,   47.4296989
   3942,   29.8849373,          -6.,   52.7154541
   3943,   50.8095245,          -6.,   49.9740906
   3944,   34.6963539,          -6.,   50.8540764
   3945,   51.0032387,          -6.,   46.9707947
   3946,   36.1784554,          -6.,   52.5564919
   3947,   47.8898163,          -6.,   49.9758072
   3948,   37.9168777,          -6.,   51.4255524
   3949,   55.0948296,          -6.,   44.7945709
   3950,   31.6848087,          -6.,    54.268959
   3951,   26.8513165,          -6.,   53.6842232
   3952,   57.6553421,          -6.,   44.5082436
   3953,   37.5210381,          -6.,    45.877533
   3954,   46.3911476,          -6.,   53.7689514
   3955,   48.1575966,          -6.,   46.9196663
   3956,   38.8502235,          -6.,   53.4980621
   3957,   45.3785858,          -6.,   51.3352089
   3958,   38.7592201,          -6.,   48.2539177
   3959,   43.3265953,          -6.,   46.8430176
   3960,   41.6282921,          -6.,   55.0105972
   3961,   40.8853722,          -6.,   52.8403435
   3962,    45.820961,          -6.,   48.5600624
   3963,   42.7586555,          -6.,   44.3197327
   3964,   40.4475403,          -6.,   57.3989334
   3965,   42.0494194,          -6.,   49.8383408
   3966,   41.0448494,          -6.,   47.4100266
   3967,   43.9574509,          -6.,   54.4072533
   3968,   43.0807877,          -6.,   52.1303596
   3969,   20.0720787,          -6.,   47.5422592
   3970,   19.2821617,          -6.,   54.1353416
   3971,   63.1057014,          -6.,   58.7198639
   3972,   67.7481003,          -6.,   54.1932373
   3973,   67.4813766,          -6.,   49.9650421
   3974,   67.8375702,          -6.,   45.8922653
   3975,   63.1173668,          -6.,   55.2274666
   3976,   23.9585705,          -6.,   56.6781311
   3977,   26.2027836,          -6.,    55.633934
   3978,    61.336956,          -6.,   54.3754768
   3979,   59.7883606,          -6.,   55.8339844
   3980,   61.5589256,          -6.,   57.0404892
   3981,   28.8441944,          -6.,   54.4625244
   3982,   49.6240807,          -6.,   61.6276169
   3983,   56.8710403,          -6.,    52.958065
   3984,   36.5890999,          -6.,   49.4011002
   3985,   56.2623062,          -6.,   45.9445992
   3986,   53.2131271,          -6.,   45.0796776
   3987,   47.8109932,          -6.,   44.2313423
   3988,   51.6513214,          -6.,   43.7319603
   3989,   57.0088844,          -6.,   50.8470345
   3990,   55.7205391,          -6.,   51.5851631
   3991,    53.750309,          -6.,   52.1757774
   3992,    39.909584,          -6.,   50.5724983
   3993,   30.3593502,          -6.,   55.1999626
   3994,    54.703598,          -6.,    46.931881
   3995,     55.14991,          -6.,   50.1318436
   3996,   53.2119675,          -6.,   50.1473732
   3997,   44.5306778,          -6.,   56.7579956
   3998,   45.7276077,          -6.,   46.6239967
   3999,   39.0665016,          -6.,   55.9654274
   4000,   42.2286873,          -6.,   57.0860214
   4001,   44.1511383,          -6.,   49.2068748
   4002,   37.2552261,          -6.,   53.8390388
   4003,   54.9376907,          -6.,   48.9445496
   4004,   53.4485512,          -6.,   48.2442551
   4005,   72.6548691,          -9.,   46.9750137
   4006,   71.6628723,          -9.,   44.0955849
   4007,   70.1294861,          -9.,   41.4627342
   4008,   65.9075928,          -9.,   37.0858841
   4009,   63.4072647,          -9.,   35.3402519
   4010,   57.9375267,          -9.,   32.6555138
   4011,   49.0830994,          -9.,    30.415472
   4012,   42.9999504,          -9.,          30.
   4013,   36.9168015,          -9.,   30.4154854
   4014,   28.0623798,          -9.,   32.6555481
   4015,   22.5926533,          -9.,   35.3403015
   4016,   20.0923309,          -9.,   37.0859489
   4017,   15.8704844,          -9.,   41.4627762
   4018,   14.3371067,          -9.,   44.0956306
   4019,   13.3451195,          -9.,   46.9750633
   4020,          73.,          -9.,          50.
   4021,          13.,          -9.,          50.
   4022,     13.34513,          -9.,   53.0249863
   4023,   14.3371286,          -9.,   55.9044151
   4024,   15.8705158,          -9.,   58.5372658
   4025,   20.0924091,          -9.,   62.9141159
   4026,   22.5927353,          -9.,   64.6597519
   4027,   28.0624714,          -9.,   67.3444901
   4028,   36.9169006,          -9.,   69.5845261
   4029,   43.0000496,          -9.,          70.
   4030,   49.0831985,          -9.,   69.5845108
   4031,   57.9376221,          -9.,   67.3444519
   4032,   63.4073448,          -9.,   64.6596985
   4033,   65.9076691,          -9.,   62.9140511
   4034,   70.1295166,          -9.,   58.5372238
   4035,   71.6628952,          -9.,   55.9043694
   4036,   72.6548843,          -9.,   53.0249367
   4037,   68.1757355,          -9.,   39.1232681
   4038,   60.7356377,          -9.,   33.8693237
   4039,   55.0464287,          -9.,   31.6832371
   4040,   52.0880966,          -9.,    30.939785
   4041,   46.0486526,          -9.,   30.1035385
   4042,    39.951252,          -9.,   30.1035442
   4043,    33.911808,          -9.,    30.939806
   4044,    30.953476,          -9.,   31.6832657
   4045,   25.2642746,          -9.,   33.8693657
   4046,   17.8242264,          -9.,   39.1233101
   4047,   17.8242664,          -9.,   60.8767319
   4048,   25.2643623,          -9.,   66.1306763
   4049,   30.9535713,          -9.,   68.3167648
   4050,   33.9119034,          -9.,   69.0602112
   4051,   39.9513474,          -9.,   69.8964615
   4052,    46.048748,          -9.,   69.8964539
   4053,    52.088192,          -9.,   69.0601959
   4054,    55.046524,          -9.,   68.3167343
   4055,   60.7357254,          -9.,   66.1306305
   4056,   68.1757736,          -9.,   60.8766899
   4057,   69.5258942,          -9.,   54.9326172
   4058,   64.1362152,          -9.,   39.5261269
   4059,    57.247551,          -9.,   64.6263275
   4060,   54.0768356,          -9.,   34.4577789
   4061,   43.6298828,          -9.,   67.1327744
   4062,   42.7476616,          -9.,     32.92099
   4063,   37.8993492,          -9.,    66.756813
   4064,    37.015358,          -9.,   33.2688141
   4065,   34.1916924,          -9.,   33.7330208
   4066,   28.7034397,          -9.,    35.439743
   4067,   23.5378151,          -9.,   38.3724174
   4068,   18.3707294,          -9.,   42.2230301
   4069,   17.5704823,          -9.,   44.7255058
   4070,   18.5653095,          -9.,    57.082756
   4071,   22.2543087,          -9.,   60.9667015
   4072,    24.538969,          -9.,   62.4953651
   4073,   48.4760628,          -9.,   33.2820206
   4074,   56.7746696,          -9.,   35.3850746
   4075,   61.8235703,          -9.,   37.9440575
   4076,   62.3097076,          -9.,   62.2839966
   4077,   68.0834503,          -9.,   43.0681152
   4078,   68.2229538,          -9.,   57.0601044
   4079,   66.2435303,          -9.,   41.2466316
   4080,   59.3624077,          -9.,   36.5506859
   4081,   49.2157326,          -9.,   66.8326569
   4082,   51.3129425,          -9.,     33.76194
   4083,   45.6300278,          -9.,   33.0115128
   4084,   39.8908348,          -9.,   33.0049286
   4085,   29.6094284,          -9.,     64.79953
   4086,   31.4259739,          -9.,   34.4241028
   4087,    26.122242,          -9.,   36.8125534
   4088,   18.9883251,          -9.,   40.2219696
   4089,   20.2135029,          -9.,   59.1246033
   4090,   26.9988728,          -9.,   63.7630272
   4091,   32.2842102,          -9.,   65.6375961
   4092,   35.0398788,          -9.,   66.2907639
   4093,   40.7461624,          -9.,   67.0406723
   4094,   46.4250488,          -9.,   67.0781174
   4095,   51.9684601,          -9.,   66.3809967
   4096,   54.6127319,          -9.,   65.6337662
   4097,    59.809845,          -9.,   63.5355911
   4098,   66.5377045,          -9.,   58.9728966
   4099,   70.2496796,          -9.,   50.0116234
   4100,   70.0942841,          -9.,   52.5188904
   4101,   70.1056366,          -9.,   47.5148582
   4102,   64.8537827,          -9.,   57.0130463
   4103,    62.498333,          -9.,   41.9572182
   4104,   44.1684036,          -9.,   64.3484955
   4105,   42.5416718,          -9.,    35.802124
   4106,   37.1260719,          -9.,   35.9899559
   4107,    31.912077,          -9.,     36.91362
   4108,   21.2092037,          -9.,   42.1310959
   4109,   17.1820335,          -9.,   54.9506035
   4110,   26.2218571,          -9.,   60.4008675
   4111,   53.2028542,          -9.,   37.0906258
   4112,   58.8643417,          -9.,   60.9530945
   4113,   46.7970314,          -9.,     64.29142
   4114,   27.2437439,          -9.,   39.2777252
   4115,   21.2205143,          -9.,   55.3573036
   4116,   22.3584595,          -9.,   57.6029472
   4117,   56.3867455,          -9.,   62.0087929
   4118,   55.6932716,          -9.,   37.9509315
   4119,   47.9744492,          -9.,   36.0638542
   4120,   38.7373009,          -9.,   64.0381927
   4121,   39.8389473,          -9.,   35.8393555
   4122,   24.1088371,          -9.,   59.1722679
   4123,   21.0357323,          -9.,   39.4640694
   4124,   16.8759727,          -9.,   47.3389816
   4125,   16.5025902,          -9.,   49.9550247
   4126,   16.5540085,          -9.,   52.4923401
   4127,   29.4750519,          -9.,   37.7222748
   4128,   28.5420494,          -9.,   61.4215622
   4129,   34.4689331,          -9.,   36.3734932
   4130,   50.6344414,          -9.,    36.464119
   4131,   60.3350182,          -9.,   40.4187241
   4132,   64.5367813,          -9.,   60.7558823
   4133,   66.3790894,          -9.,   44.8715477
   4134,   69.4853439,          -9.,   45.1248016
   4135,   64.5266571,          -9.,   43.5012894
   4136,   58.0614624,          -9.,   39.0544739
   4137,   49.3019943,          -9.,    64.213356
   4138,   45.2883339,          -9.,    35.864769
   4139,   30.9813995,          -9.,    62.256134
   4140,     33.47929,          -9.,   62.9758644
   4141,    36.038311,          -9.,   63.5869789
   4142,   41.4302063,          -9.,   64.2943802
   4143,   51.7340622,          -9.,   63.9519806
   4144,   53.9813423,          -9.,   63.1387787
   4145,   67.4889603,          -9.,   52.2971764
   4146,   19.6211452,          -9.,   50.0282173
   4147,   19.3978615,          -9.,   52.2965508
   4148,   67.6650848,          -9.,   47.6967201
   4149,   60.9839745,          -9.,   44.2896843
   4150,   24.0277767,          -9.,   55.1374474
   4151,   58.9454041,          -9.,    42.665493
   4152,   55.2454071,          -9.,   59.4879303
   4153,   25.4997253,          -9.,   57.4686279
   4154,   29.1467876,          -9.,   41.0394859
   4155,   52.9031525,          -9.,   60.8179131
   4156,   56.8489685,          -9.,   41.3301086
   4157,   30.2728672,          -9.,   39.3844986
   4158,   27.4855042,          -9.,   58.3419189
   4159,   51.4066048,          -9.,   62.0900307
   4160,    54.728775,          -9.,   40.3304138
   4161,   32.2373238,          -9.,   39.3974113
   4162,   29.7679958,          -9.,   59.0754433
   4163,   52.4782677,          -9.,   39.5564651
   4164,   34.6958961,          -9.,   38.9447403
   4165,   32.1559029,          -9.,   59.6202164
   4166,   50.1060257,          -9.,   39.0519714
   4167,   47.1876717,          -9.,   61.5444717
   4168,   37.2120209,          -9.,   38.5316429
   4169,   34.5429001,          -9.,    60.289463
   4170,   47.6472511,          -9.,   38.7850266
   4171,   44.5611191,          -9.,   61.6778717
   4172,   39.7127686,          -9.,    38.682579
   4173,   36.9459648,          -9.,   60.9521217
   4174,   41.9678764,          -9.,   61.6954041
   4175,   39.4086037,          -9.,   61.4758453
   4176,   45.0767441,          -9.,   38.6921501
   4177,   42.3863678,          -9.,   38.7110748
   4178,   24.5961475,          -9.,   41.6742134
   4179,   61.1985397,          -9.,   60.0969582
   4180,   55.7916832,          -9.,   43.2951927
   4181,   28.2541256,          -9.,   56.3502159
   4182,   53.7157021,          -9.,   57.3310623
   4183,   32.0273056,          -9.,   42.2763557
   4184,   50.7341576,          -9.,   58.8133278
   4185,   30.4262714,          -9.,   56.8440933
   4186,   35.0720825,          -9.,   41.4131165
   4187,   53.9158134,          -9.,   42.5683403
   4188,   47.4382057,          -9.,   58.9273453
   4189,    33.041214,          -9.,   56.5920982
   4190,   37.1724319,          -9.,   40.5728149
   4191,   51.9499168,          -9.,   41.8477364
   4192,   44.7308502,          -9.,   59.1676445
   4193,   49.8235016,          -9.,   41.5736275
   4194,   39.1664963,          -9.,   41.8740578
   4195,   35.5614777,          -9.,   57.6811714
   4196,   47.5694695,          -9.,   41.4928131
   4197,   42.3445816,          -9.,   41.5935326
   4198,   42.2771988,          -9.,   59.3158264
   4199,    37.841011,          -9.,   58.4649544
   4200,   45.0886765,          -9.,   41.4849129
   4201,    39.977314,          -9.,   59.1784744
   4202,   23.7237911,          -9.,   45.1377563
   4203,   60.3494949,          -9.,    58.391674
   4204,   27.5836697,          -9.,   43.2286186
   4205,   58.0233688,          -9.,   58.0963898
   4206,   49.8513222,          -9.,   55.8540993
   4207,   34.7892799,          -9.,   54.2829018
   4208,    49.993782,          -9.,   44.1633835
   4209,   36.2482224,          -9.,   43.5749626
   4210,   45.3517799,          -9.,   44.1680717
   4211,   36.6720543,          -9.,   55.4577103
   4212,   47.1110077,          -9.,    56.359623
   4213,   40.1075058,          -9.,   44.8102722
   4214,   58.4257469,          -9.,   54.3369675
   4215,   26.7808304,          -9.,   45.8613548
   4216,   23.0394611,          -9.,   47.8604279
   4217,   64.4875183,          -9.,   52.8398628
   4218,   33.4576302,          -9.,   44.9283676
   4219,   52.4557915,          -9.,   55.0684624
   4220,   25.9708405,          -9.,   48.4167252
   4221,   60.9274178,          -9.,   52.2579842
   4222,   20.6935787,          -9.,   44.9070168
   4223,   66.3371735,          -9.,   55.3498993
   4224,   29.9897976,          -9.,   44.1250916
   4225,   56.2097092,          -9.,   56.0212822
   4226,   54.8099709,          -9.,   54.1287117
   4227,    30.386734,          -9.,   46.6688614
   4228,   28.8450851,          -9.,   49.3535805
   4229,   58.4308434,          -9.,   51.3706551
   4230,   22.4648399,          -9.,   50.3223991
   4231,   64.5959473,          -9.,   49.7221413
   4232,   48.9066582,          -9.,   53.0817604
   4233,   35.0271912,          -9.,   47.2168045
   4234,    31.202486,          -9.,   50.8439484
   4235,   56.7858009,          -9.,   49.6878548
   4236,   25.1677208,          -9.,   50.8225861
   4237,   61.4010887,          -9.,    48.773243
   4238,   32.8042946,          -9.,    48.889328
   4239,   51.4336548,          -9.,   52.6240883
   4240,   21.9304905,          -9.,    52.695118
   4241,   63.0517082,          -9.,    45.960041
   4242,   56.0477753,          -9.,   48.2975578
   4243,   33.1564941,          -9.,   52.6107674
   4244,   27.7163906,          -9.,   51.6110153
   4245,   58.6115761,          -9.,   49.3105621
   4246,   24.4622059,          -9.,   53.0792313
   4247,   59.4362602,          -9.,   46.2192917
   4248,   65.3006668,          -9.,   47.1064529
   4249,   57.6360054,          -9.,   47.4296989
   4250,   29.8849373,          -9.,   52.7154541
   4251,   50.8095245,          -9.,   49.9740906
   4252,   34.6963539,          -9.,   50.8540764
   4253,   51.0032387,          -9.,   46.9707947
   4254,   36.1784554,          -9.,   52.5564919
   4255,   47.8898163,          -9.,   49.9758072
   4256,   37.9168777,          -9.,   51.4255524
   4257,   55.0948296,          -9.,   44.7945709
   4258,   31.6848087,          -9.,    54.268959
   4259,   26.8513165,          -9.,   53.6842232
   4260,   57.6553421,          -9.,   44.5082436
   4261,   37.5210381,          -9.,    45.877533
   4262,   46.3911476,          -9.,   53.7689514
   4263,   48.1575966,          -9.,   46.9196663
   4264,   38.8502235,          -9.,   53.4980621
   4265,   45.3785858,          -9.,   51.3352089
   4266,   38.7592201,          -9.,   48.2539177
   4267,   43.3265953,          -9.,   46.8430176
   4268,   41.6282921,          -9.,   55.0105972
   4269,   40.8853722,          -9.,   52.8403435
   4270,    45.820961,          -9.,   48.5600624
   4271,   42.7586555,          -9.,   44.3197327
   4272,   40.4475403,          -9.,   57.3989334
   4273,   42.0494194,          -9.,   49.8383408
   4274,   41.0448494,          -9.,   47.4100266
   4275,   43.9574509,          -9.,   54.4072533
   4276,   43.0807877,          -9.,   52.1303596
   4277,   20.0720787,          -9.,   47.5422592
   4278,   19.2821617,          -9.,   54.1353416
   4279,   63.1057014,          -9.,   58.7198639
   4280,   67.7481003,          -9.,   54.1932373
   4281,   67.4813766,          -9.,   49.9650421
   4282,   67.8375702,          -9.,   45.8922653
   4283,   63.1173668,          -9.,   55.2274666
   4284,   23.9585705,          -9.,   56.6781311
   4285,   26.2027836,          -9.,    55.633934
   4286,    61.336956,          -9.,   54.3754768
   4287,   59.7883606,          -9.,   55.8339844
   4288,   61.5589256,          -9.,   57.0404892
   4289,   28.8441944,          -9.,   54.4625244
   4290,   49.6240807,          -9.,   61.6276169
   4291,   56.8710403,          -9.,    52.958065
   4292,   36.5890999,          -9.,   49.4011002
   4293,   56.2623062,          -9.,   45.9445992
   4294,   53.2131271,          -9.,   45.0796776
   4295,   47.8109932,          -9.,   44.2313423
   4296,   51.6513214,          -9.,   43.7319603
   4297,   57.0088844,          -9.,   50.8470345
   4298,   55.7205391,          -9.,   51.5851631
   4299,    53.750309,          -9.,   52.1757774
   4300,    39.909584,          -9.,   50.5724983
   4301,   30.3593502,          -9.,   55.1999626
   4302,    54.703598,          -9.,    46.931881
   4303,     55.14991,          -9.,   50.1318436
   4304,   53.2119675,          -9.,   50.1473732
   4305,   44.5306778,          -9.,   56.7579956
   4306,   45.7276077,          -9.,   46.6239967
   4307,   39.0665016,          -9.,   55.9654274
   4308,   42.2286873,          -9.,   57.0860214
   4309,   44.1511383,          -9.,   49.2068748
   4310,   37.2552261,          -9.,   53.8390388
   4311,   54.9376907,          -9.,   48.9445496
   4312,   53.4485512,          -9.,   48.2442551
   4313,   72.6548691,         -12.,   46.9750137
   4314,   71.6628723,         -12.,   44.0955849
   4315,   70.1294861,         -12.,   41.4627342
   4316,   65.9075928,         -12.,   37.0858841
   4317,   63.4072647,         -12.,   35.3402519
   4318,   57.9375267,         -12.,   32.6555138
   4319,   49.0830994,         -12.,    30.415472
   4320,   42.9999504,         -12.,          30.
   4321,   36.9168015,         -12.,   30.4154854
   4322,   28.0623798,         -12.,   32.6555481
   4323,   22.5926533,         -12.,   35.3403015
   4324,   20.0923309,         -12.,   37.0859489
   4325,   15.8704844,         -12.,   41.4627762
   4326,   14.3371067,         -12.,   44.0956306
   4327,   13.3451195,         -12.,   46.9750633
   4328,          73.,         -12.,          50.
   4329,          13.,         -12.,          50.
   4330,     13.34513,         -12.,   53.0249863
   4331,   14.3371286,         -12.,   55.9044151
   4332,   15.8705158,         -12.,   58.5372658
   4333,   20.0924091,         -12.,   62.9141159
   4334,   22.5927353,         -12.,   64.6597519
   4335,   28.0624714,         -12.,   67.3444901
   4336,   36.9169006,         -12.,   69.5845261
   4337,   43.0000496,         -12.,          70.
   4338,   49.0831985,         -12.,   69.5845108
   4339,   57.9376221,         -12.,   67.3444519
   4340,   63.4073448,         -12.,   64.6596985
   4341,   65.9076691,         -12.,   62.9140511
   4342,   70.1295166,         -12.,   58.5372238
   4343,   71.6628952,         -12.,   55.9043694
   4344,   72.6548843,         -12.,   53.0249367
   4345,   68.1757355,         -12.,   39.1232681
   4346,   60.7356377,         -12.,   33.8693237
   4347,   55.0464287,         -12.,   31.6832371
   4348,   52.0880966,         -12.,    30.939785
   4349,   46.0486526,         -12.,   30.1035385
   4350,    39.951252,         -12.,   30.1035442
   4351,    33.911808,         -12.,    30.939806
   4352,    30.953476,         -12.,   31.6832657
   4353,   25.2642746,         -12.,   33.8693657
   4354,   17.8242264,         -12.,   39.1233101
   4355,   17.8242664,         -12.,   60.8767319
   4356,   25.2643623,         -12.,   66.1306763
   4357,   30.9535713,         -12.,   68.3167648
   4358,   33.9119034,         -12.,   69.0602112
   4359,   39.9513474,         -12.,   69.8964615
   4360,    46.048748,         -12.,   69.8964539
   4361,    52.088192,         -12.,   69.0601959
   4362,    55.046524,         -12.,   68.3167343
   4363,   60.7357254,         -12.,   66.1306305
   4364,   68.1757736,         -12.,   60.8766899
   4365,   69.5258942,         -12.,   54.9326172
   4366,   64.1362152,         -12.,   39.5261269
   4367,    57.247551,         -12.,   64.6263275
   4368,   54.0768356,         -12.,   34.4577789
   4369,   43.6298828,         -12.,   67.1327744
   4370,   42.7476616,         -12.,     32.92099
   4371,   37.8993492,         -12.,    66.756813
   4372,    37.015358,         -12.,   33.2688141
   4373,   34.1916924,         -12.,   33.7330208
   4374,   28.7034397,         -12.,    35.439743
   4375,   23.5378151,         -12.,   38.3724174
   4376,   18.3707294,         -12.,   42.2230301
   4377,   17.5704823,         -12.,   44.7255058
   4378,   18.5653095,         -12.,    57.082756
   4379,   22.2543087,         -12.,   60.9667015
   4380,    24.538969,         -12.,   62.4953651
   4381,   48.4760628,         -12.,   33.2820206
   4382,   56.7746696,         -12.,   35.3850746
   4383,   61.8235703,         -12.,   37.9440575
   4384,   62.3097076,         -12.,   62.2839966
   4385,   68.0834503,         -12.,   43.0681152
   4386,   68.2229538,         -12.,   57.0601044
   4387,   66.2435303,         -12.,   41.2466316
   4388,   59.3624077,         -12.,   36.5506859
   4389,   49.2157326,         -12.,   66.8326569
   4390,   51.3129425,         -12.,     33.76194
   4391,   45.6300278,         -12.,   33.0115128
   4392,   39.8908348,         -12.,   33.0049286
   4393,   29.6094284,         -12.,     64.79953
   4394,   31.4259739,         -12.,   34.4241028
   4395,    26.122242,         -12.,   36.8125534
   4396,   18.9883251,         -12.,   40.2219696
   4397,   20.2135029,         -12.,   59.1246033
   4398,   26.9988728,         -12.,   63.7630272
   4399,   32.2842102,         -12.,   65.6375961
   4400,   35.0398788,         -12.,   66.2907639
   4401,   40.7461624,         -12.,   67.0406723
   4402,   46.4250488,         -12.,   67.0781174
   4403,   51.9684601,         -12.,   66.3809967
   4404,   54.6127319,         -12.,   65.6337662
   4405,    59.809845,         -12.,   63.5355911
   4406,   66.5377045,         -12.,   58.9728966
   4407,   70.2496796,         -12.,   50.0116234
   4408,   70.0942841,         -12.,   52.5188904
   4409,   70.1056366,         -12.,   47.5148582
   4410,   64.8537827,         -12.,   57.0130463
   4411,    62.498333,         -12.,   41.9572182
   4412,   44.1684036,         -12.,   64.3484955
   4413,   42.5416718,         -12.,    35.802124
   4414,   37.1260719,         -12.,   35.9899559
   4415,    31.912077,         -12.,     36.91362
   4416,   21.2092037,         -12.,   42.1310959
   4417,   17.1820335,         -12.,   54.9506035
   4418,   26.2218571,         -12.,   60.4008675
   4419,   53.2028542,         -12.,   37.0906258
   4420,   58.8643417,         -12.,   60.9530945
   4421,   46.7970314,         -12.,     64.29142
   4422,   27.2437439,         -12.,   39.2777252
   4423,   21.2205143,         -12.,   55.3573036
   4424,   22.3584595,         -12.,   57.6029472
   4425,   56.3867455,         -12.,   62.0087929
   4426,   55.6932716,         -12.,   37.9509315
   4427,   47.9744492,         -12.,   36.0638542
   4428,   38.7373009,         -12.,   64.0381927
   4429,   39.8389473,         -12.,   35.8393555
   4430,   24.1088371,         -12.,   59.1722679
   4431,   21.0357323,         -12.,   39.4640694
   4432,   16.8759727,         -12.,   47.3389816
   4433,   16.5025902,         -12.,   49.9550247
   4434,   16.5540085,         -12.,   52.4923401
   4435,   29.4750519,         -12.,   37.7222748
   4436,   28.5420494,         -12.,   61.4215622
   4437,   34.4689331,         -12.,   36.3734932
   4438,   50.6344414,         -12.,    36.464119
   4439,   60.3350182,         -12.,   40.4187241
   4440,   64.5367813,         -12.,   60.7558823
   4441,   66.3790894,         -12.,   44.8715477
   4442,   69.4853439,         -12.,   45.1248016
   4443,   64.5266571,         -12.,   43.5012894
   4444,   58.0614624,         -12.,   39.0544739
   4445,   49.3019943,         -12.,    64.213356
   4446,   45.2883339,         -12.,    35.864769
   4447,   30.9813995,         -12.,    62.256134
   4448,     33.47929,         -12.,   62.9758644
   4449,    36.038311,         -12.,   63.5869789
   4450,   41.4302063,         -12.,   64.2943802
   4451,   51.7340622,         -12.,   63.9519806
   4452,   53.9813423,         -12.,   63.1387787
   4453,   67.4889603,         -12.,   52.2971764
   4454,   19.6211452,         -12.,   50.0282173
   4455,   19.3978615,         -12.,   52.2965508
   4456,   67.6650848,         -12.,   47.6967201
   4457,   60.9839745,         -12.,   44.2896843
   4458,   24.0277767,         -12.,   55.1374474
   4459,   58.9454041,         -12.,    42.665493
   4460,   55.2454071,         -12.,   59.4879303
   4461,   25.4997253,         -12.,   57.4686279
   4462,   29.1467876,         -12.,   41.0394859
   4463,   52.9031525,         -12.,   60.8179131
   4464,   56.8489685,         -12.,   41.3301086
   4465,   30.2728672,         -12.,   39.3844986
   4466,   27.4855042,         -12.,   58.3419189
   4467,   51.4066048,         -12.,   62.0900307
   4468,    54.728775,         -12.,   40.3304138
   4469,   32.2373238,         -12.,   39.3974113
   4470,   29.7679958,         -12.,   59.0754433
   4471,   52.4782677,         -12.,   39.5564651
   4472,   34.6958961,         -12.,   38.9447403
   4473,   32.1559029,         -12.,   59.6202164
   4474,   50.1060257,         -12.,   39.0519714
   4475,   47.1876717,         -12.,   61.5444717
   4476,   37.2120209,         -12.,   38.5316429
   4477,   34.5429001,         -12.,    60.289463
   4478,   47.6472511,         -12.,   38.7850266
   4479,   44.5611191,         -12.,   61.6778717
   4480,   39.7127686,         -12.,    38.682579
   4481,   36.9459648,         -12.,   60.9521217
   4482,   41.9678764,         -12.,   61.6954041
   4483,   39.4086037,         -12.,   61.4758453
   4484,   45.0767441,         -12.,   38.6921501
   4485,   42.3863678,         -12.,   38.7110748
   4486,   24.5961475,         -12.,   41.6742134
   4487,   61.1985397,         -12.,   60.0969582
   4488,   55.7916832,         -12.,   43.2951927
   4489,   28.2541256,         -12.,   56.3502159
   4490,   53.7157021,         -12.,   57.3310623
   4491,   32.0273056,         -12.,   42.2763557
   4492,   50.7341576,         -12.,   58.8133278
   4493,   30.4262714,         -12.,   56.8440933
   4494,   35.0720825,         -12.,   41.4131165
   4495,   53.9158134,         -12.,   42.5683403
   4496,   47.4382057,         -12.,   58.9273453
   4497,    33.041214,         -12.,   56.5920982
   4498,   37.1724319,         -12.,   40.5728149
   4499,   51.9499168,         -12.,   41.8477364
   4500,   44.7308502,         -12.,   59.1676445
   4501,   49.8235016,         -12.,   41.5736275
   4502,   39.1664963,         -12.,   41.8740578
   4503,   35.5614777,         -12.,   57.6811714
   4504,   47.5694695,         -12.,   41.4928131
   4505,   42.3445816,         -12.,   41.5935326
   4506,   42.2771988,         -12.,   59.3158264
   4507,    37.841011,         -12.,   58.4649544
   4508,   45.0886765,         -12.,   41.4849129
   4509,    39.977314,         -12.,   59.1784744
   4510,   23.7237911,         -12.,   45.1377563
   4511,   60.3494949,         -12.,    58.391674
   4512,   27.5836697,         -12.,   43.2286186
   4513,   58.0233688,         -12.,   58.0963898
   4514,   49.8513222,         -12.,   55.8540993
   4515,   34.7892799,         -12.,   54.2829018
   4516,    49.993782,         -12.,   44.1633835
   4517,   36.2482224,         -12.,   43.5749626
   4518,   45.3517799,         -12.,   44.1680717
   4519,   36.6720543,         -12.,   55.4577103
   4520,   47.1110077,         -12.,    56.359623
   4521,   40.1075058,         -12.,   44.8102722
   4522,   58.4257469,         -12.,   54.3369675
   4523,   26.7808304,         -12.,   45.8613548
   4524,   23.0394611,         -12.,   47.8604279
   4525,   64.4875183,         -12.,   52.8398628
   4526,   33.4576302,         -12.,   44.9283676
   4527,   52.4557915,         -12.,   55.0684624
   4528,   25.9708405,         -12.,   48.4167252
   4529,   60.9274178,         -12.,   52.2579842
   4530,   20.6935787,         -12.,   44.9070168
   4531,   66.3371735,         -12.,   55.3498993
   4532,   29.9897976,         -12.,   44.1250916
   4533,   56.2097092,         -12.,   56.0212822
   4534,   54.8099709,         -12.,   54.1287117
   4535,    30.386734,         -12.,   46.6688614
   4536,   28.8450851,         -12.,   49.3535805
   4537,   58.4308434,         -12.,   51.3706551
   4538,   22.4648399,         -12.,   50.3223991
   4539,   64.5959473,         -12.,   49.7221413
   4540,   48.9066582,         -12.,   53.0817604
   4541,   35.0271912,         -12.,   47.2168045
   4542,    31.202486,         -12.,   50.8439484
   4543,   56.7858009,         -12.,   49.6878548
   4544,   25.1677208,         -12.,   50.8225861
   4545,   61.4010887,         -12.,    48.773243
   4546,   32.8042946,         -12.,    48.889328
   4547,   51.4336548,         -12.,   52.6240883
   4548,   21.9304905,         -12.,    52.695118
   4549,   63.0517082,         -12.,    45.960041
   4550,   56.0477753,         -12.,   48.2975578
   4551,   33.1564941,         -12.,   52.6107674
   4552,   27.7163906,         -12.,   51.6110153
   4553,   58.6115761,         -12.,   49.3105621
   4554,   24.4622059,         -12.,   53.0792313
   4555,   59.4362602,         -12.,   46.2192917
   4556,   65.3006668,         -12.,   47.1064529
   4557,   57.6360054,         -12.,   47.4296989
   4558,   29.8849373,         -12.,   52.7154541
   4559,   50.8095245,         -12.,   49.9740906
   4560,   34.6963539,         -12.,   50.8540764
   4561,   51.0032387,         -12.,   46.9707947
   4562,   36.1784554,         -12.,   52.5564919
   4563,   47.8898163,         -12.,   49.9758072
   4564,   37.9168777,         -12.,   51.4255524
   4565,   55.0948296,         -12.,   44.7945709
   4566,   31.6848087,         -12.,    54.268959
   4567,   26.8513165,         -12.,   53.6842232
   4568,   57.6553421,         -12.,   44.5082436
   4569,   37.5210381,         -12.,    45.877533
   4570,   46.3911476,         -12.,   53.7689514
   4571,   48.1575966,         -12.,   46.9196663
   4572,   38.8502235,         -12.,   53.4980621
   4573,   45.3785858,         -12.,   51.3352089
   4574,   38.7592201,         -12.,   48.2539177
   4575,   43.3265953,         -12.,   46.8430176
   4576,   41.6282921,         -12.,   55.0105972
   4577,   40.8853722,         -12.,   52.8403435
   4578,    45.820961,         -12.,   48.5600624
   4579,   42.7586555,         -12.,   44.3197327
   4580,   40.4475403,         -12.,   57.3989334
   4581,   42.0494194,         -12.,   49.8383408
   4582,   41.0448494,         -12.,   47.4100266
   4583,   43.9574509,         -12.,   54.4072533
   4584,   43.0807877,         -12.,   52.1303596
   4585,   20.0720787,         -12.,   47.5422592
   4586,   19.2821617,         -12.,   54.1353416
   4587,   63.1057014,         -12.,   58.7198639
   4588,   67.7481003,         -12.,   54.1932373
   4589,   67.4813766,         -12.,   49.9650421
   4590,   67.8375702,         -12.,   45.8922653
   4591,   63.1173668,         -12.,   55.2274666
   4592,   23.9585705,         -12.,   56.6781311
   4593,   26.2027836,         -12.,    55.633934
   4594,    61.336956,         -12.,   54.3754768
   4595,   59.7883606,         -12.,   55.8339844
   4596,   61.5589256,         -12.,   57.0404892
   4597,   28.8441944,         -12.,   54.4625244
   4598,   49.6240807,         -12.,   61.6276169
   4599,   56.8710403,         -12.,    52.958065
   4600,   36.5890999,         -12.,   49.4011002
   4601,   56.2623062,         -12.,   45.9445992
   4602,   53.2131271,         -12.,   45.0796776
   4603,   47.8109932,         -12.,   44.2313423
   4604,   51.6513214,         -12.,   43.7319603
   4605,   57.0088844,         -12.,   50.8470345
   4606,   55.7205391,         -12.,   51.5851631
   4607,    53.750309,         -12.,   52.1757774
   4608,    39.909584,         -12.,   50.5724983
   4609,   30.3593502,         -12.,   55.1999626
   4610,    54.703598,         -12.,    46.931881
   4611,     55.14991,         -12.,   50.1318436
   4612,   53.2119675,         -12.,   50.1473732
   4613,   44.5306778,         -12.,   56.7579956
   4614,   45.7276077,         -12.,   46.6239967
   4615,   39.0665016,         -12.,   55.9654274
   4616,   42.2286873,         -12.,   57.0860214
   4617,   44.1511383,         -12.,   49.2068748
   4618,   37.2552261,         -12.,   53.8390388
   4619,   54.9376907,         -12.,   48.9445496
   4620,   53.4485512,         -12.,   48.2442551
   4621,   72.6548691,         -15.,   46.9750137
   4622,   71.6628723,         -15.,   44.0955849
   4623,   70.1294861,         -15.,   41.4627342
   4624,   65.9075928,         -15.,   37.0858841
   4625,   63.4072647,         -15.,   35.3402519
   4626,   57.9375267,         -15.,   32.6555138
   4627,   49.0830994,         -15.,    30.415472
   4628,   42.9999504,         -15.,          30.
   4629,   36.9168015,         -15.,   30.4154854
   4630,   28.0623798,         -15.,   32.6555481
   4631,   22.5926533,         -15.,   35.3403015
   4632,   20.0923309,         -15.,   37.0859489
   4633,   15.8704844,         -15.,   41.4627762
   4634,   14.3371067,         -15.,   44.0956306
   4635,   13.3451195,         -15.,   46.9750633
   4636,          73.,         -15.,          50.
   4637,          13.,         -15.,          50.
   4638,     13.34513,         -15.,   53.0249863
   4639,   14.3371286,         -15.,   55.9044151
   4640,   15.8705158,         -15.,   58.5372658
   4641,   20.0924091,         -15.,   62.9141159
   4642,   22.5927353,         -15.,   64.6597519
   4643,   28.0624714,         -15.,   67.3444901
   4644,   36.9169006,         -15.,   69.5845261
   4645,   43.0000496,         -15.,          70.
   4646,   49.0831985,         -15.,   69.5845108
   4647,   57.9376221,         -15.,   67.3444519
   4648,   63.4073448,         -15.,   64.6596985
   4649,   65.9076691,         -15.,   62.9140511
   4650,   70.1295166,         -15.,   58.5372238
   4651,   71.6628952,         -15.,   55.9043694
   4652,   72.6548843,         -15.,   53.0249367
   4653,   68.1757355,         -15.,   39.1232681
   4654,   60.7356377,         -15.,   33.8693237
   4655,   55.0464287,         -15.,   31.6832371
   4656,   52.0880966,         -15.,    30.939785
   4657,   46.0486526,         -15.,   30.1035385
   4658,    39.951252,         -15.,   30.1035442
   4659,    33.911808,         -15.,    30.939806
   4660,    30.953476,         -15.,   31.6832657
   4661,   25.2642746,         -15.,   33.8693657
   4662,   17.8242264,         -15.,   39.1233101
   4663,   17.8242664,         -15.,   60.8767319
   4664,   25.2643623,         -15.,   66.1306763
   4665,   30.9535713,         -15.,   68.3167648
   4666,   33.9119034,         -15.,   69.0602112
   4667,   39.9513474,         -15.,   69.8964615
   4668,    46.048748,         -15.,   69.8964539
   4669,    52.088192,         -15.,   69.0601959
   4670,    55.046524,         -15.,   68.3167343
   4671,   60.7357254,         -15.,   66.1306305
   4672,   68.1757736,         -15.,   60.8766899
   4673,   69.5258942,         -15.,   54.9326172
   4674,   64.1362152,         -15.,   39.5261269
   4675,    57.247551,         -15.,   64.6263275
   4676,   54.0768356,         -15.,   34.4577789
   4677,   43.6298828,         -15.,   67.1327744
   4678,   42.7476616,         -15.,     32.92099
   4679,   37.8993492,         -15.,    66.756813
   4680,    37.015358,         -15.,   33.2688141
   4681,   34.1916924,         -15.,   33.7330208
   4682,   28.7034397,         -15.,    35.439743
   4683,   23.5378151,         -15.,   38.3724174
   4684,   18.3707294,         -15.,   42.2230301
   4685,   17.5704823,         -15.,   44.7255058
   4686,   18.5653095,         -15.,    57.082756
   4687,   22.2543087,         -15.,   60.9667015
   4688,    24.538969,         -15.,   62.4953651
   4689,   48.4760628,         -15.,   33.2820206
   4690,   56.7746696,         -15.,   35.3850746
   4691,   61.8235703,         -15.,   37.9440575
   4692,   62.3097076,         -15.,   62.2839966
   4693,   68.0834503,         -15.,   43.0681152
   4694,   68.2229538,         -15.,   57.0601044
   4695,   66.2435303,         -15.,   41.2466316
   4696,   59.3624077,         -15.,   36.5506859
   4697,   49.2157326,         -15.,   66.8326569
   4698,   51.3129425,         -15.,     33.76194
   4699,   45.6300278,         -15.,   33.0115128
   4700,   39.8908348,         -15.,   33.0049286
   4701,   29.6094284,         -15.,     64.79953
   4702,   31.4259739,         -15.,   34.4241028
   4703,    26.122242,         -15.,   36.8125534
   4704,   18.9883251,         -15.,   40.2219696
   4705,   20.2135029,         -15.,   59.1246033
   4706,   26.9988728,         -15.,   63.7630272
   4707,   32.2842102,         -15.,   65.6375961
   4708,   35.0398788,         -15.,   66.2907639
   4709,   40.7461624,         -15.,   67.0406723
   4710,   46.4250488,         -15.,   67.0781174
   4711,   51.9684601,         -15.,   66.3809967
   4712,   54.6127319,         -15.,   65.6337662
   4713,    59.809845,         -15.,   63.5355911
   4714,   66.5377045,         -15.,   58.9728966
   4715,   70.2496796,         -15.,   50.0116234
   4716,   70.0942841,         -15.,   52.5188904
   4717,   70.1056366,         -15.,   47.5148582
   4718,   64.8537827,         -15.,   57.0130463
   4719,    62.498333,         -15.,   41.9572182
   4720,   44.1684036,         -15.,   64.3484955
   4721,   42.5416718,         -15.,    35.802124
   4722,   37.1260719,         -15.,   35.9899559
   4723,    31.912077,         -15.,     36.91362
   4724,   21.2092037,         -15.,   42.1310959
   4725,   17.1820335,         -15.,   54.9506035
   4726,   26.2218571,         -15.,   60.4008675
   4727,   53.2028542,         -15.,   37.0906258
   4728,   58.8643417,         -15.,   60.9530945
   4729,   46.7970314,         -15.,     64.29142
   4730,   27.2437439,         -15.,   39.2777252
   4731,   21.2205143,         -15.,   55.3573036
   4732,   22.3584595,         -15.,   57.6029472
   4733,   56.3867455,         -15.,   62.0087929
   4734,   55.6932716,         -15.,   37.9509315
   4735,   47.9744492,         -15.,   36.0638542
   4736,   38.7373009,         -15.,   64.0381927
   4737,   39.8389473,         -15.,   35.8393555
   4738,   24.1088371,         -15.,   59.1722679
   4739,   21.0357323,         -15.,   39.4640694
   4740,   16.8759727,         -15.,   47.3389816
   4741,   16.5025902,         -15.,   49.9550247
   4742,   16.5540085,         -15.,   52.4923401
   4743,   29.4750519,         -15.,   37.7222748
   4744,   28.5420494,         -15.,   61.4215622
   4745,   34.4689331,         -15.,   36.3734932
   4746,   50.6344414,         -15.,    36.464119
   4747,   60.3350182,         -15.,   40.4187241
   4748,   64.5367813,         -15.,   60.7558823
   4749,   66.3790894,         -15.,   44.8715477
   4750,   69.4853439,         -15.,   45.1248016
   4751,   64.5266571,         -15.,   43.5012894
   4752,   58.0614624,         -15.,   39.0544739
   4753,   49.3019943,         -15.,    64.213356
   4754,   45.2883339,         -15.,    35.864769
   4755,   30.9813995,         -15.,    62.256134
   4756,     33.47929,         -15.,   62.9758644
   4757,    36.038311,         -15.,   63.5869789
   4758,   41.4302063,         -15.,   64.2943802
   4759,   51.7340622,         -15.,   63.9519806
   4760,   53.9813423,         -15.,   63.1387787
   4761,   67.4889603,         -15.,   52.2971764
   4762,   19.6211452,         -15.,   50.0282173
   4763,   19.3978615,         -15.,   52.2965508
   4764,   67.6650848,         -15.,   47.6967201
   4765,   60.9839745,         -15.,   44.2896843
   4766,   24.0277767,         -15.,   55.1374474
   4767,   58.9454041,         -15.,    42.665493
   4768,   55.2454071,         -15.,   59.4879303
   4769,   25.4997253,         -15.,   57.4686279
   4770,   29.1467876,         -15.,   41.0394859
   4771,   52.9031525,         -15.,   60.8179131
   4772,   56.8489685,         -15.,   41.3301086
   4773,   30.2728672,         -15.,   39.3844986
   4774,   27.4855042,         -15.,   58.3419189
   4775,   51.4066048,         -15.,   62.0900307
   4776,    54.728775,         -15.,   40.3304138
   4777,   32.2373238,         -15.,   39.3974113
   4778,   29.7679958,         -15.,   59.0754433
   4779,   52.4782677,         -15.,   39.5564651
   4780,   34.6958961,         -15.,   38.9447403
   4781,   32.1559029,         -15.,   59.6202164
   4782,   50.1060257,         -15.,   39.0519714
   4783,   47.1876717,         -15.,   61.5444717
   4784,   37.2120209,         -15.,   38.5316429
   4785,   34.5429001,         -15.,    60.289463
   4786,   47.6472511,         -15.,   38.7850266
   4787,   44.5611191,         -15.,   61.6778717
   4788,   39.7127686,         -15.,    38.682579
   4789,   36.9459648,         -15.,   60.9521217
   4790,   41.9678764,         -15.,   61.6954041
   4791,   39.4086037,         -15.,   61.4758453
   4792,   45.0767441,         -15.,   38.6921501
   4793,   42.3863678,         -15.,   38.7110748
   4794,   24.5961475,         -15.,   41.6742134
   4795,   61.1985397,         -15.,   60.0969582
   4796,   55.7916832,         -15.,   43.2951927
   4797,   28.2541256,         -15.,   56.3502159
   4798,   53.7157021,         -15.,   57.3310623
   4799,   32.0273056,         -15.,   42.2763557
   4800,   50.7341576,         -15.,   58.8133278
   4801,   30.4262714,         -15.,   56.8440933
   4802,   35.0720825,         -15.,   41.4131165
   4803,   53.9158134,         -15.,   42.5683403
   4804,   47.4382057,         -15.,   58.9273453
   4805,    33.041214,         -15.,   56.5920982
   4806,   37.1724319,         -15.,   40.5728149
   4807,   51.9499168,         -15.,   41.8477364
   4808,   44.7308502,         -15.,   59.1676445
   4809,   49.8235016,         -15.,   41.5736275
   4810,   39.1664963,         -15.,   41.8740578
   4811,   35.5614777,         -15.,   57.6811714
   4812,   47.5694695,         -15.,   41.4928131
   4813,   42.3445816,         -15.,   41.5935326
   4814,   42.2771988,         -15.,   59.3158264
   4815,    37.841011,         -15.,   58.4649544
   4816,   45.0886765,         -15.,   41.4849129
   4817,    39.977314,         -15.,   59.1784744
   4818,   23.7237911,         -15.,   45.1377563
   4819,   60.3494949,         -15.,    58.391674
   4820,   27.5836697,         -15.,   43.2286186
   4821,   58.0233688,         -15.,   58.0963898
   4822,   49.8513222,         -15.,   55.8540993
   4823,   34.7892799,         -15.,   54.2829018
   4824,    49.993782,         -15.,   44.1633835
   4825,   36.2482224,         -15.,   43.5749626
   4826,   45.3517799,         -15.,   44.1680717
   4827,   36.6720543,         -15.,   55.4577103
   4828,   47.1110077,         -15.,    56.359623
   4829,   40.1075058,         -15.,   44.8102722
   4830,   58.4257469,         -15.,   54.3369675
   4831,   26.7808304,         -15.,   45.8613548
   4832,   23.0394611,         -15.,   47.8604279
   4833,   64.4875183,         -15.,   52.8398628
   4834,   33.4576302,         -15.,   44.9283676
   4835,   52.4557915,         -15.,   55.0684624
   4836,   25.9708405,         -15.,   48.4167252
   4837,   60.9274178,         -15.,   52.2579842
   4838,   20.6935787,         -15.,   44.9070168
   4839,   66.3371735,         -15.,   55.3498993
   4840,   29.9897976,         -15.,   44.1250916
   4841,   56.2097092,         -15.,   56.0212822
   4842,   54.8099709,         -15.,   54.1287117
   4843,    30.386734,         -15.,   46.6688614
   4844,   28.8450851,         -15.,   49.3535805
   4845,   58.4308434,         -15.,   51.3706551
   4846,   22.4648399,         -15.,   50.3223991
   4847,   64.5959473,         -15.,   49.7221413
   4848,   48.9066582,         -15.,   53.0817604
   4849,   35.0271912,         -15.,   47.2168045
   4850,    31.202486,         -15.,   50.8439484
   4851,   56.7858009,         -15.,   49.6878548
   4852,   25.1677208,         -15.,   50.8225861
   4853,   61.4010887,         -15.,    48.773243
   4854,   32.8042946,         -15.,    48.889328
   4855,   51.4336548,         -15.,   52.6240883
   4856,   21.9304905,         -15.,    52.695118
   4857,   63.0517082,         -15.,    45.960041
   4858,   56.0477753,         -15.,   48.2975578
   4859,   33.1564941,         -15.,   52.6107674
   4860,   27.7163906,         -15.,   51.6110153
   4861,   58.6115761,         -15.,   49.3105621
   4862,   24.4622059,         -15.,   53.0792313
   4863,   59.4362602,         -15.,   46.2192917
   4864,   65.3006668,         -15.,   47.1064529
   4865,   57.6360054,         -15.,   47.4296989
   4866,   29.8849373,         -15.,   52.7154541
   4867,   50.8095245,         -15.,   49.9740906
   4868,   34.6963539,         -15.,   50.8540764
   4869,   51.0032387,         -15.,   46.9707947
   4870,   36.1784554,         -15.,   52.5564919
   4871,   47.8898163,         -15.,   49.9758072
   4872,   37.9168777,         -15.,   51.4255524
   4873,   55.0948296,         -15.,   44.7945709
   4874,   31.6848087,         -15.,    54.268959
   4875,   26.8513165,         -15.,   53.6842232
   4876,   57.6553421,         -15.,   44.5082436
   4877,   37.5210381,         -15.,    45.877533
   4878,   46.3911476,         -15.,   53.7689514
   4879,   48.1575966,         -15.,   46.9196663
   4880,   38.8502235,         -15.,   53.4980621
   4881,   45.3785858,         -15.,   51.3352089
   4882,   38.7592201,         -15.,   48.2539177
   4883,   43.3265953,         -15.,   46.8430176
   4884,   41.6282921,         -15.,   55.0105972
   4885,   40.8853722,         -15.,   52.8403435
   4886,    45.820961,         -15.,   48.5600624
   4887,   42.7586555,         -15.,   44.3197327
   4888,   40.4475403,         -15.,   57.3989334
   4889,   42.0494194,         -15.,   49.8383408
   4890,   41.0448494,         -15.,   47.4100266
   4891,   43.9574509,         -15.,   54.4072533
   4892,   43.0807877,         -15.,   52.1303596
   4893,   20.0720787,         -15.,   47.5422592
   4894,   19.2821617,         -15.,   54.1353416
   4895,   63.1057014,         -15.,   58.7198639
   4896,   67.7481003,         -15.,   54.1932373
   4897,   67.4813766,         -15.,   49.9650421
   4898,   67.8375702,         -15.,   45.8922653
   4899,   63.1173668,         -15.,   55.2274666
   4900,   23.9585705,         -15.,   56.6781311
   4901,   26.2027836,         -15.,    55.633934
   4902,    61.336956,         -15.,   54.3754768
   4903,   59.7883606,         -15.,   55.8339844
   4904,   61.5589256,         -15.,   57.0404892
   4905,   28.8441944,         -15.,   54.4625244
   4906,   49.6240807,         -15.,   61.6276169
   4907,   56.8710403,         -15.,    52.958065
   4908,   36.5890999,         -15.,   49.4011002
   4909,   56.2623062,         -15.,   45.9445992
   4910,   53.2131271,         -15.,   45.0796776
   4911,   47.8109932,         -15.,   44.2313423
   4912,   51.6513214,         -15.,   43.7319603
   4913,   57.0088844,         -15.,   50.8470345
   4914,   55.7205391,         -15.,   51.5851631
   4915,    53.750309,         -15.,   52.1757774
   4916,    39.909584,         -15.,   50.5724983
   4917,   30.3593502,         -15.,   55.1999626
   4918,    54.703598,         -15.,    46.931881
   4919,     55.14991,         -15.,   50.1318436
   4920,   53.2119675,         -15.,   50.1473732
   4921,   44.5306778,         -15.,   56.7579956
   4922,   45.7276077,         -15.,   46.6239967
   4923,   39.0665016,         -15.,   55.9654274
   4924,   42.2286873,         -15.,   57.0860214
   4925,   44.1511383,         -15.,   49.2068748
   4926,   37.2552261,         -15.,   53.8390388
   4927,   54.9376907,         -15.,   48.9445496
   4928,   53.4485512,         -15.,   48.2442551
   4929,   72.6548691,         -18.,   46.9750137
   4930,   71.6628723,         -18.,   44.0955849
   4931,   70.1294861,         -18.,   41.4627342
   4932,   65.9075928,         -18.,   37.0858841
   4933,   63.4072647,         -18.,   35.3402519
   4934,   57.9375267,         -18.,   32.6555138
   4935,   49.0830994,         -18.,    30.415472
   4936,   42.9999504,         -18.,          30.
   4937,   36.9168015,         -18.,   30.4154854
   4938,   28.0623798,         -18.,   32.6555481
   4939,   22.5926533,         -18.,   35.3403015
   4940,   20.0923309,         -18.,   37.0859489
   4941,   15.8704844,         -18.,   41.4627762
   4942,   14.3371067,         -18.,   44.0956306
   4943,   13.3451195,         -18.,   46.9750633
   4944,          73.,         -18.,          50.
   4945,          13.,         -18.,          50.
   4946,     13.34513,         -18.,   53.0249863
   4947,   14.3371286,         -18.,   55.9044151
   4948,   15.8705158,         -18.,   58.5372658
   4949,   20.0924091,         -18.,   62.9141159
   4950,   22.5927353,         -18.,   64.6597519
   4951,   28.0624714,         -18.,   67.3444901
   4952,   36.9169006,         -18.,   69.5845261
   4953,   43.0000496,         -18.,          70.
   4954,   49.0831985,         -18.,   69.5845108
   4955,   57.9376221,         -18.,   67.3444519
   4956,   63.4073448,         -18.,   64.6596985
   4957,   65.9076691,         -18.,   62.9140511
   4958,   70.1295166,         -18.,   58.5372238
   4959,   71.6628952,         -18.,   55.9043694
   4960,   72.6548843,         -18.,   53.0249367
   4961,   68.1757355,         -18.,   39.1232681
   4962,   60.7356377,         -18.,   33.8693237
   4963,   55.0464287,         -18.,   31.6832371
   4964,   52.0880966,         -18.,    30.939785
   4965,   46.0486526,         -18.,   30.1035385
   4966,    39.951252,         -18.,   30.1035442
   4967,    33.911808,         -18.,    30.939806
   4968,    30.953476,         -18.,   31.6832657
   4969,   25.2642746,         -18.,   33.8693657
   4970,   17.8242264,         -18.,   39.1233101
   4971,   17.8242664,         -18.,   60.8767319
   4972,   25.2643623,         -18.,   66.1306763
   4973,   30.9535713,         -18.,   68.3167648
   4974,   33.9119034,         -18.,   69.0602112
   4975,   39.9513474,         -18.,   69.8964615
   4976,    46.048748,         -18.,   69.8964539
   4977,    52.088192,         -18.,   69.0601959
   4978,    55.046524,         -18.,   68.3167343
   4979,   60.7357254,         -18.,   66.1306305
   4980,   68.1757736,         -18.,   60.8766899
   4981,   69.5258942,         -18.,   54.9326172
   4982,   64.1362152,         -18.,   39.5261269
   4983,    57.247551,         -18.,   64.6263275
   4984,   54.0768356,         -18.,   34.4577789
   4985,   43.6298828,         -18.,   67.1327744
   4986,   42.7476616,         -18.,     32.92099
   4987,   37.8993492,         -18.,    66.756813
   4988,    37.015358,         -18.,   33.2688141
   4989,   34.1916924,         -18.,   33.7330208
   4990,   28.7034397,         -18.,    35.439743
   4991,   23.5378151,         -18.,   38.3724174
   4992,   18.3707294,         -18.,   42.2230301
   4993,   17.5704823,         -18.,   44.7255058
   4994,   18.5653095,         -18.,    57.082756
   4995,   22.2543087,         -18.,   60.9667015
   4996,    24.538969,         -18.,   62.4953651
   4997,   48.4760628,         -18.,   33.2820206
   4998,   56.7746696,         -18.,   35.3850746
   4999,   61.8235703,         -18.,   37.9440575
   5000,   62.3097076,         -18.,   62.2839966
   5001,   68.0834503,         -18.,   43.0681152
   5002,   68.2229538,         -18.,   57.0601044
   5003,   66.2435303,         -18.,   41.2466316
   5004,   59.3624077,         -18.,   36.5506859
   5005,   49.2157326,         -18.,   66.8326569
   5006,   51.3129425,         -18.,     33.76194
   5007,   45.6300278,         -18.,   33.0115128
   5008,   39.8908348,         -18.,   33.0049286
   5009,   29.6094284,         -18.,     64.79953
   5010,   31.4259739,         -18.,   34.4241028
   5011,    26.122242,         -18.,   36.8125534
   5012,   18.9883251,         -18.,   40.2219696
   5013,   20.2135029,         -18.,   59.1246033
   5014,   26.9988728,         -18.,   63.7630272
   5015,   32.2842102,         -18.,   65.6375961
   5016,   35.0398788,         -18.,   66.2907639
   5017,   40.7461624,         -18.,   67.0406723
   5018,   46.4250488,         -18.,   67.0781174
   5019,   51.9684601,         -18.,   66.3809967
   5020,   54.6127319,         -18.,   65.6337662
   5021,    59.809845,         -18.,   63.5355911
   5022,   66.5377045,         -18.,   58.9728966
   5023,   70.2496796,         -18.,   50.0116234
   5024,   70.0942841,         -18.,   52.5188904
   5025,   70.1056366,         -18.,   47.5148582
   5026,   64.8537827,         -18.,   57.0130463
   5027,    62.498333,         -18.,   41.9572182
   5028,   44.1684036,         -18.,   64.3484955
   5029,   42.5416718,         -18.,    35.802124
   5030,   37.1260719,         -18.,   35.9899559
   5031,    31.912077,         -18.,     36.91362
   5032,   21.2092037,         -18.,   42.1310959
   5033,   17.1820335,         -18.,   54.9506035
   5034,   26.2218571,         -18.,   60.4008675
   5035,   53.2028542,         -18.,   37.0906258
   5036,   58.8643417,         -18.,   60.9530945
   5037,   46.7970314,         -18.,     64.29142
   5038,   27.2437439,         -18.,   39.2777252
   5039,   21.2205143,         -18.,   55.3573036
   5040,   22.3584595,         -18.,   57.6029472
   5041,   56.3867455,         -18.,   62.0087929
   5042,   55.6932716,         -18.,   37.9509315
   5043,   47.9744492,         -18.,   36.0638542
   5044,   38.7373009,         -18.,   64.0381927
   5045,   39.8389473,         -18.,   35.8393555
   5046,   24.1088371,         -18.,   59.1722679
   5047,   21.0357323,         -18.,   39.4640694
   5048,   16.8759727,         -18.,   47.3389816
   5049,   16.5025902,         -18.,   49.9550247
   5050,   16.5540085,         -18.,   52.4923401
   5051,   29.4750519,         -18.,   37.7222748
   5052,   28.5420494,         -18.,   61.4215622
   5053,   34.4689331,         -18.,   36.3734932
   5054,   50.6344414,         -18.,    36.464119
   5055,   60.3350182,         -18.,   40.4187241
   5056,   64.5367813,         -18.,   60.7558823
   5057,   66.3790894,         -18.,   44.8715477
   5058,   69.4853439,         -18.,   45.1248016
   5059,   64.5266571,         -18.,   43.5012894
   5060,   58.0614624,         -18.,   39.0544739
   5061,   49.3019943,         -18.,    64.213356
   5062,   45.2883339,         -18.,    35.864769
   5063,   30.9813995,         -18.,    62.256134
   5064,     33.47929,         -18.,   62.9758644
   5065,    36.038311,         -18.,   63.5869789
   5066,   41.4302063,         -18.,   64.2943802
   5067,   51.7340622,         -18.,   63.9519806
   5068,   53.9813423,         -18.,   63.1387787
   5069,   67.4889603,         -18.,   52.2971764
   5070,   19.6211452,         -18.,   50.0282173
   5071,   19.3978615,         -18.,   52.2965508
   5072,   67.6650848,         -18.,   47.6967201
   5073,   60.9839745,         -18.,   44.2896843
   5074,   24.0277767,         -18.,   55.1374474
   5075,   58.9454041,         -18.,    42.665493
   5076,   55.2454071,         -18.,   59.4879303
   5077,   25.4997253,         -18.,   57.4686279
   5078,   29.1467876,         -18.,   41.0394859
   5079,   52.9031525,         -18.,   60.8179131
   5080,   56.8489685,         -18.,   41.3301086
   5081,   30.2728672,         -18.,   39.3844986
   5082,   27.4855042,         -18.,   58.3419189
   5083,   51.4066048,         -18.,   62.0900307
   5084,    54.728775,         -18.,   40.3304138
   5085,   32.2373238,         -18.,   39.3974113
   5086,   29.7679958,         -18.,   59.0754433
   5087,   52.4782677,         -18.,   39.5564651
   5088,   34.6958961,         -18.,   38.9447403
   5089,   32.1559029,         -18.,   59.6202164
   5090,   50.1060257,         -18.,   39.0519714
   5091,   47.1876717,         -18.,   61.5444717
   5092,   37.2120209,         -18.,   38.5316429
   5093,   34.5429001,         -18.,    60.289463
   5094,   47.6472511,         -18.,   38.7850266
   5095,   44.5611191,         -18.,   61.6778717
   5096,   39.7127686,         -18.,    38.682579
   5097,   36.9459648,         -18.,   60.9521217
   5098,   41.9678764,         -18.,   61.6954041
   5099,   39.4086037,         -18.,   61.4758453
   5100,   45.0767441,         -18.,   38.6921501
   5101,   42.3863678,         -18.,   38.7110748
   5102,   24.5961475,         -18.,   41.6742134
   5103,   61.1985397,         -18.,   60.0969582
   5104,   55.7916832,         -18.,   43.2951927
   5105,   28.2541256,         -18.,   56.3502159
   5106,   53.7157021,         -18.,   57.3310623
   5107,   32.0273056,         -18.,   42.2763557
   5108,   50.7341576,         -18.,   58.8133278
   5109,   30.4262714,         -18.,   56.8440933
   5110,   35.0720825,         -18.,   41.4131165
   5111,   53.9158134,         -18.,   42.5683403
   5112,   47.4382057,         -18.,   58.9273453
   5113,    33.041214,         -18.,   56.5920982
   5114,   37.1724319,         -18.,   40.5728149
   5115,   51.9499168,         -18.,   41.8477364
   5116,   44.7308502,         -18.,   59.1676445
   5117,   49.8235016,         -18.,   41.5736275
   5118,   39.1664963,         -18.,   41.8740578
   5119,   35.5614777,         -18.,   57.6811714
   5120,   47.5694695,         -18.,   41.4928131
   5121,   42.3445816,         -18.,   41.5935326
   5122,   42.2771988,         -18.,   59.3158264
   5123,    37.841011,         -18.,   58.4649544
   5124,   45.0886765,         -18.,   41.4849129
   5125,    39.977314,         -18.,   59.1784744
   5126,   23.7237911,         -18.,   45.1377563
   5127,   60.3494949,         -18.,    58.391674
   5128,   27.5836697,         -18.,   43.2286186
   5129,   58.0233688,         -18.,   58.0963898
   5130,   49.8513222,         -18.,   55.8540993
   5131,   34.7892799,         -18.,   54.2829018
   5132,    49.993782,         -18.,   44.1633835
   5133,   36.2482224,         -18.,   43.5749626
   5134,   45.3517799,         -18.,   44.1680717
   5135,   36.6720543,         -18.,   55.4577103
   5136,   47.1110077,         -18.,    56.359623
   5137,   40.1075058,         -18.,   44.8102722
   5138,   58.4257469,         -18.,   54.3369675
   5139,   26.7808304,         -18.,   45.8613548
   5140,   23.0394611,         -18.,   47.8604279
   5141,   64.4875183,         -18.,   52.8398628
   5142,   33.4576302,         -18.,   44.9283676
   5143,   52.4557915,         -18.,   55.0684624
   5144,   25.9708405,         -18.,   48.4167252
   5145,   60.9274178,         -18.,   52.2579842
   5146,   20.6935787,         -18.,   44.9070168
   5147,   66.3371735,         -18.,   55.3498993
   5148,   29.9897976,         -18.,   44.1250916
   5149,   56.2097092,         -18.,   56.0212822
   5150,   54.8099709,         -18.,   54.1287117
   5151,    30.386734,         -18.,   46.6688614
   5152,   28.8450851,         -18.,   49.3535805
   5153,   58.4308434,         -18.,   51.3706551
   5154,   22.4648399,         -18.,   50.3223991
   5155,   64.5959473,         -18.,   49.7221413
   5156,   48.9066582,         -18.,   53.0817604
   5157,   35.0271912,         -18.,   47.2168045
   5158,    31.202486,         -18.,   50.8439484
   5159,   56.7858009,         -18.,   49.6878548
   5160,   25.1677208,         -18.,   50.8225861
   5161,   61.4010887,         -18.,    48.773243
   5162,   32.8042946,         -18.,    48.889328
   5163,   51.4336548,         -18.,   52.6240883
   5164,   21.9304905,         -18.,    52.695118
   5165,   63.0517082,         -18.,    45.960041
   5166,   56.0477753,         -18.,   48.2975578
   5167,   33.1564941,         -18.,   52.6107674
   5168,   27.7163906,         -18.,   51.6110153
   5169,   58.6115761,         -18.,   49.3105621
   5170,   24.4622059,         -18.,   53.0792313
   5171,   59.4362602,         -18.,   46.2192917
   5172,   65.3006668,         -18.,   47.1064529
   5173,   57.6360054,         -18.,   47.4296989
   5174,   29.8849373,         -18.,   52.7154541
   5175,   50.8095245,         -18.,   49.9740906
   5176,   34.6963539,         -18.,   50.8540764
   5177,   51.0032387,         -18.,   46.9707947
   5178,   36.1784554,         -18.,   52.5564919
   5179,   47.8898163,         -18.,   49.9758072
   5180,   37.9168777,         -18.,   51.4255524
   5181,   55.0948296,         -18.,   44.7945709
   5182,   31.6848087,         -18.,    54.268959
   5183,   26.8513165,         -18.,   53.6842232
   5184,   57.6553421,         -18.,   44.5082436
   5185,   37.5210381,         -18.,    45.877533
   5186,   46.3911476,         -18.,   53.7689514
   5187,   48.1575966,         -18.,   46.9196663
   5188,   38.8502235,         -18.,   53.4980621
   5189,   45.3785858,         -18.,   51.3352089
   5190,   38.7592201,         -18.,   48.2539177
   5191,   43.3265953,         -18.,   46.8430176
   5192,   41.6282921,         -18.,   55.0105972
   5193,   40.8853722,         -18.,   52.8403435
   5194,    45.820961,         -18.,   48.5600624
   5195,   42.7586555,         -18.,   44.3197327
   5196,   40.4475403,         -18.,   57.3989334
   5197,   42.0494194,         -18.,   49.8383408
   5198,   41.0448494,         -18.,   47.4100266
   5199,   43.9574509,         -18.,   54.4072533
   5200,   43.0807877,         -18.,   52.1303596
   5201,   20.0720787,         -18.,   47.5422592
   5202,   19.2821617,         -18.,   54.1353416
   5203,   63.1057014,         -18.,   58.7198639
   5204,   67.7481003,         -18.,   54.1932373
   5205,   67.4813766,         -18.,   49.9650421
   5206,   67.8375702,         -18.,   45.8922653
   5207,   63.1173668,         -18.,   55.2274666
   5208,   23.9585705,         -18.,   56.6781311
   5209,   26.2027836,         -18.,    55.633934
   5210,    61.336956,         -18.,   54.3754768
   5211,   59.7883606,         -18.,   55.8339844
   5212,   61.5589256,         -18.,   57.0404892
   5213,   28.8441944,         -18.,   54.4625244
   5214,   49.6240807,         -18.,   61.6276169
   5215,   56.8710403,         -18.,    52.958065
   5216,   36.5890999,         -18.,   49.4011002
   5217,   56.2623062,         -18.,   45.9445992
   5218,   53.2131271,         -18.,   45.0796776
   5219,   47.8109932,         -18.,   44.2313423
   5220,   51.6513214,         -18.,   43.7319603
   5221,   57.0088844,         -18.,   50.8470345
   5222,   55.7205391,         -18.,   51.5851631
   5223,    53.750309,         -18.,   52.1757774
   5224,    39.909584,         -18.,   50.5724983
   5225,   30.3593502,         -18.,   55.1999626
   5226,    54.703598,         -18.,    46.931881
   5227,     55.14991,         -18.,   50.1318436
   5228,   53.2119675,         -18.,   50.1473732
   5229,   44.5306778,         -18.,   56.7579956
   5230,   45.7276077,         -18.,   46.6239967
   5231,   39.0665016,         -18.,   55.9654274
   5232,   42.2286873,         -18.,   57.0860214
   5233,   44.1511383,         -18.,   49.2068748
   5234,   37.2552261,         -18.,   53.8390388
   5235,   54.9376907,         -18.,   48.9445496
   5236,   53.4485512,         -18.,   48.2442551
   5237,   72.6548691,         -21.,   46.9750137
   5238,   71.6628723,         -21.,   44.0955849
   5239,   70.1294861,         -21.,   41.4627342
   5240,   65.9075928,         -21.,   37.0858841
   5241,   63.4072647,         -21.,   35.3402519
   5242,   57.9375267,         -21.,   32.6555138
   5243,   49.0830994,         -21.,    30.415472
   5244,   42.9999504,         -21.,          30.
   5245,   36.9168015,         -21.,   30.4154854
   5246,   28.0623798,         -21.,   32.6555481
   5247,   22.5926533,         -21.,   35.3403015
   5248,   20.0923309,         -21.,   37.0859489
   5249,   15.8704844,         -21.,   41.4627762
   5250,   14.3371067,         -21.,   44.0956306
   5251,   13.3451195,         -21.,   46.9750633
   5252,          73.,         -21.,          50.
   5253,          13.,         -21.,          50.
   5254,     13.34513,         -21.,   53.0249863
   5255,   14.3371286,         -21.,   55.9044151
   5256,   15.8705158,         -21.,   58.5372658
   5257,   20.0924091,         -21.,   62.9141159
   5258,   22.5927353,         -21.,   64.6597519
   5259,   28.0624714,         -21.,   67.3444901
   5260,   36.9169006,         -21.,   69.5845261
   5261,   43.0000496,         -21.,          70.
   5262,   49.0831985,         -21.,   69.5845108
   5263,   57.9376221,         -21.,   67.3444519
   5264,   63.4073448,         -21.,   64.6596985
   5265,   65.9076691,         -21.,   62.9140511
   5266,   70.1295166,         -21.,   58.5372238
   5267,   71.6628952,         -21.,   55.9043694
   5268,   72.6548843,         -21.,   53.0249367
   5269,   68.1757355,         -21.,   39.1232681
   5270,   60.7356377,         -21.,   33.8693237
   5271,   55.0464287,         -21.,   31.6832371
   5272,   52.0880966,         -21.,    30.939785
   5273,   46.0486526,         -21.,   30.1035385
   5274,    39.951252,         -21.,   30.1035442
   5275,    33.911808,         -21.,    30.939806
   5276,    30.953476,         -21.,   31.6832657
   5277,   25.2642746,         -21.,   33.8693657
   5278,   17.8242264,         -21.,   39.1233101
   5279,   17.8242664,         -21.,   60.8767319
   5280,   25.2643623,         -21.,   66.1306763
   5281,   30.9535713,         -21.,   68.3167648
   5282,   33.9119034,         -21.,   69.0602112
   5283,   39.9513474,         -21.,   69.8964615
   5284,    46.048748,         -21.,   69.8964539
   5285,    52.088192,         -21.,   69.0601959
   5286,    55.046524,         -21.,   68.3167343
   5287,   60.7357254,         -21.,   66.1306305
   5288,   68.1757736,         -21.,   60.8766899
   5289,   69.5258942,         -21.,   54.9326172
   5290,   64.1362152,         -21.,   39.5261269
   5291,    57.247551,         -21.,   64.6263275
   5292,   54.0768356,         -21.,   34.4577789
   5293,   43.6298828,         -21.,   67.1327744
   5294,   42.7476616,         -21.,     32.92099
   5295,   37.8993492,         -21.,    66.756813
   5296,    37.015358,         -21.,   33.2688141
   5297,   34.1916924,         -21.,   33.7330208
   5298,   28.7034397,         -21.,    35.439743
   5299,   23.5378151,         -21.,   38.3724174
   5300,   18.3707294,         -21.,   42.2230301
   5301,   17.5704823,         -21.,   44.7255058
   5302,   18.5653095,         -21.,    57.082756
   5303,   22.2543087,         -21.,   60.9667015
   5304,    24.538969,         -21.,   62.4953651
   5305,   48.4760628,         -21.,   33.2820206
   5306,   56.7746696,         -21.,   35.3850746
   5307,   61.8235703,         -21.,   37.9440575
   5308,   62.3097076,         -21.,   62.2839966
   5309,   68.0834503,         -21.,   43.0681152
   5310,   68.2229538,         -21.,   57.0601044
   5311,   66.2435303,         -21.,   41.2466316
   5312,   59.3624077,         -21.,   36.5506859
   5313,   49.2157326,         -21.,   66.8326569
   5314,   51.3129425,         -21.,     33.76194
   5315,   45.6300278,         -21.,   33.0115128
   5316,   39.8908348,         -21.,   33.0049286
   5317,   29.6094284,         -21.,     64.79953
   5318,   31.4259739,         -21.,   34.4241028
   5319,    26.122242,         -21.,   36.8125534
   5320,   18.9883251,         -21.,   40.2219696
   5321,   20.2135029,         -21.,   59.1246033
   5322,   26.9988728,         -21.,   63.7630272
   5323,   32.2842102,         -21.,   65.6375961
   5324,   35.0398788,         -21.,   66.2907639
   5325,   40.7461624,         -21.,   67.0406723
   5326,   46.4250488,         -21.,   67.0781174
   5327,   51.9684601,         -21.,   66.3809967
   5328,   54.6127319,         -21.,   65.6337662
   5329,    59.809845,         -21.,   63.5355911
   5330,   66.5377045,         -21.,   58.9728966
   5331,   70.2496796,         -21.,   50.0116234
   5332,   70.0942841,         -21.,   52.5188904
   5333,   70.1056366,         -21.,   47.5148582
   5334,   64.8537827,         -21.,   57.0130463
   5335,    62.498333,         -21.,   41.9572182
   5336,   44.1684036,         -21.,   64.3484955
   5337,   42.5416718,         -21.,    35.802124
   5338,   37.1260719,         -21.,   35.9899559
   5339,    31.912077,         -21.,     36.91362
   5340,   21.2092037,         -21.,   42.1310959
   5341,   17.1820335,         -21.,   54.9506035
   5342,   26.2218571,         -21.,   60.4008675
   5343,   53.2028542,         -21.,   37.0906258
   5344,   58.8643417,         -21.,   60.9530945
   5345,   46.7970314,         -21.,     64.29142
   5346,   27.2437439,         -21.,   39.2777252
   5347,   21.2205143,         -21.,   55.3573036
   5348,   22.3584595,         -21.,   57.6029472
   5349,   56.3867455,         -21.,   62.0087929
   5350,   55.6932716,         -21.,   37.9509315
   5351,   47.9744492,         -21.,   36.0638542
   5352,   38.7373009,         -21.,   64.0381927
   5353,   39.8389473,         -21.,   35.8393555
   5354,   24.1088371,         -21.,   59.1722679
   5355,   21.0357323,         -21.,   39.4640694
   5356,   16.8759727,         -21.,   47.3389816
   5357,   16.5025902,         -21.,   49.9550247
   5358,   16.5540085,         -21.,   52.4923401
   5359,   29.4750519,         -21.,   37.7222748
   5360,   28.5420494,         -21.,   61.4215622
   5361,   34.4689331,         -21.,   36.3734932
   5362,   50.6344414,         -21.,    36.464119
   5363,   60.3350182,         -21.,   40.4187241
   5364,   64.5367813,         -21.,   60.7558823
   5365,   66.3790894,         -21.,   44.8715477
   5366,   69.4853439,         -21.,   45.1248016
   5367,   64.5266571,         -21.,   43.5012894
   5368,   58.0614624,         -21.,   39.0544739
   5369,   49.3019943,         -21.,    64.213356
   5370,   45.2883339,         -21.,    35.864769
   5371,   30.9813995,         -21.,    62.256134
   5372,     33.47929,         -21.,   62.9758644
   5373,    36.038311,         -21.,   63.5869789
   5374,   41.4302063,         -21.,   64.2943802
   5375,   51.7340622,         -21.,   63.9519806
   5376,   53.9813423,         -21.,   63.1387787
   5377,   67.4889603,         -21.,   52.2971764
   5378,   19.6211452,         -21.,   50.0282173
   5379,   19.3978615,         -21.,   52.2965508
   5380,   67.6650848,         -21.,   47.6967201
   5381,   60.9839745,         -21.,   44.2896843
   5382,   24.0277767,         -21.,   55.1374474
   5383,   58.9454041,         -21.,    42.665493
   5384,   55.2454071,         -21.,   59.4879303
   5385,   25.4997253,         -21.,   57.4686279
   5386,   29.1467876,         -21.,   41.0394859
   5387,   52.9031525,         -21.,   60.8179131
   5388,   56.8489685,         -21.,   41.3301086
   5389,   30.2728672,         -21.,   39.3844986
   5390,   27.4855042,         -21.,   58.3419189
   5391,   51.4066048,         -21.,   62.0900307
   5392,    54.728775,         -21.,   40.3304138
   5393,   32.2373238,         -21.,   39.3974113
   5394,   29.7679958,         -21.,   59.0754433
   5395,   52.4782677,         -21.,   39.5564651
   5396,   34.6958961,         -21.,   38.9447403
   5397,   32.1559029,         -21.,   59.6202164
   5398,   50.1060257,         -21.,   39.0519714
   5399,   47.1876717,         -21.,   61.5444717
   5400,   37.2120209,         -21.,   38.5316429
   5401,   34.5429001,         -21.,    60.289463
   5402,   47.6472511,         -21.,   38.7850266
   5403,   44.5611191,         -21.,   61.6778717
   5404,   39.7127686,         -21.,    38.682579
   5405,   36.9459648,         -21.,   60.9521217
   5406,   41.9678764,         -21.,   61.6954041
   5407,   39.4086037,         -21.,   61.4758453
   5408,   45.0767441,         -21.,   38.6921501
   5409,   42.3863678,         -21.,   38.7110748
   5410,   24.5961475,         -21.,   41.6742134
   5411,   61.1985397,         -21.,   60.0969582
   5412,   55.7916832,         -21.,   43.2951927
   5413,   28.2541256,         -21.,   56.3502159
   5414,   53.7157021,         -21.,   57.3310623
   5415,   32.0273056,         -21.,   42.2763557
   5416,   50.7341576,         -21.,   58.8133278
   5417,   30.4262714,         -21.,   56.8440933
   5418,   35.0720825,         -21.,   41.4131165
   5419,   53.9158134,         -21.,   42.5683403
   5420,   47.4382057,         -21.,   58.9273453
   5421,    33.041214,         -21.,   56.5920982
   5422,   37.1724319,         -21.,   40.5728149
   5423,   51.9499168,         -21.,   41.8477364
   5424,   44.7308502,         -21.,   59.1676445
   5425,   49.8235016,         -21.,   41.5736275
   5426,   39.1664963,         -21.,   41.8740578
   5427,   35.5614777,         -21.,   57.6811714
   5428,   47.5694695,         -21.,   41.4928131
   5429,   42.3445816,         -21.,   41.5935326
   5430,   42.2771988,         -21.,   59.3158264
   5431,    37.841011,         -21.,   58.4649544
   5432,   45.0886765,         -21.,   41.4849129
   5433,    39.977314,         -21.,   59.1784744
   5434,   23.7237911,         -21.,   45.1377563
   5435,   60.3494949,         -21.,    58.391674
   5436,   27.5836697,         -21.,   43.2286186
   5437,   58.0233688,         -21.,   58.0963898
   5438,   49.8513222,         -21.,   55.8540993
   5439,   34.7892799,         -21.,   54.2829018
   5440,    49.993782,         -21.,   44.1633835
   5441,   36.2482224,         -21.,   43.5749626
   5442,   45.3517799,         -21.,   44.1680717
   5443,   36.6720543,         -21.,   55.4577103
   5444,   47.1110077,         -21.,    56.359623
   5445,   40.1075058,         -21.,   44.8102722
   5446,   58.4257469,         -21.,   54.3369675
   5447,   26.7808304,         -21.,   45.8613548
   5448,   23.0394611,         -21.,   47.8604279
   5449,   64.4875183,         -21.,   52.8398628
   5450,   33.4576302,         -21.,   44.9283676
   5451,   52.4557915,         -21.,   55.0684624
   5452,   25.9708405,         -21.,   48.4167252
   5453,   60.9274178,         -21.,   52.2579842
   5454,   20.6935787,         -21.,   44.9070168
   5455,   66.3371735,         -21.,   55.3498993
   5456,   29.9897976,         -21.,   44.1250916
   5457,   56.2097092,         -21.,   56.0212822
   5458,   54.8099709,         -21.,   54.1287117
   5459,    30.386734,         -21.,   46.6688614
   5460,   28.8450851,         -21.,   49.3535805
   5461,   58.4308434,         -21.,   51.3706551
   5462,   22.4648399,         -21.,   50.3223991
   5463,   64.5959473,         -21.,   49.7221413
   5464,   48.9066582,         -21.,   53.0817604
   5465,   35.0271912,         -21.,   47.2168045
   5466,    31.202486,         -21.,   50.8439484
   5467,   56.7858009,         -21.,   49.6878548
   5468,   25.1677208,         -21.,   50.8225861
   5469,   61.4010887,         -21.,    48.773243
   5470,   32.8042946,         -21.,    48.889328
   5471,   51.4336548,         -21.,   52.6240883
   5472,   21.9304905,         -21.,    52.695118
   5473,   63.0517082,         -21.,    45.960041
   5474,   56.0477753,         -21.,   48.2975578
   5475,   33.1564941,         -21.,   52.6107674
   5476,   27.7163906,         -21.,   51.6110153
   5477,   58.6115761,         -21.,   49.3105621
   5478,   24.4622059,         -21.,   53.0792313
   5479,   59.4362602,         -21.,   46.2192917
   5480,   65.3006668,         -21.,   47.1064529
   5481,   57.6360054,         -21.,   47.4296989
   5482,   29.8849373,         -21.,   52.7154541
   5483,   50.8095245,         -21.,   49.9740906
   5484,   34.6963539,         -21.,   50.8540764
   5485,   51.0032387,         -21.,   46.9707947
   5486,   36.1784554,         -21.,   52.5564919
   5487,   47.8898163,         -21.,   49.9758072
   5488,   37.9168777,         -21.,   51.4255524
   5489,   55.0948296,         -21.,   44.7945709
   5490,   31.6848087,         -21.,    54.268959
   5491,   26.8513165,         -21.,   53.6842232
   5492,   57.6553421,         -21.,   44.5082436
   5493,   37.5210381,         -21.,    45.877533
   5494,   46.3911476,         -21.,   53.7689514
   5495,   48.1575966,         -21.,   46.9196663
   5496,   38.8502235,         -21.,   53.4980621
   5497,   45.3785858,         -21.,   51.3352089
   5498,   38.7592201,         -21.,   48.2539177
   5499,   43.3265953,         -21.,   46.8430176
   5500,   41.6282921,         -21.,   55.0105972
   5501,   40.8853722,         -21.,   52.8403435
   5502,    45.820961,         -21.,   48.5600624
   5503,   42.7586555,         -21.,   44.3197327
   5504,   40.4475403,         -21.,   57.3989334
   5505,   42.0494194,         -21.,   49.8383408
   5506,   41.0448494,         -21.,   47.4100266
   5507,   43.9574509,         -21.,   54.4072533
   5508,   43.0807877,         -21.,   52.1303596
   5509,   20.0720787,         -21.,   47.5422592
   5510,   19.2821617,         -21.,   54.1353416
   5511,   63.1057014,         -21.,   58.7198639
   5512,   67.7481003,         -21.,   54.1932373
   5513,   67.4813766,         -21.,   49.9650421
   5514,   67.8375702,         -21.,   45.8922653
   5515,   63.1173668,         -21.,   55.2274666
   5516,   23.9585705,         -21.,   56.6781311
   5517,   26.2027836,         -21.,    55.633934
   5518,    61.336956,         -21.,   54.3754768
   5519,   59.7883606,         -21.,   55.8339844
   5520,   61.5589256,         -21.,   57.0404892
   5521,   28.8441944,         -21.,   54.4625244
   5522,   49.6240807,         -21.,   61.6276169
   5523,   56.8710403,         -21.,    52.958065
   5524,   36.5890999,         -21.,   49.4011002
   5525,   56.2623062,         -21.,   45.9445992
   5526,   53.2131271,         -21.,   45.0796776
   5527,   47.8109932,         -21.,   44.2313423
   5528,   51.6513214,         -21.,   43.7319603
   5529,   57.0088844,         -21.,   50.8470345
   5530,   55.7205391,         -21.,   51.5851631
   5531,    53.750309,         -21.,   52.1757774
   5532,    39.909584,         -21.,   50.5724983
   5533,   30.3593502,         -21.,   55.1999626
   5534,    54.703598,         -21.,    46.931881
   5535,     55.14991,         -21.,   50.1318436
   5536,   53.2119675,         -21.,   50.1473732
   5537,   44.5306778,         -21.,   56.7579956
   5538,   45.7276077,         -21.,   46.6239967
   5539,   39.0665016,         -21.,   55.9654274
   5540,   42.2286873,         -21.,   57.0860214
   5541,   44.1511383,         -21.,   49.2068748
   5542,   37.2552261,         -21.,   53.8390388
   5543,   54.9376907,         -21.,   48.9445496
   5544,   53.4485512,         -21.,   48.2442551
   5545,   72.6548691,         -24.,   46.9750137
   5546,   71.6628723,         -24.,   44.0955849
   5547,   70.1294861,         -24.,   41.4627342
   5548,   65.9075928,         -24.,   37.0858841
   5549,   63.4072647,         -24.,   35.3402519
   5550,   57.9375267,         -24.,   32.6555138
   5551,   49.0830994,         -24.,    30.415472
   5552,   42.9999504,         -24.,          30.
   5553,   36.9168015,         -24.,   30.4154854
   5554,   28.0623798,         -24.,   32.6555481
   5555,   22.5926533,         -24.,   35.3403015
   5556,   20.0923309,         -24.,   37.0859489
   5557,   15.8704844,         -24.,   41.4627762
   5558,   14.3371067,         -24.,   44.0956306
   5559,   13.3451195,         -24.,   46.9750633
   5560,          73.,         -24.,          50.
   5561,          13.,         -24.,          50.
   5562,     13.34513,         -24.,   53.0249863
   5563,   14.3371286,         -24.,   55.9044151
   5564,   15.8705158,         -24.,   58.5372658
   5565,   20.0924091,         -24.,   62.9141159
   5566,   22.5927353,         -24.,   64.6597519
   5567,   28.0624714,         -24.,   67.3444901
   5568,   36.9169006,         -24.,   69.5845261
   5569,   43.0000496,         -24.,          70.
   5570,   49.0831985,         -24.,   69.5845108
   5571,   57.9376221,         -24.,   67.3444519
   5572,   63.4073448,         -24.,   64.6596985
   5573,   65.9076691,         -24.,   62.9140511
   5574,   70.1295166,         -24.,   58.5372238
   5575,   71.6628952,         -24.,   55.9043694
   5576,   72.6548843,         -24.,   53.0249367
   5577,   68.1757355,         -24.,   39.1232681
   5578,   60.7356377,         -24.,   33.8693237
   5579,   55.0464287,         -24.,   31.6832371
   5580,   52.0880966,         -24.,    30.939785
   5581,   46.0486526,         -24.,   30.1035385
   5582,    39.951252,         -24.,   30.1035442
   5583,    33.911808,         -24.,    30.939806
   5584,    30.953476,         -24.,   31.6832657
   5585,   25.2642746,         -24.,   33.8693657
   5586,   17.8242264,         -24.,   39.1233101
   5587,   17.8242664,         -24.,   60.8767319
   5588,   25.2643623,         -24.,   66.1306763
   5589,   30.9535713,         -24.,   68.3167648
   5590,   33.9119034,         -24.,   69.0602112
   5591,   39.9513474,         -24.,   69.8964615
   5592,    46.048748,         -24.,   69.8964539
   5593,    52.088192,         -24.,   69.0601959
   5594,    55.046524,         -24.,   68.3167343
   5595,   60.7357254,         -24.,   66.1306305
   5596,   68.1757736,         -24.,   60.8766899
   5597,   69.5258942,         -24.,   54.9326172
   5598,   64.1362152,         -24.,   39.5261269
   5599,    57.247551,         -24.,   64.6263275
   5600,   54.0768356,         -24.,   34.4577789
   5601,   43.6298828,         -24.,   67.1327744
   5602,   42.7476616,         -24.,     32.92099
   5603,   37.8993492,         -24.,    66.756813
   5604,    37.015358,         -24.,   33.2688141
   5605,   34.1916924,         -24.,   33.7330208
   5606,   28.7034397,         -24.,    35.439743
   5607,   23.5378151,         -24.,   38.3724174
   5608,   18.3707294,         -24.,   42.2230301
   5609,   17.5704823,         -24.,   44.7255058
   5610,   18.5653095,         -24.,    57.082756
   5611,   22.2543087,         -24.,   60.9667015
   5612,    24.538969,         -24.,   62.4953651
   5613,   48.4760628,         -24.,   33.2820206
   5614,   56.7746696,         -24.,   35.3850746
   5615,   61.8235703,         -24.,   37.9440575
   5616,   62.3097076,         -24.,   62.2839966
   5617,   68.0834503,         -24.,   43.0681152
   5618,   68.2229538,         -24.,   57.0601044
   5619,   66.2435303,         -24.,   41.2466316
   5620,   59.3624077,         -24.,   36.5506859
   5621,   49.2157326,         -24.,   66.8326569
   5622,   51.3129425,         -24.,     33.76194
   5623,   45.6300278,         -24.,   33.0115128
   5624,   39.8908348,         -24.,   33.0049286
   5625,   29.6094284,         -24.,     64.79953
   5626,   31.4259739,         -24.,   34.4241028
   5627,    26.122242,         -24.,   36.8125534
   5628,   18.9883251,         -24.,   40.2219696
   5629,   20.2135029,         -24.,   59.1246033
   5630,   26.9988728,         -24.,   63.7630272
   5631,   32.2842102,         -24.,   65.6375961
   5632,   35.0398788,         -24.,   66.2907639
   5633,   40.7461624,         -24.,   67.0406723
   5634,   46.4250488,         -24.,   67.0781174
   5635,   51.9684601,         -24.,   66.3809967
   5636,   54.6127319,         -24.,   65.6337662
   5637,    59.809845,         -24.,   63.5355911
   5638,   66.5377045,         -24.,   58.9728966
   5639,   70.2496796,         -24.,   50.0116234
   5640,   70.0942841,         -24.,   52.5188904
   5641,   70.1056366,         -24.,   47.5148582
   5642,   64.8537827,         -24.,   57.0130463
   5643,    62.498333,         -24.,   41.9572182
   5644,   44.1684036,         -24.,   64.3484955
   5645,   42.5416718,         -24.,    35.802124
   5646,   37.1260719,         -24.,   35.9899559
   5647,    31.912077,         -24.,     36.91362
   5648,   21.2092037,         -24.,   42.1310959
   5649,   17.1820335,         -24.,   54.9506035
   5650,   26.2218571,         -24.,   60.4008675
   5651,   53.2028542,         -24.,   37.0906258
   5652,   58.8643417,         -24.,   60.9530945
   5653,   46.7970314,         -24.,     64.29142
   5654,   27.2437439,         -24.,   39.2777252
   5655,   21.2205143,         -24.,   55.3573036
   5656,   22.3584595,         -24.,   57.6029472
   5657,   56.3867455,         -24.,   62.0087929
   5658,   55.6932716,         -24.,   37.9509315
   5659,   47.9744492,         -24.,   36.0638542
   5660,   38.7373009,         -24.,   64.0381927
   5661,   39.8389473,         -24.,   35.8393555
   5662,   24.1088371,         -24.,   59.1722679
   5663,   21.0357323,         -24.,   39.4640694
   5664,   16.8759727,         -24.,   47.3389816
   5665,   16.5025902,         -24.,   49.9550247
   5666,   16.5540085,         -24.,   52.4923401
   5667,   29.4750519,         -24.,   37.7222748
   5668,   28.5420494,         -24.,   61.4215622
   5669,   34.4689331,         -24.,   36.3734932
   5670,   50.6344414,         -24.,    36.464119
   5671,   60.3350182,         -24.,   40.4187241
   5672,   64.5367813,         -24.,   60.7558823
   5673,   66.3790894,         -24.,   44.8715477
   5674,   69.4853439,         -24.,   45.1248016
   5675,   64.5266571,         -24.,   43.5012894
   5676,   58.0614624,         -24.,   39.0544739
   5677,   49.3019943,         -24.,    64.213356
   5678,   45.2883339,         -24.,    35.864769
   5679,   30.9813995,         -24.,    62.256134
   5680,     33.47929,         -24.,   62.9758644
   5681,    36.038311,         -24.,   63.5869789
   5682,   41.4302063,         -24.,   64.2943802
   5683,   51.7340622,         -24.,   63.9519806
   5684,   53.9813423,         -24.,   63.1387787
   5685,   67.4889603,         -24.,   52.2971764
   5686,   19.6211452,         -24.,   50.0282173
   5687,   19.3978615,         -24.,   52.2965508
   5688,   67.6650848,         -24.,   47.6967201
   5689,   60.9839745,         -24.,   44.2896843
   5690,   24.0277767,         -24.,   55.1374474
   5691,   58.9454041,         -24.,    42.665493
   5692,   55.2454071,         -24.,   59.4879303
   5693,   25.4997253,         -24.,   57.4686279
   5694,   29.1467876,         -24.,   41.0394859
   5695,   52.9031525,         -24.,   60.8179131
   5696,   56.8489685,         -24.,   41.3301086
   5697,   30.2728672,         -24.,   39.3844986
   5698,   27.4855042,         -24.,   58.3419189
   5699,   51.4066048,         -24.,   62.0900307
   5700,    54.728775,         -24.,   40.3304138
   5701,   32.2373238,         -24.,   39.3974113
   5702,   29.7679958,         -24.,   59.0754433
   5703,   52.4782677,         -24.,   39.5564651
   5704,   34.6958961,         -24.,   38.9447403
   5705,   32.1559029,         -24.,   59.6202164
   5706,   50.1060257,         -24.,   39.0519714
   5707,   47.1876717,         -24.,   61.5444717
   5708,   37.2120209,         -24.,   38.5316429
   5709,   34.5429001,         -24.,    60.289463
   5710,   47.6472511,         -24.,   38.7850266
   5711,   44.5611191,         -24.,   61.6778717
   5712,   39.7127686,         -24.,    38.682579
   5713,   36.9459648,         -24.,   60.9521217
   5714,   41.9678764,         -24.,   61.6954041
   5715,   39.4086037,         -24.,   61.4758453
   5716,   45.0767441,         -24.,   38.6921501
   5717,   42.3863678,         -24.,   38.7110748
   5718,   24.5961475,         -24.,   41.6742134
   5719,   61.1985397,         -24.,   60.0969582
   5720,   55.7916832,         -24.,   43.2951927
   5721,   28.2541256,         -24.,   56.3502159
   5722,   53.7157021,         -24.,   57.3310623
   5723,   32.0273056,         -24.,   42.2763557
   5724,   50.7341576,         -24.,   58.8133278
   5725,   30.4262714,         -24.,   56.8440933
   5726,   35.0720825,         -24.,   41.4131165
   5727,   53.9158134,         -24.,   42.5683403
   5728,   47.4382057,         -24.,   58.9273453
   5729,    33.041214,         -24.,   56.5920982
   5730,   37.1724319,         -24.,   40.5728149
   5731,   51.9499168,         -24.,   41.8477364
   5732,   44.7308502,         -24.,   59.1676445
   5733,   49.8235016,         -24.,   41.5736275
   5734,   39.1664963,         -24.,   41.8740578
   5735,   35.5614777,         -24.,   57.6811714
   5736,   47.5694695,         -24.,   41.4928131
   5737,   42.3445816,         -24.,   41.5935326
   5738,   42.2771988,         -24.,   59.3158264
   5739,    37.841011,         -24.,   58.4649544
   5740,   45.0886765,         -24.,   41.4849129
   5741,    39.977314,         -24.,   59.1784744
   5742,   23.7237911,         -24.,   45.1377563
   5743,   60.3494949,         -24.,    58.391674
   5744,   27.5836697,         -24.,   43.2286186
   5745,   58.0233688,         -24.,   58.0963898
   5746,   49.8513222,         -24.,   55.8540993
   5747,   34.7892799,         -24.,   54.2829018
   5748,    49.993782,         -24.,   44.1633835
   5749,   36.2482224,         -24.,   43.5749626
   5750,   45.3517799,         -24.,   44.1680717
   5751,   36.6720543,         -24.,   55.4577103
   5752,   47.1110077,         -24.,    56.359623
   5753,   40.1075058,         -24.,   44.8102722
   5754,   58.4257469,         -24.,   54.3369675
   5755,   26.7808304,         -24.,   45.8613548
   5756,   23.0394611,         -24.,   47.8604279
   5757,   64.4875183,         -24.,   52.8398628
   5758,   33.4576302,         -24.,   44.9283676
   5759,   52.4557915,         -24.,   55.0684624
   5760,   25.9708405,         -24.,   48.4167252
   5761,   60.9274178,         -24.,   52.2579842
   5762,   20.6935787,         -24.,   44.9070168
   5763,   66.3371735,         -24.,   55.3498993
   5764,   29.9897976,         -24.,   44.1250916
   5765,   56.2097092,         -24.,   56.0212822
   5766,   54.8099709,         -24.,   54.1287117
   5767,    30.386734,         -24.,   46.6688614
   5768,   28.8450851,         -24.,   49.3535805
   5769,   58.4308434,         -24.,   51.3706551
   5770,   22.4648399,         -24.,   50.3223991
   5771,   64.5959473,         -24.,   49.7221413
   5772,   48.9066582,         -24.,   53.0817604
   5773,   35.0271912,         -24.,   47.2168045
   5774,    31.202486,         -24.,   50.8439484
   5775,   56.7858009,         -24.,   49.6878548
   5776,   25.1677208,         -24.,   50.8225861
   5777,   61.4010887,         -24.,    48.773243
   5778,   32.8042946,         -24.,    48.889328
   5779,   51.4336548,         -24.,   52.6240883
   5780,   21.9304905,         -24.,    52.695118
   5781,   63.0517082,         -24.,    45.960041
   5782,   56.0477753,         -24.,   48.2975578
   5783,   33.1564941,         -24.,   52.6107674
   5784,   27.7163906,         -24.,   51.6110153
   5785,   58.6115761,         -24.,   49.3105621
   5786,   24.4622059,         -24.,   53.0792313
   5787,   59.4362602,         -24.,   46.2192917
   5788,   65.3006668,         -24.,   47.1064529
   5789,   57.6360054,         -24.,   47.4296989
   5790,   29.8849373,         -24.,   52.7154541
   5791,   50.8095245,         -24.,   49.9740906
   5792,   34.6963539,         -24.,   50.8540764
   5793,   51.0032387,         -24.,   46.9707947
   5794,   36.1784554,         -24.,   52.5564919
   5795,   47.8898163,         -24.,   49.9758072
   5796,   37.9168777,         -24.,   51.4255524
   5797,   55.0948296,         -24.,   44.7945709
   5798,   31.6848087,         -24.,    54.268959
   5799,   26.8513165,         -24.,   53.6842232
   5800,   57.6553421,         -24.,   44.5082436
   5801,   37.5210381,         -24.,    45.877533
   5802,   46.3911476,         -24.,   53.7689514
   5803,   48.1575966,         -24.,   46.9196663
   5804,   38.8502235,         -24.,   53.4980621
   5805,   45.3785858,         -24.,   51.3352089
   5806,   38.7592201,         -24.,   48.2539177
   5807,   43.3265953,         -24.,   46.8430176
   5808,   41.6282921,         -24.,   55.0105972
   5809,   40.8853722,         -24.,   52.8403435
   5810,    45.820961,         -24.,   48.5600624
   5811,   42.7586555,         -24.,   44.3197327
   5812,   40.4475403,         -24.,   57.3989334
   5813,   42.0494194,         -24.,   49.8383408
   5814,   41.0448494,         -24.,   47.4100266
   5815,   43.9574509,         -24.,   54.4072533
   5816,   43.0807877,         -24.,   52.1303596
   5817,   20.0720787,         -24.,   47.5422592
   5818,   19.2821617,         -24.,   54.1353416
   5819,   63.1057014,         -24.,   58.7198639
   5820,   67.7481003,         -24.,   54.1932373
   5821,   67.4813766,         -24.,   49.9650421
   5822,   67.8375702,         -24.,   45.8922653
   5823,   63.1173668,         -24.,   55.2274666
   5824,   23.9585705,         -24.,   56.6781311
   5825,   26.2027836,         -24.,    55.633934
   5826,    61.336956,         -24.,   54.3754768
   5827,   59.7883606,         -24.,   55.8339844
   5828,   61.5589256,         -24.,   57.0404892
   5829,   28.8441944,         -24.,   54.4625244
   5830,   49.6240807,         -24.,   61.6276169
   5831,   56.8710403,         -24.,    52.958065
   5832,   36.5890999,         -24.,   49.4011002
   5833,   56.2623062,         -24.,   45.9445992
   5834,   53.2131271,         -24.,   45.0796776
   5835,   47.8109932,         -24.,   44.2313423
   5836,   51.6513214,         -24.,   43.7319603
   5837,   57.0088844,         -24.,   50.8470345
   5838,   55.7205391,         -24.,   51.5851631
   5839,    53.750309,         -24.,   52.1757774
   5840,    39.909584,         -24.,   50.5724983
   5841,   30.3593502,         -24.,   55.1999626
   5842,    54.703598,         -24.,    46.931881
   5843,     55.14991,         -24.,   50.1318436
   5844,   53.2119675,         -24.,   50.1473732
   5845,   44.5306778,         -24.,   56.7579956
   5846,   45.7276077,         -24.,   46.6239967
   5847,   39.0665016,         -24.,   55.9654274
   5848,   42.2286873,         -24.,   57.0860214
   5849,   44.1511383,         -24.,   49.2068748
   5850,   37.2552261,         -24.,   53.8390388
   5851,   54.9376907,         -24.,   48.9445496
   5852,   53.4485512,         -24.,   48.2442551
   5853,   72.6548691,         -27.,   46.9750137
   5854,   71.6628723,         -27.,   44.0955849
   5855,   70.1294861,         -27.,   41.4627342
   5856,   65.9075928,         -27.,   37.0858841
   5857,   63.4072647,         -27.,   35.3402519
   5858,   57.9375267,         -27.,   32.6555138
   5859,   49.0830994,         -27.,    30.415472
   5860,   42.9999504,         -27.,          30.
   5861,   36.9168015,         -27.,   30.4154854
   5862,   28.0623798,         -27.,   32.6555481
   5863,   22.5926533,         -27.,   35.3403015
   5864,   20.0923309,         -27.,   37.0859489
   5865,   15.8704844,         -27.,   41.4627762
   5866,   14.3371067,         -27.,   44.0956306
   5867,   13.3451195,         -27.,   46.9750633
   5868,          73.,         -27.,          50.
   5869,          13.,         -27.,          50.
   5870,     13.34513,         -27.,   53.0249863
   5871,   14.3371286,         -27.,   55.9044151
   5872,   15.8705158,         -27.,   58.5372658
   5873,   20.0924091,         -27.,   62.9141159
   5874,   22.5927353,         -27.,   64.6597519
   5875,   28.0624714,         -27.,   67.3444901
   5876,   36.9169006,         -27.,   69.5845261
   5877,   43.0000496,         -27.,          70.
   5878,   49.0831985,         -27.,   69.5845108
   5879,   57.9376221,         -27.,   67.3444519
   5880,   63.4073448,         -27.,   64.6596985
   5881,   65.9076691,         -27.,   62.9140511
   5882,   70.1295166,         -27.,   58.5372238
   5883,   71.6628952,         -27.,   55.9043694
   5884,   72.6548843,         -27.,   53.0249367
   5885,   68.1757355,         -27.,   39.1232681
   5886,   60.7356377,         -27.,   33.8693237
   5887,   55.0464287,         -27.,   31.6832371
   5888,   52.0880966,         -27.,    30.939785
   5889,   46.0486526,         -27.,   30.1035385
   5890,    39.951252,         -27.,   30.1035442
   5891,    33.911808,         -27.,    30.939806
   5892,    30.953476,         -27.,   31.6832657
   5893,   25.2642746,         -27.,   33.8693657
   5894,   17.8242264,         -27.,   39.1233101
   5895,   17.8242664,         -27.,   60.8767319
   5896,   25.2643623,         -27.,   66.1306763
   5897,   30.9535713,         -27.,   68.3167648
   5898,   33.9119034,         -27.,   69.0602112
   5899,   39.9513474,         -27.,   69.8964615
   5900,    46.048748,         -27.,   69.8964539
   5901,    52.088192,         -27.,   69.0601959
   5902,    55.046524,         -27.,   68.3167343
   5903,   60.7357254,         -27.,   66.1306305
   5904,   68.1757736,         -27.,   60.8766899
   5905,   69.5258942,         -27.,   54.9326172
   5906,   64.1362152,         -27.,   39.5261269
   5907,    57.247551,         -27.,   64.6263275
   5908,   54.0768356,         -27.,   34.4577789
   5909,   43.6298828,         -27.,   67.1327744
   5910,   42.7476616,         -27.,     32.92099
   5911,   37.8993492,         -27.,    66.756813
   5912,    37.015358,         -27.,   33.2688141
   5913,   34.1916924,         -27.,   33.7330208
   5914,   28.7034397,         -27.,    35.439743
   5915,   23.5378151,         -27.,   38.3724174
   5916,   18.3707294,         -27.,   42.2230301
   5917,   17.5704823,         -27.,   44.7255058
   5918,   18.5653095,         -27.,    57.082756
   5919,   22.2543087,         -27.,   60.9667015
   5920,    24.538969,         -27.,   62.4953651
   5921,   48.4760628,         -27.,   33.2820206
   5922,   56.7746696,         -27.,   35.3850746
   5923,   61.8235703,         -27.,   37.9440575
   5924,   62.3097076,         -27.,   62.2839966
   5925,   68.0834503,         -27.,   43.0681152
   5926,   68.2229538,         -27.,   57.0601044
   5927,   66.2435303,         -27.,   41.2466316
   5928,   59.3624077,         -27.,   36.5506859
   5929,   49.2157326,         -27.,   66.8326569
   5930,   51.3129425,         -27.,     33.76194
   5931,   45.6300278,         -27.,   33.0115128
   5932,   39.8908348,         -27.,   33.0049286
   5933,   29.6094284,         -27.,     64.79953
   5934,   31.4259739,         -27.,   34.4241028
   5935,    26.122242,         -27.,   36.8125534
   5936,   18.9883251,         -27.,   40.2219696
   5937,   20.2135029,         -27.,   59.1246033
   5938,   26.9988728,         -27.,   63.7630272
   5939,   32.2842102,         -27.,   65.6375961
   5940,   35.0398788,         -27.,   66.2907639
   5941,   40.7461624,         -27.,   67.0406723
   5942,   46.4250488,         -27.,   67.0781174
   5943,   51.9684601,         -27.,   66.3809967
   5944,   54.6127319,         -27.,   65.6337662
   5945,    59.809845,         -27.,   63.5355911
   5946,   66.5377045,         -27.,   58.9728966
   5947,   70.2496796,         -27.,   50.0116234
   5948,   70.0942841,         -27.,   52.5188904
   5949,   70.1056366,         -27.,   47.5148582
   5950,   64.8537827,         -27.,   57.0130463
   5951,    62.498333,         -27.,   41.9572182
   5952,   44.1684036,         -27.,   64.3484955
   5953,   42.5416718,         -27.,    35.802124
   5954,   37.1260719,         -27.,   35.9899559
   5955,    31.912077,         -27.,     36.91362
   5956,   21.2092037,         -27.,   42.1310959
   5957,   17.1820335,         -27.,   54.9506035
   5958,   26.2218571,         -27.,   60.4008675
   5959,   53.2028542,         -27.,   37.0906258
   5960,   58.8643417,         -27.,   60.9530945
   5961,   46.7970314,         -27.,     64.29142
   5962,   27.2437439,         -27.,   39.2777252
   5963,   21.2205143,         -27.,   55.3573036
   5964,   22.3584595,         -27.,   57.6029472
   5965,   56.3867455,         -27.,   62.0087929
   5966,   55.6932716,         -27.,   37.9509315
   5967,   47.9744492,         -27.,   36.0638542
   5968,   38.7373009,         -27.,   64.0381927
   5969,   39.8389473,         -27.,   35.8393555
   5970,   24.1088371,         -27.,   59.1722679
   5971,   21.0357323,         -27.,   39.4640694
   5972,   16.8759727,         -27.,   47.3389816
   5973,   16.5025902,         -27.,   49.9550247
   5974,   16.5540085,         -27.,   52.4923401
   5975,   29.4750519,         -27.,   37.7222748
   5976,   28.5420494,         -27.,   61.4215622
   5977,   34.4689331,         -27.,   36.3734932
   5978,   50.6344414,         -27.,    36.464119
   5979,   60.3350182,         -27.,   40.4187241
   5980,   64.5367813,         -27.,   60.7558823
   5981,   66.3790894,         -27.,   44.8715477
   5982,   69.4853439,         -27.,   45.1248016
   5983,   64.5266571,         -27.,   43.5012894
   5984,   58.0614624,         -27.,   39.0544739
   5985,   49.3019943,         -27.,    64.213356
   5986,   45.2883339,         -27.,    35.864769
   5987,   30.9813995,         -27.,    62.256134
   5988,     33.47929,         -27.,   62.9758644
   5989,    36.038311,         -27.,   63.5869789
   5990,   41.4302063,         -27.,   64.2943802
   5991,   51.7340622,         -27.,   63.9519806
   5992,   53.9813423,         -27.,   63.1387787
   5993,   67.4889603,         -27.,   52.2971764
   5994,   19.6211452,         -27.,   50.0282173
   5995,   19.3978615,         -27.,   52.2965508
   5996,   67.6650848,         -27.,   47.6967201
   5997,   60.9839745,         -27.,   44.2896843
   5998,   24.0277767,         -27.,   55.1374474
   5999,   58.9454041,         -27.,    42.665493
   6000,   55.2454071,         -27.,   59.4879303
   6001,   25.4997253,         -27.,   57.4686279
   6002,   29.1467876,         -27.,   41.0394859
   6003,   52.9031525,         -27.,   60.8179131
   6004,   56.8489685,         -27.,   41.3301086
   6005,   30.2728672,         -27.,   39.3844986
   6006,   27.4855042,         -27.,   58.3419189
   6007,   51.4066048,         -27.,   62.0900307
   6008,    54.728775,         -27.,   40.3304138
   6009,   32.2373238,         -27.,   39.3974113
   6010,   29.7679958,         -27.,   59.0754433
   6011,   52.4782677,         -27.,   39.5564651
   6012,   34.6958961,         -27.,   38.9447403
   6013,   32.1559029,         -27.,   59.6202164
   6014,   50.1060257,         -27.,   39.0519714
   6015,   47.1876717,         -27.,   61.5444717
   6016,   37.2120209,         -27.,   38.5316429
   6017,   34.5429001,         -27.,    60.289463
   6018,   47.6472511,         -27.,   38.7850266
   6019,   44.5611191,         -27.,   61.6778717
   6020,   39.7127686,         -27.,    38.682579
   6021,   36.9459648,         -27.,   60.9521217
   6022,   41.9678764,         -27.,   61.6954041
   6023,   39.4086037,         -27.,   61.4758453
   6024,   45.0767441,         -27.,   38.6921501
   6025,   42.3863678,         -27.,   38.7110748
   6026,   24.5961475,         -27.,   41.6742134
   6027,   61.1985397,         -27.,   60.0969582
   6028,   55.7916832,         -27.,   43.2951927
   6029,   28.2541256,         -27.,   56.3502159
   6030,   53.7157021,         -27.,   57.3310623
   6031,   32.0273056,         -27.,   42.2763557
   6032,   50.7341576,         -27.,   58.8133278
   6033,   30.4262714,         -27.,   56.8440933
   6034,   35.0720825,         -27.,   41.4131165
   6035,   53.9158134,         -27.,   42.5683403
   6036,   47.4382057,         -27.,   58.9273453
   6037,    33.041214,         -27.,   56.5920982
   6038,   37.1724319,         -27.,   40.5728149
   6039,   51.9499168,         -27.,   41.8477364
   6040,   44.7308502,         -27.,   59.1676445
   6041,   49.8235016,         -27.,   41.5736275
   6042,   39.1664963,         -27.,   41.8740578
   6043,   35.5614777,         -27.,   57.6811714
   6044,   47.5694695,         -27.,   41.4928131
   6045,   42.3445816,         -27.,   41.5935326
   6046,   42.2771988,         -27.,   59.3158264
   6047,    37.841011,         -27.,   58.4649544
   6048,   45.0886765,         -27.,   41.4849129
   6049,    39.977314,         -27.,   59.1784744
   6050,   23.7237911,         -27.,   45.1377563
   6051,   60.3494949,         -27.,    58.391674
   6052,   27.5836697,         -27.,   43.2286186
   6053,   58.0233688,         -27.,   58.0963898
   6054,   49.8513222,         -27.,   55.8540993
   6055,   34.7892799,         -27.,   54.2829018
   6056,    49.993782,         -27.,   44.1633835
   6057,   36.2482224,         -27.,   43.5749626
   6058,   45.3517799,         -27.,   44.1680717
   6059,   36.6720543,         -27.,   55.4577103
   6060,   47.1110077,         -27.,    56.359623
   6061,   40.1075058,         -27.,   44.8102722
   6062,   58.4257469,         -27.,   54.3369675
   6063,   26.7808304,         -27.,   45.8613548
   6064,   23.0394611,         -27.,   47.8604279
   6065,   64.4875183,         -27.,   52.8398628
   6066,   33.4576302,         -27.,   44.9283676
   6067,   52.4557915,         -27.,   55.0684624
   6068,   25.9708405,         -27.,   48.4167252
   6069,   60.9274178,         -27.,   52.2579842
   6070,   20.6935787,         -27.,   44.9070168
   6071,   66.3371735,         -27.,   55.3498993
   6072,   29.9897976,         -27.,   44.1250916
   6073,   56.2097092,         -27.,   56.0212822
   6074,   54.8099709,         -27.,   54.1287117
   6075,    30.386734,         -27.,   46.6688614
   6076,   28.8450851,         -27.,   49.3535805
   6077,   58.4308434,         -27.,   51.3706551
   6078,   22.4648399,         -27.,   50.3223991
   6079,   64.5959473,         -27.,   49.7221413
   6080,   48.9066582,         -27.,   53.0817604
   6081,   35.0271912,         -27.,   47.2168045
   6082,    31.202486,         -27.,   50.8439484
   6083,   56.7858009,         -27.,   49.6878548
   6084,   25.1677208,         -27.,   50.8225861
   6085,   61.4010887,         -27.,    48.773243
   6086,   32.8042946,         -27.,    48.889328
   6087,   51.4336548,         -27.,   52.6240883
   6088,   21.9304905,         -27.,    52.695118
   6089,   63.0517082,         -27.,    45.960041
   6090,   56.0477753,         -27.,   48.2975578
   6091,   33.1564941,         -27.,   52.6107674
   6092,   27.7163906,         -27.,   51.6110153
   6093,   58.6115761,         -27.,   49.3105621
   6094,   24.4622059,         -27.,   53.0792313
   6095,   59.4362602,         -27.,   46.2192917
   6096,   65.3006668,         -27.,   47.1064529
   6097,   57.6360054,         -27.,   47.4296989
   6098,   29.8849373,         -27.,   52.7154541
   6099,   50.8095245,         -27.,   49.9740906
   6100,   34.6963539,         -27.,   50.8540764
   6101,   51.0032387,         -27.,   46.9707947
   6102,   36.1784554,         -27.,   52.5564919
   6103,   47.8898163,         -27.,   49.9758072
   6104,   37.9168777,         -27.,   51.4255524
   6105,   55.0948296,         -27.,   44.7945709
   6106,   31.6848087,         -27.,    54.268959
   6107,   26.8513165,         -27.,   53.6842232
   6108,   57.6553421,         -27.,   44.5082436
   6109,   37.5210381,         -27.,    45.877533
   6110,   46.3911476,         -27.,   53.7689514
   6111,   48.1575966,         -27.,   46.9196663
   6112,   38.8502235,         -27.,   53.4980621
   6113,   45.3785858,         -27.,   51.3352089
   6114,   38.7592201,         -27.,   48.2539177
   6115,   43.3265953,         -27.,   46.8430176
   6116,   41.6282921,         -27.,   55.0105972
   6117,   40.8853722,         -27.,   52.8403435
   6118,    45.820961,         -27.,   48.5600624
   6119,   42.7586555,         -27.,   44.3197327
   6120,   40.4475403,         -27.,   57.3989334
   6121,   42.0494194,         -27.,   49.8383408
   6122,   41.0448494,         -27.,   47.4100266
   6123,   43.9574509,         -27.,   54.4072533
   6124,   43.0807877,         -27.,   52.1303596
   6125,   20.0720787,         -27.,   47.5422592
   6126,   19.2821617,         -27.,   54.1353416
   6127,   63.1057014,         -27.,   58.7198639
   6128,   67.7481003,         -27.,   54.1932373
   6129,   67.4813766,         -27.,   49.9650421
   6130,   67.8375702,         -27.,   45.8922653
   6131,   63.1173668,         -27.,   55.2274666
   6132,   23.9585705,         -27.,   56.6781311
   6133,   26.2027836,         -27.,    55.633934
   6134,    61.336956,         -27.,   54.3754768
   6135,   59.7883606,         -27.,   55.8339844
   6136,   61.5589256,         -27.,   57.0404892
   6137,   28.8441944,         -27.,   54.4625244
   6138,   49.6240807,         -27.,   61.6276169
   6139,   56.8710403,         -27.,    52.958065
   6140,   36.5890999,         -27.,   49.4011002
   6141,   56.2623062,         -27.,   45.9445992
   6142,   53.2131271,         -27.,   45.0796776
   6143,   47.8109932,         -27.,   44.2313423
   6144,   51.6513214,         -27.,   43.7319603
   6145,   57.0088844,         -27.,   50.8470345
   6146,   55.7205391,         -27.,   51.5851631
   6147,    53.750309,         -27.,   52.1757774
   6148,    39.909584,         -27.,   50.5724983
   6149,   30.3593502,         -27.,   55.1999626
   6150,    54.703598,         -27.,    46.931881
   6151,     55.14991,         -27.,   50.1318436
   6152,   53.2119675,         -27.,   50.1473732
   6153,   44.5306778,         -27.,   56.7579956
   6154,   45.7276077,         -27.,   46.6239967
   6155,   39.0665016,         -27.,   55.9654274
   6156,   42.2286873,         -27.,   57.0860214
   6157,   44.1511383,         -27.,   49.2068748
   6158,   37.2552261,         -27.,   53.8390388
   6159,   54.9376907,         -27.,   48.9445496
   6160,   53.4485512,         -27.,   48.2442551
   6161,   72.6548691,         -30.,   46.9750137
   6162,   71.6628723,         -30.,   44.0955849
   6163,   70.1294861,         -30.,   41.4627342
   6164,   65.9075928,         -30.,   37.0858841
   6165,   63.4072647,         -30.,   35.3402519
   6166,   57.9375267,         -30.,   32.6555138
   6167,   49.0830994,         -30.,    30.415472
   6168,   42.9999504,         -30.,          30.
   6169,   36.9168015,         -30.,   30.4154854
   6170,   28.0623798,         -30.,   32.6555481
   6171,   22.5926533,         -30.,   35.3403015
   6172,   20.0923309,         -30.,   37.0859489
   6173,   15.8704844,         -30.,   41.4627762
   6174,   14.3371067,         -30.,   44.0956306
   6175,   13.3451195,         -30.,   46.9750633
   6176,          73.,         -30.,          50.
   6177,          13.,         -30.,          50.
   6178,     13.34513,         -30.,   53.0249863
   6179,   14.3371286,         -30.,   55.9044151
   6180,   15.8705158,         -30.,   58.5372658
   6181,   20.0924091,         -30.,   62.9141159
   6182,   22.5927353,         -30.,   64.6597519
   6183,   28.0624714,         -30.,   67.3444901
   6184,   36.9169006,         -30.,   69.5845261
   6185,   43.0000496,         -30.,          70.
   6186,   49.0831985,         -30.,   69.5845108
   6187,   57.9376221,         -30.,   67.3444519
   6188,   63.4073448,         -30.,   64.6596985
   6189,   65.9076691,         -30.,   62.9140511
   6190,   70.1295166,         -30.,   58.5372238
   6191,   71.6628952,         -30.,   55.9043694
   6192,   72.6548843,         -30.,   53.0249367
   6193,   68.1757355,         -30.,   39.1232681
   6194,   60.7356377,         -30.,   33.8693237
   6195,   55.0464287,         -30.,   31.6832371
   6196,   52.0880966,         -30.,    30.939785
   6197,   46.0486526,         -30.,   30.1035385
   6198,    39.951252,         -30.,   30.1035442
   6199,    33.911808,         -30.,    30.939806
   6200,    30.953476,         -30.,   31.6832657
   6201,   25.2642746,         -30.,   33.8693657
   6202,   17.8242264,         -30.,   39.1233101
   6203,   17.8242664,         -30.,   60.8767319
   6204,   25.2643623,         -30.,   66.1306763
   6205,   30.9535713,         -30.,   68.3167648
   6206,   33.9119034,         -30.,   69.0602112
   6207,   39.9513474,         -30.,   69.8964615
   6208,    46.048748,         -30.,   69.8964539
   6209,    52.088192,         -30.,   69.0601959
   6210,    55.046524,         -30.,   68.3167343
   6211,   60.7357254,         -30.,   66.1306305
   6212,   68.1757736,         -30.,   60.8766899
   6213,   69.5258942,         -30.,   54.9326172
   6214,   64.1362152,         -30.,   39.5261269
   6215,    57.247551,         -30.,   64.6263275
   6216,   54.0768356,         -30.,   34.4577789
   6217,   43.6298828,         -30.,   67.1327744
   6218,   42.7476616,         -30.,     32.92099
   6219,   37.8993492,         -30.,    66.756813
   6220,    37.015358,         -30.,   33.2688141
   6221,   34.1916924,         -30.,   33.7330208
   6222,   28.7034397,         -30.,    35.439743
   6223,   23.5378151,         -30.,   38.3724174
   6224,   18.3707294,         -30.,   42.2230301
   6225,   17.5704823,         -30.,   44.7255058
   6226,   18.5653095,         -30.,    57.082756
   6227,   22.2543087,         -30.,   60.9667015
   6228,    24.538969,         -30.,   62.4953651
   6229,   48.4760628,         -30.,   33.2820206
   6230,   56.7746696,         -30.,   35.3850746
   6231,   61.8235703,         -30.,   37.9440575
   6232,   62.3097076,         -30.,   62.2839966
   6233,   68.0834503,         -30.,   43.0681152
   6234,   68.2229538,         -30.,   57.0601044
   6235,   66.2435303,         -30.,   41.2466316
   6236,   59.3624077,         -30.,   36.5506859
   6237,   49.2157326,         -30.,   66.8326569
   6238,   51.3129425,         -30.,     33.76194
   6239,   45.6300278,         -30.,   33.0115128
   6240,   39.8908348,         -30.,   33.0049286
   6241,   29.6094284,         -30.,     64.79953
   6242,   31.4259739,         -30.,   34.4241028
   6243,    26.122242,         -30.,   36.8125534
   6244,   18.9883251,         -30.,   40.2219696
   6245,   20.2135029,         -30.,   59.1246033
   6246,   26.9988728,         -30.,   63.7630272
   6247,   32.2842102,         -30.,   65.6375961
   6248,   35.0398788,         -30.,   66.2907639
   6249,   40.7461624,         -30.,   67.0406723
   6250,   46.4250488,         -30.,   67.0781174
   6251,   51.9684601,         -30.,   66.3809967
   6252,   54.6127319,         -30.,   65.6337662
   6253,    59.809845,         -30.,   63.5355911
   6254,   66.5377045,         -30.,   58.9728966
   6255,   70.2496796,         -30.,   50.0116234
   6256,   70.0942841,         -30.,   52.5188904
   6257,   70.1056366,         -30.,   47.5148582
   6258,   64.8537827,         -30.,   57.0130463
   6259,    62.498333,         -30.,   41.9572182
   6260,   44.1684036,         -30.,   64.3484955
   6261,   42.5416718,         -30.,    35.802124
   6262,   37.1260719,         -30.,   35.9899559
   6263,    31.912077,         -30.,     36.91362
   6264,   21.2092037,         -30.,   42.1310959
   6265,   17.1820335,         -30.,   54.9506035
   6266,   26.2218571,         -30.,   60.4008675
   6267,   53.2028542,         -30.,   37.0906258
   6268,   58.8643417,         -30.,   60.9530945
   6269,   46.7970314,         -30.,     64.29142
   6270,   27.2437439,         -30.,   39.2777252
   6271,   21.2205143,         -30.,   55.3573036
   6272,   22.3584595,         -30.,   57.6029472
   6273,   56.3867455,         -30.,   62.0087929
   6274,   55.6932716,         -30.,   37.9509315
   6275,   47.9744492,         -30.,   36.0638542
   6276,   38.7373009,         -30.,   64.0381927
   6277,   39.8389473,         -30.,   35.8393555
   6278,   24.1088371,         -30.,   59.1722679
   6279,   21.0357323,         -30.,   39.4640694
   6280,   16.8759727,         -30.,   47.3389816
   6281,   16.5025902,         -30.,   49.9550247
   6282,   16.5540085,         -30.,   52.4923401
   6283,   29.4750519,         -30.,   37.7222748
   6284,   28.5420494,         -30.,   61.4215622
   6285,   34.4689331,         -30.,   36.3734932
   6286,   50.6344414,         -30.,    36.464119
   6287,   60.3350182,         -30.,   40.4187241
   6288,   64.5367813,         -30.,   60.7558823
   6289,   66.3790894,         -30.,   44.8715477
   6290,   69.4853439,         -30.,   45.1248016
   6291,   64.5266571,         -30.,   43.5012894
   6292,   58.0614624,         -30.,   39.0544739
   6293,   49.3019943,         -30.,    64.213356
   6294,   45.2883339,         -30.,    35.864769
   6295,   30.9813995,         -30.,    62.256134
   6296,     33.47929,         -30.,   62.9758644
   6297,    36.038311,         -30.,   63.5869789
   6298,   41.4302063,         -30.,   64.2943802
   6299,   51.7340622,         -30.,   63.9519806
   6300,   53.9813423,         -30.,   63.1387787
   6301,   67.4889603,         -30.,   52.2971764
   6302,   19.6211452,         -30.,   50.0282173
   6303,   19.3978615,         -30.,   52.2965508
   6304,   67.6650848,         -30.,   47.6967201
   6305,   60.9839745,         -30.,   44.2896843
   6306,   24.0277767,         -30.,   55.1374474
   6307,   58.9454041,         -30.,    42.665493
   6308,   55.2454071,         -30.,   59.4879303
   6309,   25.4997253,         -30.,   57.4686279
   6310,   29.1467876,         -30.,   41.0394859
   6311,   52.9031525,         -30.,   60.8179131
   6312,   56.8489685,         -30.,   41.3301086
   6313,   30.2728672,         -30.,   39.3844986
   6314,   27.4855042,         -30.,   58.3419189
   6315,   51.4066048,         -30.,   62.0900307
   6316,    54.728775,         -30.,   40.3304138
   6317,   32.2373238,         -30.,   39.3974113
   6318,   29.7679958,         -30.,   59.0754433
   6319,   52.4782677,         -30.,   39.5564651
   6320,   34.6958961,         -30.,   38.9447403
   6321,   32.1559029,         -30.,   59.6202164
   6322,   50.1060257,         -30.,   39.0519714
   6323,   47.1876717,         -30.,   61.5444717
   6324,   37.2120209,         -30.,   38.5316429
   6325,   34.5429001,         -30.,    60.289463
   6326,   47.6472511,         -30.,   38.7850266
   6327,   44.5611191,         -30.,   61.6778717
   6328,   39.7127686,         -30.,    38.682579
   6329,   36.9459648,         -30.,   60.9521217
   6330,   41.9678764,         -30.,   61.6954041
   6331,   39.4086037,         -30.,   61.4758453
   6332,   45.0767441,         -30.,   38.6921501
   6333,   42.3863678,         -30.,   38.7110748
   6334,   24.5961475,         -30.,   41.6742134
   6335,   61.1985397,         -30.,   60.0969582
   6336,   55.7916832,         -30.,   43.2951927
   6337,   28.2541256,         -30.,   56.3502159
   6338,   53.7157021,         -30.,   57.3310623
   6339,   32.0273056,         -30.,   42.2763557
   6340,   50.7341576,         -30.,   58.8133278
   6341,   30.4262714,         -30.,   56.8440933
   6342,   35.0720825,         -30.,   41.4131165
   6343,   53.9158134,         -30.,   42.5683403
   6344,   47.4382057,         -30.,   58.9273453
   6345,    33.041214,         -30.,   56.5920982
   6346,   37.1724319,         -30.,   40.5728149
   6347,   51.9499168,         -30.,   41.8477364
   6348,   44.7308502,         -30.,   59.1676445
   6349,   49.8235016,         -30.,   41.5736275
   6350,   39.1664963,         -30.,   41.8740578
   6351,   35.5614777,         -30.,   57.6811714
   6352,   47.5694695,         -30.,   41.4928131
   6353,   42.3445816,         -30.,   41.5935326
   6354,   42.2771988,         -30.,   59.3158264
   6355,    37.841011,         -30.,   58.4649544
   6356,   45.0886765,         -30.,   41.4849129
   6357,    39.977314,         -30.,   59.1784744
   6358,   23.7237911,         -30.,   45.1377563
   6359,   60.3494949,         -30.,    58.391674
   6360,   27.5836697,         -30.,   43.2286186
   6361,   58.0233688,         -30.,   58.0963898
   6362,   49.8513222,         -30.,   55.8540993
   6363,   34.7892799,         -30.,   54.2829018
   6364,    49.993782,         -30.,   44.1633835
   6365,   36.2482224,         -30.,   43.5749626
   6366,   45.3517799,         -30.,   44.1680717
   6367,   36.6720543,         -30.,   55.4577103
   6368,   47.1110077,         -30.,    56.359623
   6369,   40.1075058,         -30.,   44.8102722
   6370,   58.4257469,         -30.,   54.3369675
   6371,   26.7808304,         -30.,   45.8613548
   6372,   23.0394611,         -30.,   47.8604279
   6373,   64.4875183,         -30.,   52.8398628
   6374,   33.4576302,         -30.,   44.9283676
   6375,   52.4557915,         -30.,   55.0684624
   6376,   25.9708405,         -30.,   48.4167252
   6377,   60.9274178,         -30.,   52.2579842
   6378,   20.6935787,         -30.,   44.9070168
   6379,   66.3371735,         -30.,   55.3498993
   6380,   29.9897976,         -30.,   44.1250916
   6381,   56.2097092,         -30.,   56.0212822
   6382,   54.8099709,         -30.,   54.1287117
   6383,    30.386734,         -30.,   46.6688614
   6384,   28.8450851,         -30.,   49.3535805
   6385,   58.4308434,         -30.,   51.3706551
   6386,   22.4648399,         -30.,   50.3223991
   6387,   64.5959473,         -30.,   49.7221413
   6388,   48.9066582,         -30.,   53.0817604
   6389,   35.0271912,         -30.,   47.2168045
   6390,    31.202486,         -30.,   50.8439484
   6391,   56.7858009,         -30.,   49.6878548
   6392,   25.1677208,         -30.,   50.8225861
   6393,   61.4010887,         -30.,    48.773243
   6394,   32.8042946,         -30.,    48.889328
   6395,   51.4336548,         -30.,   52.6240883
   6396,   21.9304905,         -30.,    52.695118
   6397,   63.0517082,         -30.,    45.960041
   6398,   56.0477753,         -30.,   48.2975578
   6399,   33.1564941,         -30.,   52.6107674
   6400,   27.7163906,         -30.,   51.6110153
   6401,   58.6115761,         -30.,   49.3105621
   6402,   24.4622059,         -30.,   53.0792313
   6403,   59.4362602,         -30.,   46.2192917
   6404,   65.3006668,         -30.,   47.1064529
   6405,   57.6360054,         -30.,   47.4296989
   6406,   29.8849373,         -30.,   52.7154541
   6407,   50.8095245,         -30.,   49.9740906
   6408,   34.6963539,         -30.,   50.8540764
   6409,   51.0032387,         -30.,   46.9707947
   6410,   36.1784554,         -30.,   52.5564919
   6411,   47.8898163,         -30.,   49.9758072
   6412,   37.9168777,         -30.,   51.4255524
   6413,   55.0948296,         -30.,   44.7945709
   6414,   31.6848087,         -30.,    54.268959
   6415,   26.8513165,         -30.,   53.6842232
   6416,   57.6553421,         -30.,   44.5082436
   6417,   37.5210381,         -30.,    45.877533
   6418,   46.3911476,         -30.,   53.7689514
   6419,   48.1575966,         -30.,   46.9196663
   6420,   38.8502235,         -30.,   53.4980621
   6421,   45.3785858,         -30.,   51.3352089
   6422,   38.7592201,         -30.,   48.2539177
   6423,   43.3265953,         -30.,   46.8430176
   6424,   41.6282921,         -30.,   55.0105972
   6425,   40.8853722,         -30.,   52.8403435
   6426,    45.820961,         -30.,   48.5600624
   6427,   42.7586555,         -30.,   44.3197327
   6428,   40.4475403,         -30.,   57.3989334
   6429,   42.0494194,         -30.,   49.8383408
   6430,   41.0448494,         -30.,   47.4100266
   6431,   43.9574509,         -30.,   54.4072533
   6432,   43.0807877,         -30.,   52.1303596
   6433,   20.0720787,         -30.,   47.5422592
   6434,   19.2821617,         -30.,   54.1353416
   6435,   63.1057014,         -30.,   58.7198639
   6436,   67.7481003,         -30.,   54.1932373
   6437,   67.4813766,         -30.,   49.9650421
   6438,   67.8375702,         -30.,   45.8922653
   6439,   63.1173668,         -30.,   55.2274666
   6440,   23.9585705,         -30.,   56.6781311
   6441,   26.2027836,         -30.,    55.633934
   6442,    61.336956,         -30.,   54.3754768
   6443,   59.7883606,         -30.,   55.8339844
   6444,   61.5589256,         -30.,   57.0404892
   6445,   28.8441944,         -30.,   54.4625244
   6446,   49.6240807,         -30.,   61.6276169
   6447,   56.8710403,         -30.,    52.958065
   6448,   36.5890999,         -30.,   49.4011002
   6449,   56.2623062,         -30.,   45.9445992
   6450,   53.2131271,         -30.,   45.0796776
   6451,   47.8109932,         -30.,   44.2313423
   6452,   51.6513214,         -30.,   43.7319603
   6453,   57.0088844,         -30.,   50.8470345
   6454,   55.7205391,         -30.,   51.5851631
   6455,    53.750309,         -30.,   52.1757774
   6456,    39.909584,         -30.,   50.5724983
   6457,   30.3593502,         -30.,   55.1999626
   6458,    54.703598,         -30.,    46.931881
   6459,     55.14991,         -30.,   50.1318436
   6460,   53.2119675,         -30.,   50.1473732
   6461,   44.5306778,         -30.,   56.7579956
   6462,   45.7276077,         -30.,   46.6239967
   6463,   39.0665016,         -30.,   55.9654274
   6464,   42.2286873,         -30.,   57.0860214
   6465,   44.1511383,         -30.,   49.2068748
   6466,   37.2552261,         -30.,   53.8390388
   6467,   54.9376907,         -30.,   48.9445496
   6468,   53.4485512,         -30.,   48.2442551
*Element, type=C3D8
   1,   97,    1,   16,   95,  405,  309,  324,  403
   2,   95,   16,   32,   96,  403,  324,  340,  404
   3,   75,   33,    3,   73,  383,  341,  311,  381
   4,  219,  276,   53,   74,  527,  584,  361,  382
   5,  219,   74,   94,   98,  527,  382,  402,  406
   6,   99,  131,  237,  145,  407,  439,  545,  453
   7,   79,   37,    7,   69,  387,  345,  315,  377
   8,  133,   77,   90,  109,  441,  385,  398,  417
   9,   61,   39,    9,   60,  369,  347,  317,  368
  10,   24,   59,   89,   47,  332,  367,  397,  355
  11,   62,   10,   40,   82,  370,  318,  348,  390
  12,  125,   61,   60,  102,  433,  369,  368,  410
  13,  164,  160,  125,  102,  472,  468,  433,  410
  14,  125,  160,  157,  103,  433,  468,  465,  411
  15,   42,   84,   64,   13,  350,  392,  372,  321
  16,  120,   15,   14,   65,  428,  323,  322,  373
  17,  104,  218,   65,   64,  412,  526,  373,  372
  18,   19,  105,   66,   20,  327,  413,  374,  328
  19,   85,   43,   20,   66,  393,  351,  328,  374
  20,  236,  111,  274,  143,  544,  419,  582,  451
  21,  120,   65,  218,  273,  428,  373,  526,  581
  22,  273,  212,  226,  142,  581,  520,  534,  450
  23,  136,   87,   81,  135,  444,  395,  389,  443
  24,  155,  139,  133,  286,  463,  447,  441,  594
  25,   78,   36,   35,   56,  386,  344,  343,  364
  26,    6,   70,   56,   35,  314,  378,  364,  343
  27,  275,  128,   72,  175,  583,  436,  380,  483
  28,   96,   32,   31,   53,  404,  340,  339,  361
  29,   71,    5,    4,   54,  379,  313,  312,  362
  30,   72,   28,   51,   93,  380,  336,  359,  401
  31,  139,   91,   77,  133,  447,  399,  385,  441
  32,   37,   79,   58,    8,  345,  387,  366,  316
  33,   80,   38,    8,   58,  388,  346,  316,  366
  34,   82,   40,   39,   61,  390,  348,  347,  369
  35,   21,   67,   68,   22,  329,  375,  376,  330
  36,   63,   11,   41,   83,  371,  319,  349,  391
  37,  211,  216,  212,  198,  519,  524,  520,  506
  38,   66,  111,  112,   85,  374,  419,  420,  393
  39,   85,  112,  118,   67,  393,  420,  426,  375
  40,   46,   88,   59,   24,  354,  396,  367,  332
  41,   47,   89,   57,   25,  355,  397,  365,  333
  42,   91,   49,   26,   77,  399,  357,  334,  385
  43,  175,   72,   93,  108,  483,  380,  401,  416
  44,  128,   29,   28,   72,  436,  337,  336,  380
  45,   53,   31,   30,   74,  361,  339,  338,  382
  46,   54,    4,   33,   75,  362,  312,  341,  383
  47,   76,   34,    5,   71,  384,  342,  313,  379
  48,   34,   76,   70,    6,  342,  384,  378,  314
  49,   50,   92,   55,   27,  358,  400,  363,  335
  50,   93,   51,   27,   55,  401,  359,  335,  363
  51,  126,   78,   56,  107,  434,  386,  364,  415
  52,   69,    7,   36,   78,  377,  315,  344,  386
  53,   90,   48,   25,   57,  398,  356,  333,  365
  54,   77,   26,   48,   90,  385,  334,  356,  398
  55,   79,  134,  101,   58,  387,  442,  409,  366
  56,   60,    9,   38,   80,  368,  317,  346,  388
  57,   23,   81,   87,   45,  331,  389,  395,  353
  58,   59,  116,  138,   89,  367,  424,  446,  397
  59,  103,   82,   61,  125,  411,  390,  369,  433
  60,   83,   41,   10,   62,  391,  349,  318,  370
  61,  119,   12,   11,   63,  427,  320,  319,  371
  62,  281,  146,  242,  255,  589,  454,  550,  563
  63,   12,  119,   84,   42,  320,  427,  392,  350
  64,   81,   23,   44,   86,  389,  331,  352,  394
  65,   65,   14,   13,   64,  373,  322,  321,  372
  66,   86,   44,   22,   68,  394,  352,  330,  376
  67,  121,   17,   15,  120,  429,  325,  323,  428
  68,  122,   18,   17,  121,  430,  326,  325,  429
  69,   67,   21,   43,   85,  375,  329,  351,  393
  70,  174,   63,   83,  110,  482,  371,  391,  418
  71,  161,  135,  124,  158,  469,  443,  432,  466
  72,  123,   62,   82,  103,  431,  370,  390,  411
  73,  178,  180,  202,  215,  486,  488,  510,  523
  74,   70,  114,  107,   56,  378,  422,  415,  364
  75,   29,  128,   94,   52,  337,  436,  402,  360
  76,   99,   54,   75,  131,  407,  362,  383,  439
  77,  227,  244,  144,  277,  535,  552,  452,  585
  78,    1,   97,  130,    2,  309,  405,  438,  310
  79,   52,   94,   74,   30,  360,  402,  382,  338
  80,  213,  141,  276,  219,  521,  449,  584,  527
  81,  127,   71,   54,   99,  435,  379,  362,  407
  82,  147,  152,  132,  127,  455,  460,  440,  435
  83,   92,   50,   49,   91,  400,  358,  357,  399
  84,  139,  155,  151,  140,  447,  463,  459,  448
  85,  183,  187,  159,  156,  491,  495,  467,  464
  86,   88,   46,   45,   87,  396,  354,  353,  395
  87,  281,  149,  280,  146,  589,  457,  588,  454
  88,  123,  103,  157,  153,  431,  411,  465,  461
  89,   89,  138,  100,   57,  397,  446,  408,  365
  90,  159,  162,  126,  107,  467,  470,  434,  415
  91,   55,  113,  108,   93,  363,  421,  416,  401
  92,  277,   95,   96,  141,  585,  403,  404,  449
  93,   73,    3,    2,  130,  381,  311,  310,  438
  94,  129,   73,  130,  278,  437,  381,  438,  586
  95,   73,  129,  131,   75,  381,  437,  439,  383
  96,   98,   94,  128,  275,  406,  402,  436,  583
  97,  132,   76,   71,  127,  440,  384,  379,  435
  98,   69,  115,  134,   79,  377,  423,  442,  387
  99,  109,   90,   57,  100,  417,  398,  365,  408
 100,  117,   80,   58,  101,  425,  388,  366,  409
 101,  102,   60,   80,  117,  410,  368,  388,  425
 102,   62,  123,  110,   83,  370,  431,  418,  391
 103,   86,  124,  135,   81,  394,  432,  443,  389
 104,  280,  112,  111,  146,  588,  420,  419,  454
 105,  174,  104,  119,   63,  482,  412,  427,  371
 106,  143,  122,  121,  142,  451,  430,  429,  450
 107,   18,  122,  105,   19,  326,  430,  413,  327
 108,  124,   86,   68,  106,  432,  394,  376,  414
 109,  115,   69,   78,  126,  423,  377,  386,  434
 110,  277,  141,  213,  227,  585,  449,  521,  535
 111,  211,  198,  174,  200,  519,  506,  482,  508
 112,  120,  273,  142,  121,  428,  581,  450,  429
 113,  106,   68,   67,  118,  414,  376,  375,  426
 114,  154,  106,  118,  149,  462,  414,  426,  457
 115,   92,  140,  113,   55,  400,  448,  421,  363
 116,  108,  201,  199,  175,  416,  509,  507,  483
 117,  152,  156,  114,  132,  460,  464,  422,  440
 118,  196,  172,  166,  192,  504,  480,  474,  500
 119,   88,  137,  116,   59,  396,  445,  424,  367
 120,  191,  165,  161,  185,  499,  473,  469,  493
 121,  158,  124,  106,  154,  466,  432,  414,  462
 122,  105,  122,  143,  274,  413,  430,  451,  582
 123,  137,   88,   87,  136,  445,  396,  395,  444
 124,  114,   70,   76,  132,  422,  378,  384,  440
 125,  233,  227,  213,  217,  541,  535,  521,  525
 126,   97,  144,  278,  130,  405,  452,  586,  438
 127,  127,   99,  145,  147,  435,  407,  453,  455
 128,  140,   92,   91,  139,  448,  400,  399,  447
 129,  168,  164,  102,  117,  476,  472,  410,  425
 130,  169,  137,  136,  165,  477,  445,  444,  473
 131,  185,  161,  158,  181,  493,  469,  466,  489
 132,  297,  254,  185,  181,  605,  562,  493,  489
 133,  286,  133,  109,  163,  594,  441,  417,  471
 134,  217,  213,  279,  282,  525,  521,  587,  590
 135,  147,  145,  243,  256,  455,  453,  551,  564
 136,  279,  213,  219,   98,  587,  521,  527,  406
 137,  232,  226,  212,  216,  540,  534,  520,  524
 138,  273,  218,  198,  212,  581,  526,  506,  520
 139,  242,  146,  111,  236,  550,  454,  419,  544
 140,  131,  129,  244,  237,  439,  437,  552,  545
 141,  283,  201,  221,  210,  591,  509,  529,  518
 142,  223,  211,  200,  220,  531,  519,  508,  528
 143,  149,  118,  112,  280,  457,  426,  420,  588
 144,  156,  159,  107,  114,  464,  467,  415,  422
 145,  148,  113,  140,  151,  456,  421,  448,  459
 146,  201,  108,  113,  148,  509,  416,  421,  456
 147,  165,  136,  135,  161,  473,  444,  443,  469
 148,  110,  123,  153,  150,  418,  431,  461,  458
 149,  256,  176,  152,  147,  564,  484,  460,  455
 150,  162,  166,  115,  126,  470,  474,  423,  434
 151,  149,  281,  177,  154,  457,  589,  485,  462
 152,  171,  116,  137,  169,  479,  424,  445,  477
 153,  166,  172,  134,  115,  474,  480,  442,  423
 154,  193,  196,  206,  267,  501,  504,  514,  575
 155,  170,  138,  116,  171,  478,  446,  424,  479
 156,  195,  169,  165,  191,  503,  477,  473,  499
 157,  189,  162,  159,  187,  497,  470,  467,  495
 158,  100,  167,  163,  109,  408,  475,  471,  417
 159,  155,  286,  180,  151,  463,  594,  488,  459
 160,  160,  182,  179,  157,  468,  490,  487,  465
 161,  208,  202,  180,  184,  516,  510,  488,  492
 162,  154,  177,  181,  158,  462,  485,  489,  466
 163,  173,  168,  117,  101,  481,  476,  425,  409
 164,  196,  192,  291,  206,  504,  500,  599,  514
 165,  170,  194,  188,  167,  478,  502,  496,  475
 166,  138,  170,  167,  100,  446,  478,  475,  408
 167,  180,  286,  163,  184,  488,  594,  471,  492
 168,  207,  191,  185,  203,  515,  499,  493,  511
 169,  303,  195,  191,  207,  611,  503,  499,  515
 170,  167,  188,  184,  163,  475,  496,  492,  471
 171,  101,  134,  172,  173,  409,  442,  480,  481
 172,  164,  168,  190,  186,  472,  476,  498,  494
 173,  218,  104,  174,  198,  526,  412,  482,  506
 174,  199,  284,  275,  175,  507,  592,  583,  483
 175,  284,  199,  201,  283,  592,  507,  509,  591
 176,  183,  156,  152,  176,  491,  464,  460,  484
 177,  148,  151,  180,  178,  456,  459,  488,  486
 178,  150,  153,  157,  179,  458,  461,  465,  487
 179,  204,  292,  290,  249,  512,  600,  598,  557
 180,  197,  171,  169,  195,  505,  479,  477,  503
 181,  182,  160,  164,  186,  490,  468,  472,  494
 182,  248,  239,  230,  234,  556,  547,  538,  542
 183,  192,  166,  162,  189,  500,  474,  470,  497
 184,  195,  303,  268,  197,  503,  611,  576,  505
 185,  272,  261,  258,  271,  580,  569,  566,  579
 186,  296,  252,  288,  262,  604,  560,  596,  570
 187,  193,  173,  172,  196,  501,  481,  480,  504
 188,  259,  302,  206,  291,  567,  610,  514,  599
 189,  173,  193,  190,  168,  481,  501,  498,  476
 190,  182,  186,  190,  205,  490,  494,  498,  513
 191,  261,  272,  269,  305,  569,  580,  577,  613
 192,  302,  263,  267,  206,  610,  571,  575,  514
 193,  257,  205,  190,  209,  565,  513,  498,  517
 194,  171,  197,  194,  170,  479,  505,  502,  478
 195,  301,  208,  184,  188,  609,  516,  492,  496
 196,  260,  265,  264,  303,  568,  573,  572,  611
 197,  216,  211,  223,  224,  524,  519,  531,  532
 198,  294,  293,  225,  287,  602,  601,  533,  595
 199,  174,  110,  150,  200,  482,  418,  458,  508
 200,  222,  215,  235,  295,  530,  523,  543,  603
 201,  179,  182,  205,  214,  487,  490,  513,  522
 202,  254,  239,  203,  185,  562,  547,  511,  493
 203,  204,  189,  187,  292,  512,  497,  495,  600
 204,  190,  193,  267,  209,  498,  501,  575,  517
 205,  235,  228,  251,  247,  543,  536,  559,  555
 206,  264,  271,  301,  304,  572,  579,  609,  612
 207,  261,  251,  228,  258,  569,  559,  536,  566
 208,  262,  288,  229,  257,  570,  596,  537,  565
 209,  221,  178,  215,  222,  529,  486,  523,  530
 210,  222,  287,  210,  221,  530,  595,  518,  529
 211,  223,  220,  179,  214,  531,  528,  487,  522
 212,  224,  223,  234,  230,  532,  531,  542,  538
 213,  299,  300,  308,  307,  607,  608,  616,  615
 214,  216,  224,  240,  232,  524,  532,  548,  540
 215,  217,  225,  241,  233,  525,  533,  549,  541
 216,  200,  150,  179,  220,  508,  458,  487,  528
 217,  201,  148,  178,  221,  509,  456,  486,  529
 218,  287,  225,  217,  210,  595,  533,  525,  518
 219,  295,  235,  247,  300,  603,  543,  555,  608
 220,  236,  226,  232,  242,  544,  534,  540,  550
 221,  145,  237,  233,  243,  453,  545,  541,  551
 222,  142,  226,  236,  143,  450,  534,  544,  451
 223,  233,  237,  244,  227,  541,  545,  552,  535
 224,  259,  249,  247,  251,  567,  557,  555,  559
 225,  228,  235,  215,  202,  536,  543,  523,  510
 226,  288,  252,  250,  248,  596,  560,  558,  556
 227,  257,  229,  214,  205,  565,  537,  522,  513
 228,  240,  246,  285,  255,  548,  554,  593,  563
 229,  233,  241,  245,  243,  541,  549,  553,  551
 230,  223,  214,  229,  234,  531,  522,  537,  542
 231,  255,  242,  232,  240,  563,  550,  540,  548
 232,  238,  245,  241,  231,  546,  553,  549,  539
 233,  224,  230,  246,  240,  532,  538,  554,  548
 234,  203,  239,  248,  250,  511,  547,  556,  558
 235,  289,  256,  243,  245,  597,  564,  551,  553
 236,  225,  293,  231,  241,  533,  601,  539,  549
 237,  144,  244,  129,  278,  452,  552,  437,  586
 238,  290,  183,  176,  253,  598,  491,  484,  561
 239,  254,  246,  230,  239,  562,  554,  538,  547
 240,  306,  250,  252,  260,  614,  558,  560,  568
 241,  288,  248,  234,  229,  596,  556,  542,  537
 242,  298,  289,  245,  238,  606,  597,  553,  546
 243,  249,  259,  291,  204,  557,  567,  599,  512
 244,  303,  207,  306,  260,  611,  515,  614,  568
 245,  263,  305,  269,  270,  571,  613,  577,  578
 246,  305,  266,  251,  261,  613,  574,  559,  569
 247,  296,  265,  260,  252,  604,  573,  568,  560
 248,  290,  253,  289,  298,  598,  561,  597,  606
 249,  297,  285,  246,  254,  605,  593,  554,  562
 250,  177,  281,  255,  285,  485,  589,  563,  593
 251,  253,  176,  256,  289,  561,  484,  564,  597
 252,  258,  228,  202,  208,  566,  536,  510,  516
 253,  263,  270,  209,  267,  571,  578,  517,  575
 254,  302,  259,  251,  266,  610,  567,  559,  574
 255,  209,  270,  262,  257,  517,  578,  570,  565
 256,  266,  305,  263,  302,  574,  613,  571,  610
 257,  272,  265,  296,  269,  580,  573,  604,  577
 258,  304,  194,  197,  268,  612,  502,  505,  576
 259,  208,  301,  271,  258,  516,  609,  579,  566
 260,  262,  270,  269,  296,  570,  578,  577,  604
 261,  271,  264,  265,  272,  579,  572,  573,  580
 262,  303,  264,  304,  268,  611,  572,  612,  576
 263,  111,   66,  105,  274,  419,  374,  413,  582
 264,  279,   98,  275,  284,  587,  406,  583,  592
 265,  141,   96,   53,  276,  449,  404,  361,  584
 266,  144,   97,   95,  277,  452,  405,  403,  585
 267,  104,   64,   84,  119,  412,  372,  392,  427
 268,  282,  279,  284,  283,  590,  587,  592,  591
 269,  283,  210,  217,  282,  591,  518,  525,  590
 270,  285,  297,  181,  177,  593,  605,  489,  485
 271,  298,  308,  249,  290,  606,  616,  557,  598
 272,  192,  189,  204,  291,  500,  497,  512,  599
 273,  187,  183,  290,  292,  495,  491,  598,  600
 274,  299,  231,  293,  294,  607,  539,  601,  602
 275,  300,  299,  294,  295,  608,  607,  602,  603
 276,  287,  222,  295,  294,  595,  530,  603,  602
 277,  307,  238,  231,  299,  615,  546,  539,  607
 278,  304,  301,  188,  194,  612,  609,  496,  502
 279,  207,  203,  250,  306,  515,  511,  558,  614
 280,  238,  307,  308,  298,  546,  615,  616,  606
 281,  300,  247,  249,  308,  608,  555,  557,  616
 282,  405,  309,  324,  403,  713,  617,  632,  711
 283,  403,  324,  340,  404,  711,  632,  648,  712
 284,  383,  341,  311,  381,  691,  649,  619,  689
 285,  527,  584,  361,  382,  835,  892,  669,  690
 286,  527,  382,  402,  406,  835,  690,  710,  714
 287,  407,  439,  545,  453,  715,  747,  853,  761
 288,  387,  345,  315,  377,  695,  653,  623,  685
 289,  441,  385,  398,  417,  749,  693,  706,  725
 290,  369,  347,  317,  368,  677,  655,  625,  676
 291,  332,  367,  397,  355,  640,  675,  705,  663
 292,  370,  318,  348,  390,  678,  626,  656,  698
 293,  433,  369,  368,  410,  741,  677,  676,  718
 294,  472,  468,  433,  410,  780,  776,  741,  718
 295,  433,  468,  465,  411,  741,  776,  773,  719
 296,  350,  392,  372,  321,  658,  700,  680,  629
 297,  428,  323,  322,  373,  736,  631,  630,  681
 298,  412,  526,  373,  372,  720,  834,  681,  680
 299,  327,  413,  374,  328,  635,  721,  682,  636
 300,  393,  351,  328,  374,  701,  659,  636,  682
 301,  544,  419,  582,  451,  852,  727,  890,  759
 302,  428,  373,  526,  581,  736,  681,  834,  889
 303,  581,  520,  534,  450,  889,  828,  842,  758
 304,  444,  395,  389,  443,  752,  703,  697,  751
 305,  463,  447,  441,  594,  771,  755,  749,  902
 306,  386,  344,  343,  364,  694,  652,  651,  672
 307,  314,  378,  364,  343,  622,  686,  672,  651
 308,  583,  436,  380,  483,  891,  744,  688,  791
 309,  404,  340,  339,  361,  712,  648,  647,  669
 310,  379,  313,  312,  362,  687,  621,  620,  670
 311,  380,  336,  359,  401,  688,  644,  667,  709
 312,  447,  399,  385,  441,  755,  707,  693,  749
 313,  345,  387,  366,  316,  653,  695,  674,  624
 314,  388,  346,  316,  366,  696,  654,  624,  674
 315,  390,  348,  347,  369,  698,  656,  655,  677
 316,  329,  375,  376,  330,  637,  683,  684,  638
 317,  371,  319,  349,  391,  679,  627,  657,  699
 318,  519,  524,  520,  506,  827,  832,  828,  814
 319,  374,  419,  420,  393,  682,  727,  728,  701
 320,  393,  420,  426,  375,  701,  728,  734,  683
 321,  354,  396,  367,  332,  662,  704,  675,  640
 322,  355,  397,  365,  333,  663,  705,  673,  641
 323,  399,  357,  334,  385,  707,  665,  642,  693
 324,  483,  380,  401,  416,  791,  688,  709,  724
 325,  436,  337,  336,  380,  744,  645,  644,  688
 326,  361,  339,  338,  382,  669,  647,  646,  690
 327,  362,  312,  341,  383,  670,  620,  649,  691
 328,  384,  342,  313,  379,  692,  650,  621,  687
 329,  342,  384,  378,  314,  650,  692,  686,  622
 330,  358,  400,  363,  335,  666,  708,  671,  643
 331,  401,  359,  335,  363,  709,  667,  643,  671
 332,  434,  386,  364,  415,  742,  694,  672,  723
 333,  377,  315,  344,  386,  685,  623,  652,  694
 334,  398,  356,  333,  365,  706,  664,  641,  673
 335,  385,  334,  356,  398,  693,  642,  664,  706
 336,  387,  442,  409,  366,  695,  750,  717,  674
 337,  368,  317,  346,  388,  676,  625,  654,  696
 338,  331,  389,  395,  353,  639,  697,  703,  661
 339,  367,  424,  446,  397,  675,  732,  754,  705
 340,  411,  390,  369,  433,  719,  698,  677,  741
 341,  391,  349,  318,  370,  699,  657,  626,  678
 342,  427,  320,  319,  371,  735,  628,  627,  679
 343,  589,  454,  550,  563,  897,  762,  858,  871
 344,  320,  427,  392,  350,  628,  735,  700,  658
 345,  389,  331,  352,  394,  697,  639,  660,  702
 346,  373,  322,  321,  372,  681,  630,  629,  680
 347,  394,  352,  330,  376,  702,  660,  638,  684
 348,  429,  325,  323,  428,  737,  633,  631,  736
 349,  430,  326,  325,  429,  738,  634,  633,  737
 350,  375,  329,  351,  393,  683,  637,  659,  701
 351,  482,  371,  391,  418,  790,  679,  699,  726
 352,  469,  443,  432,  466,  777,  751,  740,  774
 353,  431,  370,  390,  411,  739,  678,  698,  719
 354,  486,  488,  510,  523,  794,  796,  818,  831
 355,  378,  422,  415,  364,  686,  730,  723,  672
 356,  337,  436,  402,  360,  645,  744,  710,  668
 357,  407,  362,  383,  439,  715,  670,  691,  747
 358,  535,  552,  452,  585,  843,  860,  760,  893
 359,  309,  405,  438,  310,  617,  713,  746,  618
 360,  360,  402,  382,  338,  668,  710,  690,  646
 361,  521,  449,  584,  527,  829,  757,  892,  835
 362,  435,  379,  362,  407,  743,  687,  670,  715
 363,  455,  460,  440,  435,  763,  768,  748,  743
 364,  400,  358,  357,  399,  708,  666,  665,  707
 365,  447,  463,  459,  448,  755,  771,  767,  756
 366,  491,  495,  467,  464,  799,  803,  775,  772
 367,  396,  354,  353,  395,  704,  662,  661,  703
 368,  589,  457,  588,  454,  897,  765,  896,  762
 369,  431,  411,  465,  461,  739,  719,  773,  769
 370,  397,  446,  408,  365,  705,  754,  716,  673
 371,  467,  470,  434,  415,  775,  778,  742,  723
 372,  363,  421,  416,  401,  671,  729,  724,  709
 373,  585,  403,  404,  449,  893,  711,  712,  757
 374,  381,  311,  310,  438,  689,  619,  618,  746
 375,  437,  381,  438,  586,  745,  689,  746,  894
 376,  381,  437,  439,  383,  689,  745,  747,  691
 377,  406,  402,  436,  583,  714,  710,  744,  891
 378,  440,  384,  379,  435,  748,  692,  687,  743
 379,  377,  423,  442,  387,  685,  731,  750,  695
 380,  417,  398,  365,  408,  725,  706,  673,  716
 381,  425,  388,  366,  409,  733,  696,  674,  717
 382,  410,  368,  388,  425,  718,  676,  696,  733
 383,  370,  431,  418,  391,  678,  739,  726,  699
 384,  394,  432,  443,  389,  702,  740,  751,  697
 385,  588,  420,  419,  454,  896,  728,  727,  762
 386,  482,  412,  427,  371,  790,  720,  735,  679
 387,  451,  430,  429,  450,  759,  738,  737,  758
 388,  326,  430,  413,  327,  634,  738,  721,  635
 389,  432,  394,  376,  414,  740,  702,  684,  722
 390,  423,  377,  386,  434,  731,  685,  694,  742
 391,  585,  449,  521,  535,  893,  757,  829,  843
 392,  519,  506,  482,  508,  827,  814,  790,  816
 393,  428,  581,  450,  429,  736,  889,  758,  737
 394,  414,  376,  375,  426,  722,  684,  683,  734
 395,  462,  414,  426,  457,  770,  722,  734,  765
 396,  400,  448,  421,  363,  708,  756,  729,  671
 397,  416,  509,  507,  483,  724,  817,  815,  791
 398,  460,  464,  422,  440,  768,  772,  730,  748
 399,  504,  480,  474,  500,  812,  788,  782,  808
 400,  396,  445,  424,  367,  704,  753,  732,  675
 401,  499,  473,  469,  493,  807,  781,  777,  801
 402,  466,  432,  414,  462,  774,  740,  722,  770
 403,  413,  430,  451,  582,  721,  738,  759,  890
 404,  445,  396,  395,  444,  753,  704,  703,  752
 405,  422,  378,  384,  440,  730,  686,  692,  748
 406,  541,  535,  521,  525,  849,  843,  829,  833
 407,  405,  452,  586,  438,  713,  760,  894,  746
 408,  435,  407,  453,  455,  743,  715,  761,  763
 409,  448,  400,  399,  447,  756,  708,  707,  755
 410,  476,  472,  410,  425,  784,  780,  718,  733
 411,  477,  445,  444,  473,  785,  753,  752,  781
 412,  493,  469,  466,  489,  801,  777,  774,  797
 413,  605,  562,  493,  489,  913,  870,  801,  797
 414,  594,  441,  417,  471,  902,  749,  725,  779
 415,  525,  521,  587,  590,  833,  829,  895,  898
 416,  455,  453,  551,  564,  763,  761,  859,  872
 417,  587,  521,  527,  406,  895,  829,  835,  714
 418,  540,  534,  520,  524,  848,  842,  828,  832
 419,  581,  526,  506,  520,  889,  834,  814,  828
 420,  550,  454,  419,  544,  858,  762,  727,  852
 421,  439,  437,  552,  545,  747,  745,  860,  853
 422,  591,  509,  529,  518,  899,  817,  837,  826
 423,  531,  519,  508,  528,  839,  827,  816,  836
 424,  457,  426,  420,  588,  765,  734,  728,  896
 425,  464,  467,  415,  422,  772,  775,  723,  730
 426,  456,  421,  448,  459,  764,  729,  756,  767
 427,  509,  416,  421,  456,  817,  724,  729,  764
 428,  473,  444,  443,  469,  781,  752,  751,  777
 429,  418,  431,  461,  458,  726,  739,  769,  766
 430,  564,  484,  460,  455,  872,  792,  768,  763
 431,  470,  474,  423,  434,  778,  782,  731,  742
 432,  457,  589,  485,  462,  765,  897,  793,  770
 433,  479,  424,  445,  477,  787,  732,  753,  785
 434,  474,  480,  442,  423,  782,  788,  750,  731
 435,  501,  504,  514,  575,  809,  812,  822,  883
 436,  478,  446,  424,  479,  786,  754,  732,  787
 437,  503,  477,  473,  499,  811,  785,  781,  807
 438,  497,  470,  467,  495,  805,  778,  775,  803
 439,  408,  475,  471,  417,  716,  783,  779,  725
 440,  463,  594,  488,  459,  771,  902,  796,  767
 441,  468,  490,  487,  465,  776,  798,  795,  773
 442,  516,  510,  488,  492,  824,  818,  796,  800
 443,  462,  485,  489,  466,  770,  793,  797,  774
 444,  481,  476,  425,  409,  789,  784,  733,  717
 445,  504,  500,  599,  514,  812,  808,  907,  822
 446,  478,  502,  496,  475,  786,  810,  804,  783
 447,  446,  478,  475,  408,  754,  786,  783,  716
 448,  488,  594,  471,  492,  796,  902,  779,  800
 449,  515,  499,  493,  511,  823,  807,  801,  819
 450,  611,  503,  499,  515,  919,  811,  807,  823
 451,  475,  496,  492,  471,  783,  804,  800,  779
 452,  409,  442,  480,  481,  717,  750,  788,  789
 453,  472,  476,  498,  494,  780,  784,  806,  802
 454,  526,  412,  482,  506,  834,  720,  790,  814
 455,  507,  592,  583,  483,  815,  900,  891,  791
 456,  592,  507,  509,  591,  900,  815,  817,  899
 457,  491,  464,  460,  484,  799,  772,  768,  792
 458,  456,  459,  488,  486,  764,  767,  796,  794
 459,  458,  461,  465,  487,  766,  769,  773,  795
 460,  512,  600,  598,  557,  820,  908,  906,  865
 461,  505,  479,  477,  503,  813,  787,  785,  811
 462,  490,  468,  472,  494,  798,  776,  780,  802
 463,  556,  547,  538,  542,  864,  855,  846,  850
 464,  500,  474,  470,  497,  808,  782,  778,  805
 465,  503,  611,  576,  505,  811,  919,  884,  813
 466,  580,  569,  566,  579,  888,  877,  874,  887
 467,  604,  560,  596,  570,  912,  868,  904,  878
 468,  501,  481,  480,  504,  809,  789,  788,  812
 469,  567,  610,  514,  599,  875,  918,  822,  907
 470,  481,  501,  498,  476,  789,  809,  806,  784
 471,  490,  494,  498,  513,  798,  802,  806,  821
 472,  569,  580,  577,  613,  877,  888,  885,  921
 473,  610,  571,  575,  514,  918,  879,  883,  822
 474,  565,  513,  498,  517,  873,  821,  806,  825
 475,  479,  505,  502,  478,  787,  813,  810,  786
 476,  609,  516,  492,  496,  917,  824,  800,  804
 477,  568,  573,  572,  611,  876,  881,  880,  919
 478,  524,  519,  531,  532,  832,  827,  839,  840
 479,  602,  601,  533,  595,  910,  909,  841,  903
 480,  482,  418,  458,  508,  790,  726,  766,  816
 481,  530,  523,  543,  603,  838,  831,  851,  911
 482,  487,  490,  513,  522,  795,  798,  821,  830
 483,  562,  547,  511,  493,  870,  855,  819,  801
 484,  512,  497,  495,  600,  820,  805,  803,  908
 485,  498,  501,  575,  517,  806,  809,  883,  825
 486,  543,  536,  559,  555,  851,  844,  867,  863
 487,  572,  579,  609,  612,  880,  887,  917,  920
 488,  569,  559,  536,  566,  877,  867,  844,  874
 489,  570,  596,  537,  565,  878,  904,  845,  873
 490,  529,  486,  523,  530,  837,  794,  831,  838
 491,  530,  595,  518,  529,  838,  903,  826,  837
 492,  531,  528,  487,  522,  839,  836,  795,  830
 493,  532,  531,  542,  538,  840,  839,  850,  846
 494,  607,  608,  616,  615,  915,  916,  924,  923
 495,  524,  532,  548,  540,  832,  840,  856,  848
 496,  525,  533,  549,  541,  833,  841,  857,  849
 497,  508,  458,  487,  528,  816,  766,  795,  836
 498,  509,  456,  486,  529,  817,  764,  794,  837
 499,  595,  533,  525,  518,  903,  841,  833,  826
 500,  603,  543,  555,  608,  911,  851,  863,  916
 501,  544,  534,  540,  550,  852,  842,  848,  858
 502,  453,  545,  541,  551,  761,  853,  849,  859
 503,  450,  534,  544,  451,  758,  842,  852,  759
 504,  541,  545,  552,  535,  849,  853,  860,  843
 505,  567,  557,  555,  559,  875,  865,  863,  867
 506,  536,  543,  523,  510,  844,  851,  831,  818
 507,  596,  560,  558,  556,  904,  868,  866,  864
 508,  565,  537,  522,  513,  873,  845,  830,  821
 509,  548,  554,  593,  563,  856,  862,  901,  871
 510,  541,  549,  553,  551,  849,  857,  861,  859
 511,  531,  522,  537,  542,  839,  830,  845,  850
 512,  563,  550,  540,  548,  871,  858,  848,  856
 513,  546,  553,  549,  539,  854,  861,  857,  847
 514,  532,  538,  554,  548,  840,  846,  862,  856
 515,  511,  547,  556,  558,  819,  855,  864,  866
 516,  597,  564,  551,  553,  905,  872,  859,  861
 517,  533,  601,  539,  549,  841,  909,  847,  857
 518,  452,  552,  437,  586,  760,  860,  745,  894
 519,  598,  491,  484,  561,  906,  799,  792,  869
 520,  562,  554,  538,  547,  870,  862,  846,  855
 521,  614,  558,  560,  568,  922,  866,  868,  876
 522,  596,  556,  542,  537,  904,  864,  850,  845
 523,  606,  597,  553,  546,  914,  905,  861,  854
 524,  557,  567,  599,  512,  865,  875,  907,  820
 525,  611,  515,  614,  568,  919,  823,  922,  876
 526,  571,  613,  577,  578,  879,  921,  885,  886
 527,  613,  574,  559,  569,  921,  882,  867,  877
 528,  604,  573,  568,  560,  912,  881,  876,  868
 529,  598,  561,  597,  606,  906,  869,  905,  914
 530,  605,  593,  554,  562,  913,  901,  862,  870
 531,  485,  589,  563,  593,  793,  897,  871,  901
 532,  561,  484,  564,  597,  869,  792,  872,  905
 533,  566,  536,  510,  516,  874,  844,  818,  824
 534,  571,  578,  517,  575,  879,  886,  825,  883
 535,  610,  567,  559,  574,  918,  875,  867,  882
 536,  517,  578,  570,  565,  825,  886,  878,  873
 537,  574,  613,  571,  610,  882,  921,  879,  918
 538,  580,  573,  604,  577,  888,  881,  912,  885
 539,  612,  502,  505,  576,  920,  810,  813,  884
 540,  516,  609,  579,  566,  824,  917,  887,  874
 541,  570,  578,  577,  604,  878,  886,  885,  912
 542,  579,  572,  573,  580,  887,  880,  881,  888
 543,  611,  572,  612,  576,  919,  880,  920,  884
 544,  419,  374,  413,  582,  727,  682,  721,  890
 545,  587,  406,  583,  592,  895,  714,  891,  900
 546,  449,  404,  361,  584,  757,  712,  669,  892
 547,  452,  405,  403,  585,  760,  713,  711,  893
 548,  412,  372,  392,  427,  720,  680,  700,  735
 549,  590,  587,  592,  591,  898,  895,  900,  899
 550,  591,  518,  525,  590,  899,  826,  833,  898
 551,  593,  605,  489,  485,  901,  913,  797,  793
 552,  606,  616,  557,  598,  914,  924,  865,  906
 553,  500,  497,  512,  599,  808,  805,  820,  907
 554,  495,  491,  598,  600,  803,  799,  906,  908
 555,  607,  539,  601,  602,  915,  847,  909,  910
 556,  608,  607,  602,  603,  916,  915,  910,  911
 557,  595,  530,  603,  602,  903,  838,  911,  910
 558,  615,  546,  539,  607,  923,  854,  847,  915
 559,  612,  609,  496,  502,  920,  917,  804,  810
 560,  515,  511,  558,  614,  823,  819,  866,  922
 561,  546,  615,  616,  606,  854,  923,  924,  914
 562,  608,  555,  557,  616,  916,  863,  865,  924
 563,  713,  617,  632,  711, 1021,  925,  940, 1019
 564,  711,  632,  648,  712, 1019,  940,  956, 1020
 565,  691,  649,  619,  689,  999,  957,  927,  997
 566,  835,  892,  669,  690, 1143, 1200,  977,  998
 567,  835,  690,  710,  714, 1143,  998, 1018, 1022
 568,  715,  747,  853,  761, 1023, 1055, 1161, 1069
 569,  695,  653,  623,  685, 1003,  961,  931,  993
 570,  749,  693,  706,  725, 1057, 1001, 1014, 1033
 571,  677,  655,  625,  676,  985,  963,  933,  984
 572,  640,  675,  705,  663,  948,  983, 1013,  971
 573,  678,  626,  656,  698,  986,  934,  964, 1006
 574,  741,  677,  676,  718, 1049,  985,  984, 1026
 575,  780,  776,  741,  718, 1088, 1084, 1049, 1026
 576,  741,  776,  773,  719, 1049, 1084, 1081, 1027
 577,  658,  700,  680,  629,  966, 1008,  988,  937
 578,  736,  631,  630,  681, 1044,  939,  938,  989
 579,  720,  834,  681,  680, 1028, 1142,  989,  988
 580,  635,  721,  682,  636,  943, 1029,  990,  944
 581,  701,  659,  636,  682, 1009,  967,  944,  990
 582,  852,  727,  890,  759, 1160, 1035, 1198, 1067
 583,  736,  681,  834,  889, 1044,  989, 1142, 1197
 584,  889,  828,  842,  758, 1197, 1136, 1150, 1066
 585,  752,  703,  697,  751, 1060, 1011, 1005, 1059
 586,  771,  755,  749,  902, 1079, 1063, 1057, 1210
 587,  694,  652,  651,  672, 1002,  960,  959,  980
 588,  622,  686,  672,  651,  930,  994,  980,  959
 589,  891,  744,  688,  791, 1199, 1052,  996, 1099
 590,  712,  648,  647,  669, 1020,  956,  955,  977
 591,  687,  621,  620,  670,  995,  929,  928,  978
 592,  688,  644,  667,  709,  996,  952,  975, 1017
 593,  755,  707,  693,  749, 1063, 1015, 1001, 1057
 594,  653,  695,  674,  624,  961, 1003,  982,  932
 595,  696,  654,  624,  674, 1004,  962,  932,  982
 596,  698,  656,  655,  677, 1006,  964,  963,  985
 597,  637,  683,  684,  638,  945,  991,  992,  946
 598,  679,  627,  657,  699,  987,  935,  965, 1007
 599,  827,  832,  828,  814, 1135, 1140, 1136, 1122
 600,  682,  727,  728,  701,  990, 1035, 1036, 1009
 601,  701,  728,  734,  683, 1009, 1036, 1042,  991
 602,  662,  704,  675,  640,  970, 1012,  983,  948
 603,  663,  705,  673,  641,  971, 1013,  981,  949
 604,  707,  665,  642,  693, 1015,  973,  950, 1001
 605,  791,  688,  709,  724, 1099,  996, 1017, 1032
 606,  744,  645,  644,  688, 1052,  953,  952,  996
 607,  669,  647,  646,  690,  977,  955,  954,  998
 608,  670,  620,  649,  691,  978,  928,  957,  999
 609,  692,  650,  621,  687, 1000,  958,  929,  995
 610,  650,  692,  686,  622,  958, 1000,  994,  930
 611,  666,  708,  671,  643,  974, 1016,  979,  951
 612,  709,  667,  643,  671, 1017,  975,  951,  979
 613,  742,  694,  672,  723, 1050, 1002,  980, 1031
 614,  685,  623,  652,  694,  993,  931,  960, 1002
 615,  706,  664,  641,  673, 1014,  972,  949,  981
 616,  693,  642,  664,  706, 1001,  950,  972, 1014
 617,  695,  750,  717,  674, 1003, 1058, 1025,  982
 618,  676,  625,  654,  696,  984,  933,  962, 1004
 619,  639,  697,  703,  661,  947, 1005, 1011,  969
 620,  675,  732,  754,  705,  983, 1040, 1062, 1013
 621,  719,  698,  677,  741, 1027, 1006,  985, 1049
 622,  699,  657,  626,  678, 1007,  965,  934,  986
 623,  735,  628,  627,  679, 1043,  936,  935,  987
 624,  897,  762,  858,  871, 1205, 1070, 1166, 1179
 625,  628,  735,  700,  658,  936, 1043, 1008,  966
 626,  697,  639,  660,  702, 1005,  947,  968, 1010
 627,  681,  630,  629,  680,  989,  938,  937,  988
 628,  702,  660,  638,  684, 1010,  968,  946,  992
 629,  737,  633,  631,  736, 1045,  941,  939, 1044
 630,  738,  634,  633,  737, 1046,  942,  941, 1045
 631,  683,  637,  659,  701,  991,  945,  967, 1009
 632,  790,  679,  699,  726, 1098,  987, 1007, 1034
 633,  777,  751,  740,  774, 1085, 1059, 1048, 1082
 634,  739,  678,  698,  719, 1047,  986, 1006, 1027
 635,  794,  796,  818,  831, 1102, 1104, 1126, 1139
 636,  686,  730,  723,  672,  994, 1038, 1031,  980
 637,  645,  744,  710,  668,  953, 1052, 1018,  976
 638,  715,  670,  691,  747, 1023,  978,  999, 1055
 639,  843,  860,  760,  893, 1151, 1168, 1068, 1201
 640,  617,  713,  746,  618,  925, 1021, 1054,  926
 641,  668,  710,  690,  646,  976, 1018,  998,  954
 642,  829,  757,  892,  835, 1137, 1065, 1200, 1143
 643,  743,  687,  670,  715, 1051,  995,  978, 1023
 644,  763,  768,  748,  743, 1071, 1076, 1056, 1051
 645,  708,  666,  665,  707, 1016,  974,  973, 1015
 646,  755,  771,  767,  756, 1063, 1079, 1075, 1064
 647,  799,  803,  775,  772, 1107, 1111, 1083, 1080
 648,  704,  662,  661,  703, 1012,  970,  969, 1011
 649,  897,  765,  896,  762, 1205, 1073, 1204, 1070
 650,  739,  719,  773,  769, 1047, 1027, 1081, 1077
 651,  705,  754,  716,  673, 1013, 1062, 1024,  981
 652,  775,  778,  742,  723, 1083, 1086, 1050, 1031
 653,  671,  729,  724,  709,  979, 1037, 1032, 1017
 654,  893,  711,  712,  757, 1201, 1019, 1020, 1065
 655,  689,  619,  618,  746,  997,  927,  926, 1054
 656,  745,  689,  746,  894, 1053,  997, 1054, 1202
 657,  689,  745,  747,  691,  997, 1053, 1055,  999
 658,  714,  710,  744,  891, 1022, 1018, 1052, 1199
 659,  748,  692,  687,  743, 1056, 1000,  995, 1051
 660,  685,  731,  750,  695,  993, 1039, 1058, 1003
 661,  725,  706,  673,  716, 1033, 1014,  981, 1024
 662,  733,  696,  674,  717, 1041, 1004,  982, 1025
 663,  718,  676,  696,  733, 1026,  984, 1004, 1041
 664,  678,  739,  726,  699,  986, 1047, 1034, 1007
 665,  702,  740,  751,  697, 1010, 1048, 1059, 1005
 666,  896,  728,  727,  762, 1204, 1036, 1035, 1070
 667,  790,  720,  735,  679, 1098, 1028, 1043,  987
 668,  759,  738,  737,  758, 1067, 1046, 1045, 1066
 669,  634,  738,  721,  635,  942, 1046, 1029,  943
 670,  740,  702,  684,  722, 1048, 1010,  992, 1030
 671,  731,  685,  694,  742, 1039,  993, 1002, 1050
 672,  893,  757,  829,  843, 1201, 1065, 1137, 1151
 673,  827,  814,  790,  816, 1135, 1122, 1098, 1124
 674,  736,  889,  758,  737, 1044, 1197, 1066, 1045
 675,  722,  684,  683,  734, 1030,  992,  991, 1042
 676,  770,  722,  734,  765, 1078, 1030, 1042, 1073
 677,  708,  756,  729,  671, 1016, 1064, 1037,  979
 678,  724,  817,  815,  791, 1032, 1125, 1123, 1099
 679,  768,  772,  730,  748, 1076, 1080, 1038, 1056
 680,  812,  788,  782,  808, 1120, 1096, 1090, 1116
 681,  704,  753,  732,  675, 1012, 1061, 1040,  983
 682,  807,  781,  777,  801, 1115, 1089, 1085, 1109
 683,  774,  740,  722,  770, 1082, 1048, 1030, 1078
 684,  721,  738,  759,  890, 1029, 1046, 1067, 1198
 685,  753,  704,  703,  752, 1061, 1012, 1011, 1060
 686,  730,  686,  692,  748, 1038,  994, 1000, 1056
 687,  849,  843,  829,  833, 1157, 1151, 1137, 1141
 688,  713,  760,  894,  746, 1021, 1068, 1202, 1054
 689,  743,  715,  761,  763, 1051, 1023, 1069, 1071
 690,  756,  708,  707,  755, 1064, 1016, 1015, 1063
 691,  784,  780,  718,  733, 1092, 1088, 1026, 1041
 692,  785,  753,  752,  781, 1093, 1061, 1060, 1089
 693,  801,  777,  774,  797, 1109, 1085, 1082, 1105
 694,  913,  870,  801,  797, 1221, 1178, 1109, 1105
 695,  902,  749,  725,  779, 1210, 1057, 1033, 1087
 696,  833,  829,  895,  898, 1141, 1137, 1203, 1206
 697,  763,  761,  859,  872, 1071, 1069, 1167, 1180
 698,  895,  829,  835,  714, 1203, 1137, 1143, 1022
 699,  848,  842,  828,  832, 1156, 1150, 1136, 1140
 700,  889,  834,  814,  828, 1197, 1142, 1122, 1136
 701,  858,  762,  727,  852, 1166, 1070, 1035, 1160
 702,  747,  745,  860,  853, 1055, 1053, 1168, 1161
 703,  899,  817,  837,  826, 1207, 1125, 1145, 1134
 704,  839,  827,  816,  836, 1147, 1135, 1124, 1144
 705,  765,  734,  728,  896, 1073, 1042, 1036, 1204
 706,  772,  775,  723,  730, 1080, 1083, 1031, 1038
 707,  764,  729,  756,  767, 1072, 1037, 1064, 1075
 708,  817,  724,  729,  764, 1125, 1032, 1037, 1072
 709,  781,  752,  751,  777, 1089, 1060, 1059, 1085
 710,  726,  739,  769,  766, 1034, 1047, 1077, 1074
 711,  872,  792,  768,  763, 1180, 1100, 1076, 1071
 712,  778,  782,  731,  742, 1086, 1090, 1039, 1050
 713,  765,  897,  793,  770, 1073, 1205, 1101, 1078
 714,  787,  732,  753,  785, 1095, 1040, 1061, 1093
 715,  782,  788,  750,  731, 1090, 1096, 1058, 1039
 716,  809,  812,  822,  883, 1117, 1120, 1130, 1191
 717,  786,  754,  732,  787, 1094, 1062, 1040, 1095
 718,  811,  785,  781,  807, 1119, 1093, 1089, 1115
 719,  805,  778,  775,  803, 1113, 1086, 1083, 1111
 720,  716,  783,  779,  725, 1024, 1091, 1087, 1033
 721,  771,  902,  796,  767, 1079, 1210, 1104, 1075
 722,  776,  798,  795,  773, 1084, 1106, 1103, 1081
 723,  824,  818,  796,  800, 1132, 1126, 1104, 1108
 724,  770,  793,  797,  774, 1078, 1101, 1105, 1082
 725,  789,  784,  733,  717, 1097, 1092, 1041, 1025
 726,  812,  808,  907,  822, 1120, 1116, 1215, 1130
 727,  786,  810,  804,  783, 1094, 1118, 1112, 1091
 728,  754,  786,  783,  716, 1062, 1094, 1091, 1024
 729,  796,  902,  779,  800, 1104, 1210, 1087, 1108
 730,  823,  807,  801,  819, 1131, 1115, 1109, 1127
 731,  919,  811,  807,  823, 1227, 1119, 1115, 1131
 732,  783,  804,  800,  779, 1091, 1112, 1108, 1087
 733,  717,  750,  788,  789, 1025, 1058, 1096, 1097
 734,  780,  784,  806,  802, 1088, 1092, 1114, 1110
 735,  834,  720,  790,  814, 1142, 1028, 1098, 1122
 736,  815,  900,  891,  791, 1123, 1208, 1199, 1099
 737,  900,  815,  817,  899, 1208, 1123, 1125, 1207
 738,  799,  772,  768,  792, 1107, 1080, 1076, 1100
 739,  764,  767,  796,  794, 1072, 1075, 1104, 1102
 740,  766,  769,  773,  795, 1074, 1077, 1081, 1103
 741,  820,  908,  906,  865, 1128, 1216, 1214, 1173
 742,  813,  787,  785,  811, 1121, 1095, 1093, 1119
 743,  798,  776,  780,  802, 1106, 1084, 1088, 1110
 744,  864,  855,  846,  850, 1172, 1163, 1154, 1158
 745,  808,  782,  778,  805, 1116, 1090, 1086, 1113
 746,  811,  919,  884,  813, 1119, 1227, 1192, 1121
 747,  888,  877,  874,  887, 1196, 1185, 1182, 1195
 748,  912,  868,  904,  878, 1220, 1176, 1212, 1186
 749,  809,  789,  788,  812, 1117, 1097, 1096, 1120
 750,  875,  918,  822,  907, 1183, 1226, 1130, 1215
 751,  789,  809,  806,  784, 1097, 1117, 1114, 1092
 752,  798,  802,  806,  821, 1106, 1110, 1114, 1129
 753,  877,  888,  885,  921, 1185, 1196, 1193, 1229
 754,  918,  879,  883,  822, 1226, 1187, 1191, 1130
 755,  873,  821,  806,  825, 1181, 1129, 1114, 1133
 756,  787,  813,  810,  786, 1095, 1121, 1118, 1094
 757,  917,  824,  800,  804, 1225, 1132, 1108, 1112
 758,  876,  881,  880,  919, 1184, 1189, 1188, 1227
 759,  832,  827,  839,  840, 1140, 1135, 1147, 1148
 760,  910,  909,  841,  903, 1218, 1217, 1149, 1211
 761,  790,  726,  766,  816, 1098, 1034, 1074, 1124
 762,  838,  831,  851,  911, 1146, 1139, 1159, 1219
 763,  795,  798,  821,  830, 1103, 1106, 1129, 1138
 764,  870,  855,  819,  801, 1178, 1163, 1127, 1109
 765,  820,  805,  803,  908, 1128, 1113, 1111, 1216
 766,  806,  809,  883,  825, 1114, 1117, 1191, 1133
 767,  851,  844,  867,  863, 1159, 1152, 1175, 1171
 768,  880,  887,  917,  920, 1188, 1195, 1225, 1228
 769,  877,  867,  844,  874, 1185, 1175, 1152, 1182
 770,  878,  904,  845,  873, 1186, 1212, 1153, 1181
 771,  837,  794,  831,  838, 1145, 1102, 1139, 1146
 772,  838,  903,  826,  837, 1146, 1211, 1134, 1145
 773,  839,  836,  795,  830, 1147, 1144, 1103, 1138
 774,  840,  839,  850,  846, 1148, 1147, 1158, 1154
 775,  915,  916,  924,  923, 1223, 1224, 1232, 1231
 776,  832,  840,  856,  848, 1140, 1148, 1164, 1156
 777,  833,  841,  857,  849, 1141, 1149, 1165, 1157
 778,  816,  766,  795,  836, 1124, 1074, 1103, 1144
 779,  817,  764,  794,  837, 1125, 1072, 1102, 1145
 780,  903,  841,  833,  826, 1211, 1149, 1141, 1134
 781,  911,  851,  863,  916, 1219, 1159, 1171, 1224
 782,  852,  842,  848,  858, 1160, 1150, 1156, 1166
 783,  761,  853,  849,  859, 1069, 1161, 1157, 1167
 784,  758,  842,  852,  759, 1066, 1150, 1160, 1067
 785,  849,  853,  860,  843, 1157, 1161, 1168, 1151
 786,  875,  865,  863,  867, 1183, 1173, 1171, 1175
 787,  844,  851,  831,  818, 1152, 1159, 1139, 1126
 788,  904,  868,  866,  864, 1212, 1176, 1174, 1172
 789,  873,  845,  830,  821, 1181, 1153, 1138, 1129
 790,  856,  862,  901,  871, 1164, 1170, 1209, 1179
 791,  849,  857,  861,  859, 1157, 1165, 1169, 1167
 792,  839,  830,  845,  850, 1147, 1138, 1153, 1158
 793,  871,  858,  848,  856, 1179, 1166, 1156, 1164
 794,  854,  861,  857,  847, 1162, 1169, 1165, 1155
 795,  840,  846,  862,  856, 1148, 1154, 1170, 1164
 796,  819,  855,  864,  866, 1127, 1163, 1172, 1174
 797,  905,  872,  859,  861, 1213, 1180, 1167, 1169
 798,  841,  909,  847,  857, 1149, 1217, 1155, 1165
 799,  760,  860,  745,  894, 1068, 1168, 1053, 1202
 800,  906,  799,  792,  869, 1214, 1107, 1100, 1177
 801,  870,  862,  846,  855, 1178, 1170, 1154, 1163
 802,  922,  866,  868,  876, 1230, 1174, 1176, 1184
 803,  904,  864,  850,  845, 1212, 1172, 1158, 1153
 804,  914,  905,  861,  854, 1222, 1213, 1169, 1162
 805,  865,  875,  907,  820, 1173, 1183, 1215, 1128
 806,  919,  823,  922,  876, 1227, 1131, 1230, 1184
 807,  879,  921,  885,  886, 1187, 1229, 1193, 1194
 808,  921,  882,  867,  877, 1229, 1190, 1175, 1185
 809,  912,  881,  876,  868, 1220, 1189, 1184, 1176
 810,  906,  869,  905,  914, 1214, 1177, 1213, 1222
 811,  913,  901,  862,  870, 1221, 1209, 1170, 1178
 812,  793,  897,  871,  901, 1101, 1205, 1179, 1209
 813,  869,  792,  872,  905, 1177, 1100, 1180, 1213
 814,  874,  844,  818,  824, 1182, 1152, 1126, 1132
 815,  879,  886,  825,  883, 1187, 1194, 1133, 1191
 816,  918,  875,  867,  882, 1226, 1183, 1175, 1190
 817,  825,  886,  878,  873, 1133, 1194, 1186, 1181
 818,  882,  921,  879,  918, 1190, 1229, 1187, 1226
 819,  888,  881,  912,  885, 1196, 1189, 1220, 1193
 820,  920,  810,  813,  884, 1228, 1118, 1121, 1192
 821,  824,  917,  887,  874, 1132, 1225, 1195, 1182
 822,  878,  886,  885,  912, 1186, 1194, 1193, 1220
 823,  887,  880,  881,  888, 1195, 1188, 1189, 1196
 824,  919,  880,  920,  884, 1227, 1188, 1228, 1192
 825,  727,  682,  721,  890, 1035,  990, 1029, 1198
 826,  895,  714,  891,  900, 1203, 1022, 1199, 1208
 827,  757,  712,  669,  892, 1065, 1020,  977, 1200
 828,  760,  713,  711,  893, 1068, 1021, 1019, 1201
 829,  720,  680,  700,  735, 1028,  988, 1008, 1043
 830,  898,  895,  900,  899, 1206, 1203, 1208, 1207
 831,  899,  826,  833,  898, 1207, 1134, 1141, 1206
 832,  901,  913,  797,  793, 1209, 1221, 1105, 1101
 833,  914,  924,  865,  906, 1222, 1232, 1173, 1214
 834,  808,  805,  820,  907, 1116, 1113, 1128, 1215
 835,  803,  799,  906,  908, 1111, 1107, 1214, 1216
 836,  915,  847,  909,  910, 1223, 1155, 1217, 1218
 837,  916,  915,  910,  911, 1224, 1223, 1218, 1219
 838,  903,  838,  911,  910, 1211, 1146, 1219, 1218
 839,  923,  854,  847,  915, 1231, 1162, 1155, 1223
 840,  920,  917,  804,  810, 1228, 1225, 1112, 1118
 841,  823,  819,  866,  922, 1131, 1127, 1174, 1230
 842,  854,  923,  924,  914, 1162, 1231, 1232, 1222
 843,  916,  863,  865,  924, 1224, 1171, 1173, 1232
 844, 1021,  925,  940, 1019, 1329, 1233, 1248, 1327
 845, 1019,  940,  956, 1020, 1327, 1248, 1264, 1328
 846,  999,  957,  927,  997, 1307, 1265, 1235, 1305
 847, 1143, 1200,  977,  998, 1451, 1508, 1285, 1306
 848, 1143,  998, 1018, 1022, 1451, 1306, 1326, 1330
 849, 1023, 1055, 1161, 1069, 1331, 1363, 1469, 1377
 850, 1003,  961,  931,  993, 1311, 1269, 1239, 1301
 851, 1057, 1001, 1014, 1033, 1365, 1309, 1322, 1341
 852,  985,  963,  933,  984, 1293, 1271, 1241, 1292
 853,  948,  983, 1013,  971, 1256, 1291, 1321, 1279
 854,  986,  934,  964, 1006, 1294, 1242, 1272, 1314
 855, 1049,  985,  984, 1026, 1357, 1293, 1292, 1334
 856, 1088, 1084, 1049, 1026, 1396, 1392, 1357, 1334
 857, 1049, 1084, 1081, 1027, 1357, 1392, 1389, 1335
 858,  966, 1008,  988,  937, 1274, 1316, 1296, 1245
 859, 1044,  939,  938,  989, 1352, 1247, 1246, 1297
 860, 1028, 1142,  989,  988, 1336, 1450, 1297, 1296
 861,  943, 1029,  990,  944, 1251, 1337, 1298, 1252
 862, 1009,  967,  944,  990, 1317, 1275, 1252, 1298
 863, 1160, 1035, 1198, 1067, 1468, 1343, 1506, 1375
 864, 1044,  989, 1142, 1197, 1352, 1297, 1450, 1505
 865, 1197, 1136, 1150, 1066, 1505, 1444, 1458, 1374
 866, 1060, 1011, 1005, 1059, 1368, 1319, 1313, 1367
 867, 1079, 1063, 1057, 1210, 1387, 1371, 1365, 1518
 868, 1002,  960,  959,  980, 1310, 1268, 1267, 1288
 869,  930,  994,  980,  959, 1238, 1302, 1288, 1267
 870, 1199, 1052,  996, 1099, 1507, 1360, 1304, 1407
 871, 1020,  956,  955,  977, 1328, 1264, 1263, 1285
 872,  995,  929,  928,  978, 1303, 1237, 1236, 1286
 873,  996,  952,  975, 1017, 1304, 1260, 1283, 1325
 874, 1063, 1015, 1001, 1057, 1371, 1323, 1309, 1365
 875,  961, 1003,  982,  932, 1269, 1311, 1290, 1240
 876, 1004,  962,  932,  982, 1312, 1270, 1240, 1290
 877, 1006,  964,  963,  985, 1314, 1272, 1271, 1293
 878,  945,  991,  992,  946, 1253, 1299, 1300, 1254
 879,  987,  935,  965, 1007, 1295, 1243, 1273, 1315
 880, 1135, 1140, 1136, 1122, 1443, 1448, 1444, 1430
 881,  990, 1035, 1036, 1009, 1298, 1343, 1344, 1317
 882, 1009, 1036, 1042,  991, 1317, 1344, 1350, 1299
 883,  970, 1012,  983,  948, 1278, 1320, 1291, 1256
 884,  971, 1013,  981,  949, 1279, 1321, 1289, 1257
 885, 1015,  973,  950, 1001, 1323, 1281, 1258, 1309
 886, 1099,  996, 1017, 1032, 1407, 1304, 1325, 1340
 887, 1052,  953,  952,  996, 1360, 1261, 1260, 1304
 888,  977,  955,  954,  998, 1285, 1263, 1262, 1306
 889,  978,  928,  957,  999, 1286, 1236, 1265, 1307
 890, 1000,  958,  929,  995, 1308, 1266, 1237, 1303
 891,  958, 1000,  994,  930, 1266, 1308, 1302, 1238
 892,  974, 1016,  979,  951, 1282, 1324, 1287, 1259
 893, 1017,  975,  951,  979, 1325, 1283, 1259, 1287
 894, 1050, 1002,  980, 1031, 1358, 1310, 1288, 1339
 895,  993,  931,  960, 1002, 1301, 1239, 1268, 1310
 896, 1014,  972,  949,  981, 1322, 1280, 1257, 1289
 897, 1001,  950,  972, 1014, 1309, 1258, 1280, 1322
 898, 1003, 1058, 1025,  982, 1311, 1366, 1333, 1290
 899,  984,  933,  962, 1004, 1292, 1241, 1270, 1312
 900,  947, 1005, 1011,  969, 1255, 1313, 1319, 1277
 901,  983, 1040, 1062, 1013, 1291, 1348, 1370, 1321
 902, 1027, 1006,  985, 1049, 1335, 1314, 1293, 1357
 903, 1007,  965,  934,  986, 1315, 1273, 1242, 1294
 904, 1043,  936,  935,  987, 1351, 1244, 1243, 1295
 905, 1205, 1070, 1166, 1179, 1513, 1378, 1474, 1487
 906,  936, 1043, 1008,  966, 1244, 1351, 1316, 1274
 907, 1005,  947,  968, 1010, 1313, 1255, 1276, 1318
 908,  989,  938,  937,  988, 1297, 1246, 1245, 1296
 909, 1010,  968,  946,  992, 1318, 1276, 1254, 1300
 910, 1045,  941,  939, 1044, 1353, 1249, 1247, 1352
 911, 1046,  942,  941, 1045, 1354, 1250, 1249, 1353
 912,  991,  945,  967, 1009, 1299, 1253, 1275, 1317
 913, 1098,  987, 1007, 1034, 1406, 1295, 1315, 1342
 914, 1085, 1059, 1048, 1082, 1393, 1367, 1356, 1390
 915, 1047,  986, 1006, 1027, 1355, 1294, 1314, 1335
 916, 1102, 1104, 1126, 1139, 1410, 1412, 1434, 1447
 917,  994, 1038, 1031,  980, 1302, 1346, 1339, 1288
 918,  953, 1052, 1018,  976, 1261, 1360, 1326, 1284
 919, 1023,  978,  999, 1055, 1331, 1286, 1307, 1363
 920, 1151, 1168, 1068, 1201, 1459, 1476, 1376, 1509
 921,  925, 1021, 1054,  926, 1233, 1329, 1362, 1234
 922,  976, 1018,  998,  954, 1284, 1326, 1306, 1262
 923, 1137, 1065, 1200, 1143, 1445, 1373, 1508, 1451
 924, 1051,  995,  978, 1023, 1359, 1303, 1286, 1331
 925, 1071, 1076, 1056, 1051, 1379, 1384, 1364, 1359
 926, 1016,  974,  973, 1015, 1324, 1282, 1281, 1323
 927, 1063, 1079, 1075, 1064, 1371, 1387, 1383, 1372
 928, 1107, 1111, 1083, 1080, 1415, 1419, 1391, 1388
 929, 1012,  970,  969, 1011, 1320, 1278, 1277, 1319
 930, 1205, 1073, 1204, 1070, 1513, 1381, 1512, 1378
 931, 1047, 1027, 1081, 1077, 1355, 1335, 1389, 1385
 932, 1013, 1062, 1024,  981, 1321, 1370, 1332, 1289
 933, 1083, 1086, 1050, 1031, 1391, 1394, 1358, 1339
 934,  979, 1037, 1032, 1017, 1287, 1345, 1340, 1325
 935, 1201, 1019, 1020, 1065, 1509, 1327, 1328, 1373
 936,  997,  927,  926, 1054, 1305, 1235, 1234, 1362
 937, 1053,  997, 1054, 1202, 1361, 1305, 1362, 1510
 938,  997, 1053, 1055,  999, 1305, 1361, 1363, 1307
 939, 1022, 1018, 1052, 1199, 1330, 1326, 1360, 1507
 940, 1056, 1000,  995, 1051, 1364, 1308, 1303, 1359
 941,  993, 1039, 1058, 1003, 1301, 1347, 1366, 1311
 942, 1033, 1014,  981, 1024, 1341, 1322, 1289, 1332
 943, 1041, 1004,  982, 1025, 1349, 1312, 1290, 1333
 944, 1026,  984, 1004, 1041, 1334, 1292, 1312, 1349
 945,  986, 1047, 1034, 1007, 1294, 1355, 1342, 1315
 946, 1010, 1048, 1059, 1005, 1318, 1356, 1367, 1313
 947, 1204, 1036, 1035, 1070, 1512, 1344, 1343, 1378
 948, 1098, 1028, 1043,  987, 1406, 1336, 1351, 1295
 949, 1067, 1046, 1045, 1066, 1375, 1354, 1353, 1374
 950,  942, 1046, 1029,  943, 1250, 1354, 1337, 1251
 951, 1048, 1010,  992, 1030, 1356, 1318, 1300, 1338
 952, 1039,  993, 1002, 1050, 1347, 1301, 1310, 1358
 953, 1201, 1065, 1137, 1151, 1509, 1373, 1445, 1459
 954, 1135, 1122, 1098, 1124, 1443, 1430, 1406, 1432
 955, 1044, 1197, 1066, 1045, 1352, 1505, 1374, 1353
 956, 1030,  992,  991, 1042, 1338, 1300, 1299, 1350
 957, 1078, 1030, 1042, 1073, 1386, 1338, 1350, 1381
 958, 1016, 1064, 1037,  979, 1324, 1372, 1345, 1287
 959, 1032, 1125, 1123, 1099, 1340, 1433, 1431, 1407
 960, 1076, 1080, 1038, 1056, 1384, 1388, 1346, 1364
 961, 1120, 1096, 1090, 1116, 1428, 1404, 1398, 1424
 962, 1012, 1061, 1040,  983, 1320, 1369, 1348, 1291
 963, 1115, 1089, 1085, 1109, 1423, 1397, 1393, 1417
 964, 1082, 1048, 1030, 1078, 1390, 1356, 1338, 1386
 965, 1029, 1046, 1067, 1198, 1337, 1354, 1375, 1506
 966, 1061, 1012, 1011, 1060, 1369, 1320, 1319, 1368
 967, 1038,  994, 1000, 1056, 1346, 1302, 1308, 1364
 968, 1157, 1151, 1137, 1141, 1465, 1459, 1445, 1449
 969, 1021, 1068, 1202, 1054, 1329, 1376, 1510, 1362
 970, 1051, 1023, 1069, 1071, 1359, 1331, 1377, 1379
 971, 1064, 1016, 1015, 1063, 1372, 1324, 1323, 1371
 972, 1092, 1088, 1026, 1041, 1400, 1396, 1334, 1349
 973, 1093, 1061, 1060, 1089, 1401, 1369, 1368, 1397
 974, 1109, 1085, 1082, 1105, 1417, 1393, 1390, 1413
 975, 1221, 1178, 1109, 1105, 1529, 1486, 1417, 1413
 976, 1210, 1057, 1033, 1087, 1518, 1365, 1341, 1395
 977, 1141, 1137, 1203, 1206, 1449, 1445, 1511, 1514
 978, 1071, 1069, 1167, 1180, 1379, 1377, 1475, 1488
 979, 1203, 1137, 1143, 1022, 1511, 1445, 1451, 1330
 980, 1156, 1150, 1136, 1140, 1464, 1458, 1444, 1448
 981, 1197, 1142, 1122, 1136, 1505, 1450, 1430, 1444
 982, 1166, 1070, 1035, 1160, 1474, 1378, 1343, 1468
 983, 1055, 1053, 1168, 1161, 1363, 1361, 1476, 1469
 984, 1207, 1125, 1145, 1134, 1515, 1433, 1453, 1442
 985, 1147, 1135, 1124, 1144, 1455, 1443, 1432, 1452
 986, 1073, 1042, 1036, 1204, 1381, 1350, 1344, 1512
 987, 1080, 1083, 1031, 1038, 1388, 1391, 1339, 1346
 988, 1072, 1037, 1064, 1075, 1380, 1345, 1372, 1383
 989, 1125, 1032, 1037, 1072, 1433, 1340, 1345, 1380
 990, 1089, 1060, 1059, 1085, 1397, 1368, 1367, 1393
 991, 1034, 1047, 1077, 1074, 1342, 1355, 1385, 1382
 992, 1180, 1100, 1076, 1071, 1488, 1408, 1384, 1379
 993, 1086, 1090, 1039, 1050, 1394, 1398, 1347, 1358
 994, 1073, 1205, 1101, 1078, 1381, 1513, 1409, 1386
 995, 1095, 1040, 1061, 1093, 1403, 1348, 1369, 1401
 996, 1090, 1096, 1058, 1039, 1398, 1404, 1366, 1347
 997, 1117, 1120, 1130, 1191, 1425, 1428, 1438, 1499
 998, 1094, 1062, 1040, 1095, 1402, 1370, 1348, 1403
 999, 1119, 1093, 1089, 1115, 1427, 1401, 1397, 1423
1000, 1113, 1086, 1083, 1111, 1421, 1394, 1391, 1419
1001, 1024, 1091, 1087, 1033, 1332, 1399, 1395, 1341
1002, 1079, 1210, 1104, 1075, 1387, 1518, 1412, 1383
1003, 1084, 1106, 1103, 1081, 1392, 1414, 1411, 1389
1004, 1132, 1126, 1104, 1108, 1440, 1434, 1412, 1416
1005, 1078, 1101, 1105, 1082, 1386, 1409, 1413, 1390
1006, 1097, 1092, 1041, 1025, 1405, 1400, 1349, 1333
1007, 1120, 1116, 1215, 1130, 1428, 1424, 1523, 1438
1008, 1094, 1118, 1112, 1091, 1402, 1426, 1420, 1399
1009, 1062, 1094, 1091, 1024, 1370, 1402, 1399, 1332
1010, 1104, 1210, 1087, 1108, 1412, 1518, 1395, 1416
1011, 1131, 1115, 1109, 1127, 1439, 1423, 1417, 1435
1012, 1227, 1119, 1115, 1131, 1535, 1427, 1423, 1439
1013, 1091, 1112, 1108, 1087, 1399, 1420, 1416, 1395
1014, 1025, 1058, 1096, 1097, 1333, 1366, 1404, 1405
1015, 1088, 1092, 1114, 1110, 1396, 1400, 1422, 1418
1016, 1142, 1028, 1098, 1122, 1450, 1336, 1406, 1430
1017, 1123, 1208, 1199, 1099, 1431, 1516, 1507, 1407
1018, 1208, 1123, 1125, 1207, 1516, 1431, 1433, 1515
1019, 1107, 1080, 1076, 1100, 1415, 1388, 1384, 1408
1020, 1072, 1075, 1104, 1102, 1380, 1383, 1412, 1410
1021, 1074, 1077, 1081, 1103, 1382, 1385, 1389, 1411
1022, 1128, 1216, 1214, 1173, 1436, 1524, 1522, 1481
1023, 1121, 1095, 1093, 1119, 1429, 1403, 1401, 1427
1024, 1106, 1084, 1088, 1110, 1414, 1392, 1396, 1418
1025, 1172, 1163, 1154, 1158, 1480, 1471, 1462, 1466
1026, 1116, 1090, 1086, 1113, 1424, 1398, 1394, 1421
1027, 1119, 1227, 1192, 1121, 1427, 1535, 1500, 1429
1028, 1196, 1185, 1182, 1195, 1504, 1493, 1490, 1503
1029, 1220, 1176, 1212, 1186, 1528, 1484, 1520, 1494
1030, 1117, 1097, 1096, 1120, 1425, 1405, 1404, 1428
1031, 1183, 1226, 1130, 1215, 1491, 1534, 1438, 1523
1032, 1097, 1117, 1114, 1092, 1405, 1425, 1422, 1400
1033, 1106, 1110, 1114, 1129, 1414, 1418, 1422, 1437
1034, 1185, 1196, 1193, 1229, 1493, 1504, 1501, 1537
1035, 1226, 1187, 1191, 1130, 1534, 1495, 1499, 1438
1036, 1181, 1129, 1114, 1133, 1489, 1437, 1422, 1441
1037, 1095, 1121, 1118, 1094, 1403, 1429, 1426, 1402
1038, 1225, 1132, 1108, 1112, 1533, 1440, 1416, 1420
1039, 1184, 1189, 1188, 1227, 1492, 1497, 1496, 1535
1040, 1140, 1135, 1147, 1148, 1448, 1443, 1455, 1456
1041, 1218, 1217, 1149, 1211, 1526, 1525, 1457, 1519
1042, 1098, 1034, 1074, 1124, 1406, 1342, 1382, 1432
1043, 1146, 1139, 1159, 1219, 1454, 1447, 1467, 1527
1044, 1103, 1106, 1129, 1138, 1411, 1414, 1437, 1446
1045, 1178, 1163, 1127, 1109, 1486, 1471, 1435, 1417
1046, 1128, 1113, 1111, 1216, 1436, 1421, 1419, 1524
1047, 1114, 1117, 1191, 1133, 1422, 1425, 1499, 1441
1048, 1159, 1152, 1175, 1171, 1467, 1460, 1483, 1479
1049, 1188, 1195, 1225, 1228, 1496, 1503, 1533, 1536
1050, 1185, 1175, 1152, 1182, 1493, 1483, 1460, 1490
1051, 1186, 1212, 1153, 1181, 1494, 1520, 1461, 1489
1052, 1145, 1102, 1139, 1146, 1453, 1410, 1447, 1454
1053, 1146, 1211, 1134, 1145, 1454, 1519, 1442, 1453
1054, 1147, 1144, 1103, 1138, 1455, 1452, 1411, 1446
1055, 1148, 1147, 1158, 1154, 1456, 1455, 1466, 1462
1056, 1223, 1224, 1232, 1231, 1531, 1532, 1540, 1539
1057, 1140, 1148, 1164, 1156, 1448, 1456, 1472, 1464
1058, 1141, 1149, 1165, 1157, 1449, 1457, 1473, 1465
1059, 1124, 1074, 1103, 1144, 1432, 1382, 1411, 1452
1060, 1125, 1072, 1102, 1145, 1433, 1380, 1410, 1453
1061, 1211, 1149, 1141, 1134, 1519, 1457, 1449, 1442
1062, 1219, 1159, 1171, 1224, 1527, 1467, 1479, 1532
1063, 1160, 1150, 1156, 1166, 1468, 1458, 1464, 1474
1064, 1069, 1161, 1157, 1167, 1377, 1469, 1465, 1475
1065, 1066, 1150, 1160, 1067, 1374, 1458, 1468, 1375
1066, 1157, 1161, 1168, 1151, 1465, 1469, 1476, 1459
1067, 1183, 1173, 1171, 1175, 1491, 1481, 1479, 1483
1068, 1152, 1159, 1139, 1126, 1460, 1467, 1447, 1434
1069, 1212, 1176, 1174, 1172, 1520, 1484, 1482, 1480
1070, 1181, 1153, 1138, 1129, 1489, 1461, 1446, 1437
1071, 1164, 1170, 1209, 1179, 1472, 1478, 1517, 1487
1072, 1157, 1165, 1169, 1167, 1465, 1473, 1477, 1475
1073, 1147, 1138, 1153, 1158, 1455, 1446, 1461, 1466
1074, 1179, 1166, 1156, 1164, 1487, 1474, 1464, 1472
1075, 1162, 1169, 1165, 1155, 1470, 1477, 1473, 1463
1076, 1148, 1154, 1170, 1164, 1456, 1462, 1478, 1472
1077, 1127, 1163, 1172, 1174, 1435, 1471, 1480, 1482
1078, 1213, 1180, 1167, 1169, 1521, 1488, 1475, 1477
1079, 1149, 1217, 1155, 1165, 1457, 1525, 1463, 1473
1080, 1068, 1168, 1053, 1202, 1376, 1476, 1361, 1510
1081, 1214, 1107, 1100, 1177, 1522, 1415, 1408, 1485
1082, 1178, 1170, 1154, 1163, 1486, 1478, 1462, 1471
1083, 1230, 1174, 1176, 1184, 1538, 1482, 1484, 1492
1084, 1212, 1172, 1158, 1153, 1520, 1480, 1466, 1461
1085, 1222, 1213, 1169, 1162, 1530, 1521, 1477, 1470
1086, 1173, 1183, 1215, 1128, 1481, 1491, 1523, 1436
1087, 1227, 1131, 1230, 1184, 1535, 1439, 1538, 1492
1088, 1187, 1229, 1193, 1194, 1495, 1537, 1501, 1502
1089, 1229, 1190, 1175, 1185, 1537, 1498, 1483, 1493
1090, 1220, 1189, 1184, 1176, 1528, 1497, 1492, 1484
1091, 1214, 1177, 1213, 1222, 1522, 1485, 1521, 1530
1092, 1221, 1209, 1170, 1178, 1529, 1517, 1478, 1486
1093, 1101, 1205, 1179, 1209, 1409, 1513, 1487, 1517
1094, 1177, 1100, 1180, 1213, 1485, 1408, 1488, 1521
1095, 1182, 1152, 1126, 1132, 1490, 1460, 1434, 1440
1096, 1187, 1194, 1133, 1191, 1495, 1502, 1441, 1499
1097, 1226, 1183, 1175, 1190, 1534, 1491, 1483, 1498
1098, 1133, 1194, 1186, 1181, 1441, 1502, 1494, 1489
1099, 1190, 1229, 1187, 1226, 1498, 1537, 1495, 1534
1100, 1196, 1189, 1220, 1193, 1504, 1497, 1528, 1501
1101, 1228, 1118, 1121, 1192, 1536, 1426, 1429, 1500
1102, 1132, 1225, 1195, 1182, 1440, 1533, 1503, 1490
1103, 1186, 1194, 1193, 1220, 1494, 1502, 1501, 1528
1104, 1195, 1188, 1189, 1196, 1503, 1496, 1497, 1504
1105, 1227, 1188, 1228, 1192, 1535, 1496, 1536, 1500
1106, 1035,  990, 1029, 1198, 1343, 1298, 1337, 1506
1107, 1203, 1022, 1199, 1208, 1511, 1330, 1507, 1516
1108, 1065, 1020,  977, 1200, 1373, 1328, 1285, 1508
1109, 1068, 1021, 1019, 1201, 1376, 1329, 1327, 1509
1110, 1028,  988, 1008, 1043, 1336, 1296, 1316, 1351
1111, 1206, 1203, 1208, 1207, 1514, 1511, 1516, 1515
1112, 1207, 1134, 1141, 1206, 1515, 1442, 1449, 1514
1113, 1209, 1221, 1105, 1101, 1517, 1529, 1413, 1409
1114, 1222, 1232, 1173, 1214, 1530, 1540, 1481, 1522
1115, 1116, 1113, 1128, 1215, 1424, 1421, 1436, 1523
1116, 1111, 1107, 1214, 1216, 1419, 1415, 1522, 1524
1117, 1223, 1155, 1217, 1218, 1531, 1463, 1525, 1526
1118, 1224, 1223, 1218, 1219, 1532, 1531, 1526, 1527
1119, 1211, 1146, 1219, 1218, 1519, 1454, 1527, 1526
1120, 1231, 1162, 1155, 1223, 1539, 1470, 1463, 1531
1121, 1228, 1225, 1112, 1118, 1536, 1533, 1420, 1426
1122, 1131, 1127, 1174, 1230, 1439, 1435, 1482, 1538
1123, 1162, 1231, 1232, 1222, 1470, 1539, 1540, 1530
1124, 1224, 1171, 1173, 1232, 1532, 1479, 1481, 1540
1125, 1329, 1233, 1248, 1327, 1637, 1541, 1556, 1635
1126, 1327, 1248, 1264, 1328, 1635, 1556, 1572, 1636
1127, 1307, 1265, 1235, 1305, 1615, 1573, 1543, 1613
1128, 1451, 1508, 1285, 1306, 1759, 1816, 1593, 1614
1129, 1451, 1306, 1326, 1330, 1759, 1614, 1634, 1638
1130, 1331, 1363, 1469, 1377, 1639, 1671, 1777, 1685
1131, 1311, 1269, 1239, 1301, 1619, 1577, 1547, 1609
1132, 1365, 1309, 1322, 1341, 1673, 1617, 1630, 1649
1133, 1293, 1271, 1241, 1292, 1601, 1579, 1549, 1600
1134, 1256, 1291, 1321, 1279, 1564, 1599, 1629, 1587
1135, 1294, 1242, 1272, 1314, 1602, 1550, 1580, 1622
1136, 1357, 1293, 1292, 1334, 1665, 1601, 1600, 1642
1137, 1396, 1392, 1357, 1334, 1704, 1700, 1665, 1642
1138, 1357, 1392, 1389, 1335, 1665, 1700, 1697, 1643
1139, 1274, 1316, 1296, 1245, 1582, 1624, 1604, 1553
1140, 1352, 1247, 1246, 1297, 1660, 1555, 1554, 1605
1141, 1336, 1450, 1297, 1296, 1644, 1758, 1605, 1604
1142, 1251, 1337, 1298, 1252, 1559, 1645, 1606, 1560
1143, 1317, 1275, 1252, 1298, 1625, 1583, 1560, 1606
1144, 1468, 1343, 1506, 1375, 1776, 1651, 1814, 1683
1145, 1352, 1297, 1450, 1505, 1660, 1605, 1758, 1813
1146, 1505, 1444, 1458, 1374, 1813, 1752, 1766, 1682
1147, 1368, 1319, 1313, 1367, 1676, 1627, 1621, 1675
1148, 1387, 1371, 1365, 1518, 1695, 1679, 1673, 1826
1149, 1310, 1268, 1267, 1288, 1618, 1576, 1575, 1596
1150, 1238, 1302, 1288, 1267, 1546, 1610, 1596, 1575
1151, 1507, 1360, 1304, 1407, 1815, 1668, 1612, 1715
1152, 1328, 1264, 1263, 1285, 1636, 1572, 1571, 1593
1153, 1303, 1237, 1236, 1286, 1611, 1545, 1544, 1594
1154, 1304, 1260, 1283, 1325, 1612, 1568, 1591, 1633
1155, 1371, 1323, 1309, 1365, 1679, 1631, 1617, 1673
1156, 1269, 1311, 1290, 1240, 1577, 1619, 1598, 1548
1157, 1312, 1270, 1240, 1290, 1620, 1578, 1548, 1598
1158, 1314, 1272, 1271, 1293, 1622, 1580, 1579, 1601
1159, 1253, 1299, 1300, 1254, 1561, 1607, 1608, 1562
1160, 1295, 1243, 1273, 1315, 1603, 1551, 1581, 1623
1161, 1443, 1448, 1444, 1430, 1751, 1756, 1752, 1738
1162, 1298, 1343, 1344, 1317, 1606, 1651, 1652, 1625
1163, 1317, 1344, 1350, 1299, 1625, 1652, 1658, 1607
1164, 1278, 1320, 1291, 1256, 1586, 1628, 1599, 1564
1165, 1279, 1321, 1289, 1257, 1587, 1629, 1597, 1565
1166, 1323, 1281, 1258, 1309, 1631, 1589, 1566, 1617
1167, 1407, 1304, 1325, 1340, 1715, 1612, 1633, 1648
1168, 1360, 1261, 1260, 1304, 1668, 1569, 1568, 1612
1169, 1285, 1263, 1262, 1306, 1593, 1571, 1570, 1614
1170, 1286, 1236, 1265, 1307, 1594, 1544, 1573, 1615
1171, 1308, 1266, 1237, 1303, 1616, 1574, 1545, 1611
1172, 1266, 1308, 1302, 1238, 1574, 1616, 1610, 1546
1173, 1282, 1324, 1287, 1259, 1590, 1632, 1595, 1567
1174, 1325, 1283, 1259, 1287, 1633, 1591, 1567, 1595
1175, 1358, 1310, 1288, 1339, 1666, 1618, 1596, 1647
1176, 1301, 1239, 1268, 1310, 1609, 1547, 1576, 1618
1177, 1322, 1280, 1257, 1289, 1630, 1588, 1565, 1597
1178, 1309, 1258, 1280, 1322, 1617, 1566, 1588, 1630
1179, 1311, 1366, 1333, 1290, 1619, 1674, 1641, 1598
1180, 1292, 1241, 1270, 1312, 1600, 1549, 1578, 1620
1181, 1255, 1313, 1319, 1277, 1563, 1621, 1627, 1585
1182, 1291, 1348, 1370, 1321, 1599, 1656, 1678, 1629
1183, 1335, 1314, 1293, 1357, 1643, 1622, 1601, 1665
1184, 1315, 1273, 1242, 1294, 1623, 1581, 1550, 1602
1185, 1351, 1244, 1243, 1295, 1659, 1552, 1551, 1603
1186, 1513, 1378, 1474, 1487, 1821, 1686, 1782, 1795
1187, 1244, 1351, 1316, 1274, 1552, 1659, 1624, 1582
1188, 1313, 1255, 1276, 1318, 1621, 1563, 1584, 1626
1189, 1297, 1246, 1245, 1296, 1605, 1554, 1553, 1604
1190, 1318, 1276, 1254, 1300, 1626, 1584, 1562, 1608
1191, 1353, 1249, 1247, 1352, 1661, 1557, 1555, 1660
1192, 1354, 1250, 1249, 1353, 1662, 1558, 1557, 1661
1193, 1299, 1253, 1275, 1317, 1607, 1561, 1583, 1625
1194, 1406, 1295, 1315, 1342, 1714, 1603, 1623, 1650
1195, 1393, 1367, 1356, 1390, 1701, 1675, 1664, 1698
1196, 1355, 1294, 1314, 1335, 1663, 1602, 1622, 1643
1197, 1410, 1412, 1434, 1447, 1718, 1720, 1742, 1755
1198, 1302, 1346, 1339, 1288, 1610, 1654, 1647, 1596
1199, 1261, 1360, 1326, 1284, 1569, 1668, 1634, 1592
1200, 1331, 1286, 1307, 1363, 1639, 1594, 1615, 1671
1201, 1459, 1476, 1376, 1509, 1767, 1784, 1684, 1817
1202, 1233, 1329, 1362, 1234, 1541, 1637, 1670, 1542
1203, 1284, 1326, 1306, 1262, 1592, 1634, 1614, 1570
1204, 1445, 1373, 1508, 1451, 1753, 1681, 1816, 1759
1205, 1359, 1303, 1286, 1331, 1667, 1611, 1594, 1639
1206, 1379, 1384, 1364, 1359, 1687, 1692, 1672, 1667
1207, 1324, 1282, 1281, 1323, 1632, 1590, 1589, 1631
1208, 1371, 1387, 1383, 1372, 1679, 1695, 1691, 1680
1209, 1415, 1419, 1391, 1388, 1723, 1727, 1699, 1696
1210, 1320, 1278, 1277, 1319, 1628, 1586, 1585, 1627
1211, 1513, 1381, 1512, 1378, 1821, 1689, 1820, 1686
1212, 1355, 1335, 1389, 1385, 1663, 1643, 1697, 1693
1213, 1321, 1370, 1332, 1289, 1629, 1678, 1640, 1597
1214, 1391, 1394, 1358, 1339, 1699, 1702, 1666, 1647
1215, 1287, 1345, 1340, 1325, 1595, 1653, 1648, 1633
1216, 1509, 1327, 1328, 1373, 1817, 1635, 1636, 1681
1217, 1305, 1235, 1234, 1362, 1613, 1543, 1542, 1670
1218, 1361, 1305, 1362, 1510, 1669, 1613, 1670, 1818
1219, 1305, 1361, 1363, 1307, 1613, 1669, 1671, 1615
1220, 1330, 1326, 1360, 1507, 1638, 1634, 1668, 1815
1221, 1364, 1308, 1303, 1359, 1672, 1616, 1611, 1667
1222, 1301, 1347, 1366, 1311, 1609, 1655, 1674, 1619
1223, 1341, 1322, 1289, 1332, 1649, 1630, 1597, 1640
1224, 1349, 1312, 1290, 1333, 1657, 1620, 1598, 1641
1225, 1334, 1292, 1312, 1349, 1642, 1600, 1620, 1657
1226, 1294, 1355, 1342, 1315, 1602, 1663, 1650, 1623
1227, 1318, 1356, 1367, 1313, 1626, 1664, 1675, 1621
1228, 1512, 1344, 1343, 1378, 1820, 1652, 1651, 1686
1229, 1406, 1336, 1351, 1295, 1714, 1644, 1659, 1603
1230, 1375, 1354, 1353, 1374, 1683, 1662, 1661, 1682
1231, 1250, 1354, 1337, 1251, 1558, 1662, 1645, 1559
1232, 1356, 1318, 1300, 1338, 1664, 1626, 1608, 1646
1233, 1347, 1301, 1310, 1358, 1655, 1609, 1618, 1666
1234, 1509, 1373, 1445, 1459, 1817, 1681, 1753, 1767
1235, 1443, 1430, 1406, 1432, 1751, 1738, 1714, 1740
1236, 1352, 1505, 1374, 1353, 1660, 1813, 1682, 1661
1237, 1338, 1300, 1299, 1350, 1646, 1608, 1607, 1658
1238, 1386, 1338, 1350, 1381, 1694, 1646, 1658, 1689
1239, 1324, 1372, 1345, 1287, 1632, 1680, 1653, 1595
1240, 1340, 1433, 1431, 1407, 1648, 1741, 1739, 1715
1241, 1384, 1388, 1346, 1364, 1692, 1696, 1654, 1672
1242, 1428, 1404, 1398, 1424, 1736, 1712, 1706, 1732
1243, 1320, 1369, 1348, 1291, 1628, 1677, 1656, 1599
1244, 1423, 1397, 1393, 1417, 1731, 1705, 1701, 1725
1245, 1390, 1356, 1338, 1386, 1698, 1664, 1646, 1694
1246, 1337, 1354, 1375, 1506, 1645, 1662, 1683, 1814
1247, 1369, 1320, 1319, 1368, 1677, 1628, 1627, 1676
1248, 1346, 1302, 1308, 1364, 1654, 1610, 1616, 1672
1249, 1465, 1459, 1445, 1449, 1773, 1767, 1753, 1757
1250, 1329, 1376, 1510, 1362, 1637, 1684, 1818, 1670
1251, 1359, 1331, 1377, 1379, 1667, 1639, 1685, 1687
1252, 1372, 1324, 1323, 1371, 1680, 1632, 1631, 1679
1253, 1400, 1396, 1334, 1349, 1708, 1704, 1642, 1657
1254, 1401, 1369, 1368, 1397, 1709, 1677, 1676, 1705
1255, 1417, 1393, 1390, 1413, 1725, 1701, 1698, 1721
1256, 1529, 1486, 1417, 1413, 1837, 1794, 1725, 1721
1257, 1518, 1365, 1341, 1395, 1826, 1673, 1649, 1703
1258, 1449, 1445, 1511, 1514, 1757, 1753, 1819, 1822
1259, 1379, 1377, 1475, 1488, 1687, 1685, 1783, 1796
1260, 1511, 1445, 1451, 1330, 1819, 1753, 1759, 1638
1261, 1464, 1458, 1444, 1448, 1772, 1766, 1752, 1756
1262, 1505, 1450, 1430, 1444, 1813, 1758, 1738, 1752
1263, 1474, 1378, 1343, 1468, 1782, 1686, 1651, 1776
1264, 1363, 1361, 1476, 1469, 1671, 1669, 1784, 1777
1265, 1515, 1433, 1453, 1442, 1823, 1741, 1761, 1750
1266, 1455, 1443, 1432, 1452, 1763, 1751, 1740, 1760
1267, 1381, 1350, 1344, 1512, 1689, 1658, 1652, 1820
1268, 1388, 1391, 1339, 1346, 1696, 1699, 1647, 1654
1269, 1380, 1345, 1372, 1383, 1688, 1653, 1680, 1691
1270, 1433, 1340, 1345, 1380, 1741, 1648, 1653, 1688
1271, 1397, 1368, 1367, 1393, 1705, 1676, 1675, 1701
1272, 1342, 1355, 1385, 1382, 1650, 1663, 1693, 1690
1273, 1488, 1408, 1384, 1379, 1796, 1716, 1692, 1687
1274, 1394, 1398, 1347, 1358, 1702, 1706, 1655, 1666
1275, 1381, 1513, 1409, 1386, 1689, 1821, 1717, 1694
1276, 1403, 1348, 1369, 1401, 1711, 1656, 1677, 1709
1277, 1398, 1404, 1366, 1347, 1706, 1712, 1674, 1655
1278, 1425, 1428, 1438, 1499, 1733, 1736, 1746, 1807
1279, 1402, 1370, 1348, 1403, 1710, 1678, 1656, 1711
1280, 1427, 1401, 1397, 1423, 1735, 1709, 1705, 1731
1281, 1421, 1394, 1391, 1419, 1729, 1702, 1699, 1727
1282, 1332, 1399, 1395, 1341, 1640, 1707, 1703, 1649
1283, 1387, 1518, 1412, 1383, 1695, 1826, 1720, 1691
1284, 1392, 1414, 1411, 1389, 1700, 1722, 1719, 1697
1285, 1440, 1434, 1412, 1416, 1748, 1742, 1720, 1724
1286, 1386, 1409, 1413, 1390, 1694, 1717, 1721, 1698
1287, 1405, 1400, 1349, 1333, 1713, 1708, 1657, 1641
1288, 1428, 1424, 1523, 1438, 1736, 1732, 1831, 1746
1289, 1402, 1426, 1420, 1399, 1710, 1734, 1728, 1707
1290, 1370, 1402, 1399, 1332, 1678, 1710, 1707, 1640
1291, 1412, 1518, 1395, 1416, 1720, 1826, 1703, 1724
1292, 1439, 1423, 1417, 1435, 1747, 1731, 1725, 1743
1293, 1535, 1427, 1423, 1439, 1843, 1735, 1731, 1747
1294, 1399, 1420, 1416, 1395, 1707, 1728, 1724, 1703
1295, 1333, 1366, 1404, 1405, 1641, 1674, 1712, 1713
1296, 1396, 1400, 1422, 1418, 1704, 1708, 1730, 1726
1297, 1450, 1336, 1406, 1430, 1758, 1644, 1714, 1738
1298, 1431, 1516, 1507, 1407, 1739, 1824, 1815, 1715
1299, 1516, 1431, 1433, 1515, 1824, 1739, 1741, 1823
1300, 1415, 1388, 1384, 1408, 1723, 1696, 1692, 1716
1301, 1380, 1383, 1412, 1410, 1688, 1691, 1720, 1718
1302, 1382, 1385, 1389, 1411, 1690, 1693, 1697, 1719
1303, 1436, 1524, 1522, 1481, 1744, 1832, 1830, 1789
1304, 1429, 1403, 1401, 1427, 1737, 1711, 1709, 1735
1305, 1414, 1392, 1396, 1418, 1722, 1700, 1704, 1726
1306, 1480, 1471, 1462, 1466, 1788, 1779, 1770, 1774
1307, 1424, 1398, 1394, 1421, 1732, 1706, 1702, 1729
1308, 1427, 1535, 1500, 1429, 1735, 1843, 1808, 1737
1309, 1504, 1493, 1490, 1503, 1812, 1801, 1798, 1811
1310, 1528, 1484, 1520, 1494, 1836, 1792, 1828, 1802
1311, 1425, 1405, 1404, 1428, 1733, 1713, 1712, 1736
1312, 1491, 1534, 1438, 1523, 1799, 1842, 1746, 1831
1313, 1405, 1425, 1422, 1400, 1713, 1733, 1730, 1708
1314, 1414, 1418, 1422, 1437, 1722, 1726, 1730, 1745
1315, 1493, 1504, 1501, 1537, 1801, 1812, 1809, 1845
1316, 1534, 1495, 1499, 1438, 1842, 1803, 1807, 1746
1317, 1489, 1437, 1422, 1441, 1797, 1745, 1730, 1749
1318, 1403, 1429, 1426, 1402, 1711, 1737, 1734, 1710
1319, 1533, 1440, 1416, 1420, 1841, 1748, 1724, 1728
1320, 1492, 1497, 1496, 1535, 1800, 1805, 1804, 1843
1321, 1448, 1443, 1455, 1456, 1756, 1751, 1763, 1764
1322, 1526, 1525, 1457, 1519, 1834, 1833, 1765, 1827
1323, 1406, 1342, 1382, 1432, 1714, 1650, 1690, 1740
1324, 1454, 1447, 1467, 1527, 1762, 1755, 1775, 1835
1325, 1411, 1414, 1437, 1446, 1719, 1722, 1745, 1754
1326, 1486, 1471, 1435, 1417, 1794, 1779, 1743, 1725
1327, 1436, 1421, 1419, 1524, 1744, 1729, 1727, 1832
1328, 1422, 1425, 1499, 1441, 1730, 1733, 1807, 1749
1329, 1467, 1460, 1483, 1479, 1775, 1768, 1791, 1787
1330, 1496, 1503, 1533, 1536, 1804, 1811, 1841, 1844
1331, 1493, 1483, 1460, 1490, 1801, 1791, 1768, 1798
1332, 1494, 1520, 1461, 1489, 1802, 1828, 1769, 1797
1333, 1453, 1410, 1447, 1454, 1761, 1718, 1755, 1762
1334, 1454, 1519, 1442, 1453, 1762, 1827, 1750, 1761
1335, 1455, 1452, 1411, 1446, 1763, 1760, 1719, 1754
1336, 1456, 1455, 1466, 1462, 1764, 1763, 1774, 1770
1337, 1531, 1532, 1540, 1539, 1839, 1840, 1848, 1847
1338, 1448, 1456, 1472, 1464, 1756, 1764, 1780, 1772
1339, 1449, 1457, 1473, 1465, 1757, 1765, 1781, 1773
1340, 1432, 1382, 1411, 1452, 1740, 1690, 1719, 1760
1341, 1433, 1380, 1410, 1453, 1741, 1688, 1718, 1761
1342, 1519, 1457, 1449, 1442, 1827, 1765, 1757, 1750
1343, 1527, 1467, 1479, 1532, 1835, 1775, 1787, 1840
1344, 1468, 1458, 1464, 1474, 1776, 1766, 1772, 1782
1345, 1377, 1469, 1465, 1475, 1685, 1777, 1773, 1783
1346, 1374, 1458, 1468, 1375, 1682, 1766, 1776, 1683
1347, 1465, 1469, 1476, 1459, 1773, 1777, 1784, 1767
1348, 1491, 1481, 1479, 1483, 1799, 1789, 1787, 1791
1349, 1460, 1467, 1447, 1434, 1768, 1775, 1755, 1742
1350, 1520, 1484, 1482, 1480, 1828, 1792, 1790, 1788
1351, 1489, 1461, 1446, 1437, 1797, 1769, 1754, 1745
1352, 1472, 1478, 1517, 1487, 1780, 1786, 1825, 1795
1353, 1465, 1473, 1477, 1475, 1773, 1781, 1785, 1783
1354, 1455, 1446, 1461, 1466, 1763, 1754, 1769, 1774
1355, 1487, 1474, 1464, 1472, 1795, 1782, 1772, 1780
1356, 1470, 1477, 1473, 1463, 1778, 1785, 1781, 1771
1357, 1456, 1462, 1478, 1472, 1764, 1770, 1786, 1780
1358, 1435, 1471, 1480, 1482, 1743, 1779, 1788, 1790
1359, 1521, 1488, 1475, 1477, 1829, 1796, 1783, 1785
1360, 1457, 1525, 1463, 1473, 1765, 1833, 1771, 1781
1361, 1376, 1476, 1361, 1510, 1684, 1784, 1669, 1818
1362, 1522, 1415, 1408, 1485, 1830, 1723, 1716, 1793
1363, 1486, 1478, 1462, 1471, 1794, 1786, 1770, 1779
1364, 1538, 1482, 1484, 1492, 1846, 1790, 1792, 1800
1365, 1520, 1480, 1466, 1461, 1828, 1788, 1774, 1769
1366, 1530, 1521, 1477, 1470, 1838, 1829, 1785, 1778
1367, 1481, 1491, 1523, 1436, 1789, 1799, 1831, 1744
1368, 1535, 1439, 1538, 1492, 1843, 1747, 1846, 1800
1369, 1495, 1537, 1501, 1502, 1803, 1845, 1809, 1810
1370, 1537, 1498, 1483, 1493, 1845, 1806, 1791, 1801
1371, 1528, 1497, 1492, 1484, 1836, 1805, 1800, 1792
1372, 1522, 1485, 1521, 1530, 1830, 1793, 1829, 1838
1373, 1529, 1517, 1478, 1486, 1837, 1825, 1786, 1794
1374, 1409, 1513, 1487, 1517, 1717, 1821, 1795, 1825
1375, 1485, 1408, 1488, 1521, 1793, 1716, 1796, 1829
1376, 1490, 1460, 1434, 1440, 1798, 1768, 1742, 1748
1377, 1495, 1502, 1441, 1499, 1803, 1810, 1749, 1807
1378, 1534, 1491, 1483, 1498, 1842, 1799, 1791, 1806
1379, 1441, 1502, 1494, 1489, 1749, 1810, 1802, 1797
1380, 1498, 1537, 1495, 1534, 1806, 1845, 1803, 1842
1381, 1504, 1497, 1528, 1501, 1812, 1805, 1836, 1809
1382, 1536, 1426, 1429, 1500, 1844, 1734, 1737, 1808
1383, 1440, 1533, 1503, 1490, 1748, 1841, 1811, 1798
1384, 1494, 1502, 1501, 1528, 1802, 1810, 1809, 1836
1385, 1503, 1496, 1497, 1504, 1811, 1804, 1805, 1812
1386, 1535, 1496, 1536, 1500, 1843, 1804, 1844, 1808
1387, 1343, 1298, 1337, 1506, 1651, 1606, 1645, 1814
1388, 1511, 1330, 1507, 1516, 1819, 1638, 1815, 1824
1389, 1373, 1328, 1285, 1508, 1681, 1636, 1593, 1816
1390, 1376, 1329, 1327, 1509, 1684, 1637, 1635, 1817
1391, 1336, 1296, 1316, 1351, 1644, 1604, 1624, 1659
1392, 1514, 1511, 1516, 1515, 1822, 1819, 1824, 1823
1393, 1515, 1442, 1449, 1514, 1823, 1750, 1757, 1822
1394, 1517, 1529, 1413, 1409, 1825, 1837, 1721, 1717
1395, 1530, 1540, 1481, 1522, 1838, 1848, 1789, 1830
1396, 1424, 1421, 1436, 1523, 1732, 1729, 1744, 1831
1397, 1419, 1415, 1522, 1524, 1727, 1723, 1830, 1832
1398, 1531, 1463, 1525, 1526, 1839, 1771, 1833, 1834
1399, 1532, 1531, 1526, 1527, 1840, 1839, 1834, 1835
1400, 1519, 1454, 1527, 1526, 1827, 1762, 1835, 1834
1401, 1539, 1470, 1463, 1531, 1847, 1778, 1771, 1839
1402, 1536, 1533, 1420, 1426, 1844, 1841, 1728, 1734
1403, 1439, 1435, 1482, 1538, 1747, 1743, 1790, 1846
1404, 1470, 1539, 1540, 1530, 1778, 1847, 1848, 1838
1405, 1532, 1479, 1481, 1540, 1840, 1787, 1789, 1848
1406, 1637, 1541, 1556, 1635, 1945, 1849, 1864, 1943
1407, 1635, 1556, 1572, 1636, 1943, 1864, 1880, 1944
1408, 1615, 1573, 1543, 1613, 1923, 1881, 1851, 1921
1409, 1759, 1816, 1593, 1614, 2067, 2124, 1901, 1922
1410, 1759, 1614, 1634, 1638, 2067, 1922, 1942, 1946
1411, 1639, 1671, 1777, 1685, 1947, 1979, 2085, 1993
1412, 1619, 1577, 1547, 1609, 1927, 1885, 1855, 1917
1413, 1673, 1617, 1630, 1649, 1981, 1925, 1938, 1957
1414, 1601, 1579, 1549, 1600, 1909, 1887, 1857, 1908
1415, 1564, 1599, 1629, 1587, 1872, 1907, 1937, 1895
1416, 1602, 1550, 1580, 1622, 1910, 1858, 1888, 1930
1417, 1665, 1601, 1600, 1642, 1973, 1909, 1908, 1950
1418, 1704, 1700, 1665, 1642, 2012, 2008, 1973, 1950
1419, 1665, 1700, 1697, 1643, 1973, 2008, 2005, 1951
1420, 1582, 1624, 1604, 1553, 1890, 1932, 1912, 1861
1421, 1660, 1555, 1554, 1605, 1968, 1863, 1862, 1913
1422, 1644, 1758, 1605, 1604, 1952, 2066, 1913, 1912
1423, 1559, 1645, 1606, 1560, 1867, 1953, 1914, 1868
1424, 1625, 1583, 1560, 1606, 1933, 1891, 1868, 1914
1425, 1776, 1651, 1814, 1683, 2084, 1959, 2122, 1991
1426, 1660, 1605, 1758, 1813, 1968, 1913, 2066, 2121
1427, 1813, 1752, 1766, 1682, 2121, 2060, 2074, 1990
1428, 1676, 1627, 1621, 1675, 1984, 1935, 1929, 1983
1429, 1695, 1679, 1673, 1826, 2003, 1987, 1981, 2134
1430, 1618, 1576, 1575, 1596, 1926, 1884, 1883, 1904
1431, 1546, 1610, 1596, 1575, 1854, 1918, 1904, 1883
1432, 1815, 1668, 1612, 1715, 2123, 1976, 1920, 2023
1433, 1636, 1572, 1571, 1593, 1944, 1880, 1879, 1901
1434, 1611, 1545, 1544, 1594, 1919, 1853, 1852, 1902
1435, 1612, 1568, 1591, 1633, 1920, 1876, 1899, 1941
1436, 1679, 1631, 1617, 1673, 1987, 1939, 1925, 1981
1437, 1577, 1619, 1598, 1548, 1885, 1927, 1906, 1856
1438, 1620, 1578, 1548, 1598, 1928, 1886, 1856, 1906
1439, 1622, 1580, 1579, 1601, 1930, 1888, 1887, 1909
1440, 1561, 1607, 1608, 1562, 1869, 1915, 1916, 1870
1441, 1603, 1551, 1581, 1623, 1911, 1859, 1889, 1931
1442, 1751, 1756, 1752, 1738, 2059, 2064, 2060, 2046
1443, 1606, 1651, 1652, 1625, 1914, 1959, 1960, 1933
1444, 1625, 1652, 1658, 1607, 1933, 1960, 1966, 1915
1445, 1586, 1628, 1599, 1564, 1894, 1936, 1907, 1872
1446, 1587, 1629, 1597, 1565, 1895, 1937, 1905, 1873
1447, 1631, 1589, 1566, 1617, 1939, 1897, 1874, 1925
1448, 1715, 1612, 1633, 1648, 2023, 1920, 1941, 1956
1449, 1668, 1569, 1568, 1612, 1976, 1877, 1876, 1920
1450, 1593, 1571, 1570, 1614, 1901, 1879, 1878, 1922
1451, 1594, 1544, 1573, 1615, 1902, 1852, 1881, 1923
1452, 1616, 1574, 1545, 1611, 1924, 1882, 1853, 1919
1453, 1574, 1616, 1610, 1546, 1882, 1924, 1918, 1854
1454, 1590, 1632, 1595, 1567, 1898, 1940, 1903, 1875
1455, 1633, 1591, 1567, 1595, 1941, 1899, 1875, 1903
1456, 1666, 1618, 1596, 1647, 1974, 1926, 1904, 1955
1457, 1609, 1547, 1576, 1618, 1917, 1855, 1884, 1926
1458, 1630, 1588, 1565, 1597, 1938, 1896, 1873, 1905
1459, 1617, 1566, 1588, 1630, 1925, 1874, 1896, 1938
1460, 1619, 1674, 1641, 1598, 1927, 1982, 1949, 1906
1461, 1600, 1549, 1578, 1620, 1908, 1857, 1886, 1928
1462, 1563, 1621, 1627, 1585, 1871, 1929, 1935, 1893
1463, 1599, 1656, 1678, 1629, 1907, 1964, 1986, 1937
1464, 1643, 1622, 1601, 1665, 1951, 1930, 1909, 1973
1465, 1623, 1581, 1550, 1602, 1931, 1889, 1858, 1910
1466, 1659, 1552, 1551, 1603, 1967, 1860, 1859, 1911
1467, 1821, 1686, 1782, 1795, 2129, 1994, 2090, 2103
1468, 1552, 1659, 1624, 1582, 1860, 1967, 1932, 1890
1469, 1621, 1563, 1584, 1626, 1929, 1871, 1892, 1934
1470, 1605, 1554, 1553, 1604, 1913, 1862, 1861, 1912
1471, 1626, 1584, 1562, 1608, 1934, 1892, 1870, 1916
1472, 1661, 1557, 1555, 1660, 1969, 1865, 1863, 1968
1473, 1662, 1558, 1557, 1661, 1970, 1866, 1865, 1969
1474, 1607, 1561, 1583, 1625, 1915, 1869, 1891, 1933
1475, 1714, 1603, 1623, 1650, 2022, 1911, 1931, 1958
1476, 1701, 1675, 1664, 1698, 2009, 1983, 1972, 2006
1477, 1663, 1602, 1622, 1643, 1971, 1910, 1930, 1951
1478, 1718, 1720, 1742, 1755, 2026, 2028, 2050, 2063
1479, 1610, 1654, 1647, 1596, 1918, 1962, 1955, 1904
1480, 1569, 1668, 1634, 1592, 1877, 1976, 1942, 1900
1481, 1639, 1594, 1615, 1671, 1947, 1902, 1923, 1979
1482, 1767, 1784, 1684, 1817, 2075, 2092, 1992, 2125
1483, 1541, 1637, 1670, 1542, 1849, 1945, 1978, 1850
1484, 1592, 1634, 1614, 1570, 1900, 1942, 1922, 1878
1485, 1753, 1681, 1816, 1759, 2061, 1989, 2124, 2067
1486, 1667, 1611, 1594, 1639, 1975, 1919, 1902, 1947
1487, 1687, 1692, 1672, 1667, 1995, 2000, 1980, 1975
1488, 1632, 1590, 1589, 1631, 1940, 1898, 1897, 1939
1489, 1679, 1695, 1691, 1680, 1987, 2003, 1999, 1988
1490, 1723, 1727, 1699, 1696, 2031, 2035, 2007, 2004
1491, 1628, 1586, 1585, 1627, 1936, 1894, 1893, 1935
1492, 1821, 1689, 1820, 1686, 2129, 1997, 2128, 1994
1493, 1663, 1643, 1697, 1693, 1971, 1951, 2005, 2001
1494, 1629, 1678, 1640, 1597, 1937, 1986, 1948, 1905
1495, 1699, 1702, 1666, 1647, 2007, 2010, 1974, 1955
1496, 1595, 1653, 1648, 1633, 1903, 1961, 1956, 1941
1497, 1817, 1635, 1636, 1681, 2125, 1943, 1944, 1989
1498, 1613, 1543, 1542, 1670, 1921, 1851, 1850, 1978
1499, 1669, 1613, 1670, 1818, 1977, 1921, 1978, 2126
1500, 1613, 1669, 1671, 1615, 1921, 1977, 1979, 1923
1501, 1638, 1634, 1668, 1815, 1946, 1942, 1976, 2123
1502, 1672, 1616, 1611, 1667, 1980, 1924, 1919, 1975
1503, 1609, 1655, 1674, 1619, 1917, 1963, 1982, 1927
1504, 1649, 1630, 1597, 1640, 1957, 1938, 1905, 1948
1505, 1657, 1620, 1598, 1641, 1965, 1928, 1906, 1949
1506, 1642, 1600, 1620, 1657, 1950, 1908, 1928, 1965
1507, 1602, 1663, 1650, 1623, 1910, 1971, 1958, 1931
1508, 1626, 1664, 1675, 1621, 1934, 1972, 1983, 1929
1509, 1820, 1652, 1651, 1686, 2128, 1960, 1959, 1994
1510, 1714, 1644, 1659, 1603, 2022, 1952, 1967, 1911
1511, 1683, 1662, 1661, 1682, 1991, 1970, 1969, 1990
1512, 1558, 1662, 1645, 1559, 1866, 1970, 1953, 1867
1513, 1664, 1626, 1608, 1646, 1972, 1934, 1916, 1954
1514, 1655, 1609, 1618, 1666, 1963, 1917, 1926, 1974
1515, 1817, 1681, 1753, 1767, 2125, 1989, 2061, 2075
1516, 1751, 1738, 1714, 1740, 2059, 2046, 2022, 2048
1517, 1660, 1813, 1682, 1661, 1968, 2121, 1990, 1969
1518, 1646, 1608, 1607, 1658, 1954, 1916, 1915, 1966
1519, 1694, 1646, 1658, 1689, 2002, 1954, 1966, 1997
1520, 1632, 1680, 1653, 1595, 1940, 1988, 1961, 1903
1521, 1648, 1741, 1739, 1715, 1956, 2049, 2047, 2023
1522, 1692, 1696, 1654, 1672, 2000, 2004, 1962, 1980
1523, 1736, 1712, 1706, 1732, 2044, 2020, 2014, 2040
1524, 1628, 1677, 1656, 1599, 1936, 1985, 1964, 1907
1525, 1731, 1705, 1701, 1725, 2039, 2013, 2009, 2033
1526, 1698, 1664, 1646, 1694, 2006, 1972, 1954, 2002
1527, 1645, 1662, 1683, 1814, 1953, 1970, 1991, 2122
1528, 1677, 1628, 1627, 1676, 1985, 1936, 1935, 1984
1529, 1654, 1610, 1616, 1672, 1962, 1918, 1924, 1980
1530, 1773, 1767, 1753, 1757, 2081, 2075, 2061, 2065
1531, 1637, 1684, 1818, 1670, 1945, 1992, 2126, 1978
1532, 1667, 1639, 1685, 1687, 1975, 1947, 1993, 1995
1533, 1680, 1632, 1631, 1679, 1988, 1940, 1939, 1987
1534, 1708, 1704, 1642, 1657, 2016, 2012, 1950, 1965
1535, 1709, 1677, 1676, 1705, 2017, 1985, 1984, 2013
1536, 1725, 1701, 1698, 1721, 2033, 2009, 2006, 2029
1537, 1837, 1794, 1725, 1721, 2145, 2102, 2033, 2029
1538, 1826, 1673, 1649, 1703, 2134, 1981, 1957, 2011
1539, 1757, 1753, 1819, 1822, 2065, 2061, 2127, 2130
1540, 1687, 1685, 1783, 1796, 1995, 1993, 2091, 2104
1541, 1819, 1753, 1759, 1638, 2127, 2061, 2067, 1946
1542, 1772, 1766, 1752, 1756, 2080, 2074, 2060, 2064
1543, 1813, 1758, 1738, 1752, 2121, 2066, 2046, 2060
1544, 1782, 1686, 1651, 1776, 2090, 1994, 1959, 2084
1545, 1671, 1669, 1784, 1777, 1979, 1977, 2092, 2085
1546, 1823, 1741, 1761, 1750, 2131, 2049, 2069, 2058
1547, 1763, 1751, 1740, 1760, 2071, 2059, 2048, 2068
1548, 1689, 1658, 1652, 1820, 1997, 1966, 1960, 2128
1549, 1696, 1699, 1647, 1654, 2004, 2007, 1955, 1962
1550, 1688, 1653, 1680, 1691, 1996, 1961, 1988, 1999
1551, 1741, 1648, 1653, 1688, 2049, 1956, 1961, 1996
1552, 1705, 1676, 1675, 1701, 2013, 1984, 1983, 2009
1553, 1650, 1663, 1693, 1690, 1958, 1971, 2001, 1998
1554, 1796, 1716, 1692, 1687, 2104, 2024, 2000, 1995
1555, 1702, 1706, 1655, 1666, 2010, 2014, 1963, 1974
1556, 1689, 1821, 1717, 1694, 1997, 2129, 2025, 2002
1557, 1711, 1656, 1677, 1709, 2019, 1964, 1985, 2017
1558, 1706, 1712, 1674, 1655, 2014, 2020, 1982, 1963
1559, 1733, 1736, 1746, 1807, 2041, 2044, 2054, 2115
1560, 1710, 1678, 1656, 1711, 2018, 1986, 1964, 2019
1561, 1735, 1709, 1705, 1731, 2043, 2017, 2013, 2039
1562, 1729, 1702, 1699, 1727, 2037, 2010, 2007, 2035
1563, 1640, 1707, 1703, 1649, 1948, 2015, 2011, 1957
1564, 1695, 1826, 1720, 1691, 2003, 2134, 2028, 1999
1565, 1700, 1722, 1719, 1697, 2008, 2030, 2027, 2005
1566, 1748, 1742, 1720, 1724, 2056, 2050, 2028, 2032
1567, 1694, 1717, 1721, 1698, 2002, 2025, 2029, 2006
1568, 1713, 1708, 1657, 1641, 2021, 2016, 1965, 1949
1569, 1736, 1732, 1831, 1746, 2044, 2040, 2139, 2054
1570, 1710, 1734, 1728, 1707, 2018, 2042, 2036, 2015
1571, 1678, 1710, 1707, 1640, 1986, 2018, 2015, 1948
1572, 1720, 1826, 1703, 1724, 2028, 2134, 2011, 2032
1573, 1747, 1731, 1725, 1743, 2055, 2039, 2033, 2051
1574, 1843, 1735, 1731, 1747, 2151, 2043, 2039, 2055
1575, 1707, 1728, 1724, 1703, 2015, 2036, 2032, 2011
1576, 1641, 1674, 1712, 1713, 1949, 1982, 2020, 2021
1577, 1704, 1708, 1730, 1726, 2012, 2016, 2038, 2034
1578, 1758, 1644, 1714, 1738, 2066, 1952, 2022, 2046
1579, 1739, 1824, 1815, 1715, 2047, 2132, 2123, 2023
1580, 1824, 1739, 1741, 1823, 2132, 2047, 2049, 2131
1581, 1723, 1696, 1692, 1716, 2031, 2004, 2000, 2024
1582, 1688, 1691, 1720, 1718, 1996, 1999, 2028, 2026
1583, 1690, 1693, 1697, 1719, 1998, 2001, 2005, 2027
1584, 1744, 1832, 1830, 1789, 2052, 2140, 2138, 2097
1585, 1737, 1711, 1709, 1735, 2045, 2019, 2017, 2043
1586, 1722, 1700, 1704, 1726, 2030, 2008, 2012, 2034
1587, 1788, 1779, 1770, 1774, 2096, 2087, 2078, 2082
1588, 1732, 1706, 1702, 1729, 2040, 2014, 2010, 2037
1589, 1735, 1843, 1808, 1737, 2043, 2151, 2116, 2045
1590, 1812, 1801, 1798, 1811, 2120, 2109, 2106, 2119
1591, 1836, 1792, 1828, 1802, 2144, 2100, 2136, 2110
1592, 1733, 1713, 1712, 1736, 2041, 2021, 2020, 2044
1593, 1799, 1842, 1746, 1831, 2107, 2150, 2054, 2139
1594, 1713, 1733, 1730, 1708, 2021, 2041, 2038, 2016
1595, 1722, 1726, 1730, 1745, 2030, 2034, 2038, 2053
1596, 1801, 1812, 1809, 1845, 2109, 2120, 2117, 2153
1597, 1842, 1803, 1807, 1746, 2150, 2111, 2115, 2054
1598, 1797, 1745, 1730, 1749, 2105, 2053, 2038, 2057
1599, 1711, 1737, 1734, 1710, 2019, 2045, 2042, 2018
1600, 1841, 1748, 1724, 1728, 2149, 2056, 2032, 2036
1601, 1800, 1805, 1804, 1843, 2108, 2113, 2112, 2151
1602, 1756, 1751, 1763, 1764, 2064, 2059, 2071, 2072
1603, 1834, 1833, 1765, 1827, 2142, 2141, 2073, 2135
1604, 1714, 1650, 1690, 1740, 2022, 1958, 1998, 2048
1605, 1762, 1755, 1775, 1835, 2070, 2063, 2083, 2143
1606, 1719, 1722, 1745, 1754, 2027, 2030, 2053, 2062
1607, 1794, 1779, 1743, 1725, 2102, 2087, 2051, 2033
1608, 1744, 1729, 1727, 1832, 2052, 2037, 2035, 2140
1609, 1730, 1733, 1807, 1749, 2038, 2041, 2115, 2057
1610, 1775, 1768, 1791, 1787, 2083, 2076, 2099, 2095
1611, 1804, 1811, 1841, 1844, 2112, 2119, 2149, 2152
1612, 1801, 1791, 1768, 1798, 2109, 2099, 2076, 2106
1613, 1802, 1828, 1769, 1797, 2110, 2136, 2077, 2105
1614, 1761, 1718, 1755, 1762, 2069, 2026, 2063, 2070
1615, 1762, 1827, 1750, 1761, 2070, 2135, 2058, 2069
1616, 1763, 1760, 1719, 1754, 2071, 2068, 2027, 2062
1617, 1764, 1763, 1774, 1770, 2072, 2071, 2082, 2078
1618, 1839, 1840, 1848, 1847, 2147, 2148, 2156, 2155
1619, 1756, 1764, 1780, 1772, 2064, 2072, 2088, 2080
1620, 1757, 1765, 1781, 1773, 2065, 2073, 2089, 2081
1621, 1740, 1690, 1719, 1760, 2048, 1998, 2027, 2068
1622, 1741, 1688, 1718, 1761, 2049, 1996, 2026, 2069
1623, 1827, 1765, 1757, 1750, 2135, 2073, 2065, 2058
1624, 1835, 1775, 1787, 1840, 2143, 2083, 2095, 2148
1625, 1776, 1766, 1772, 1782, 2084, 2074, 2080, 2090
1626, 1685, 1777, 1773, 1783, 1993, 2085, 2081, 2091
1627, 1682, 1766, 1776, 1683, 1990, 2074, 2084, 1991
1628, 1773, 1777, 1784, 1767, 2081, 2085, 2092, 2075
1629, 1799, 1789, 1787, 1791, 2107, 2097, 2095, 2099
1630, 1768, 1775, 1755, 1742, 2076, 2083, 2063, 2050
1631, 1828, 1792, 1790, 1788, 2136, 2100, 2098, 2096
1632, 1797, 1769, 1754, 1745, 2105, 2077, 2062, 2053
1633, 1780, 1786, 1825, 1795, 2088, 2094, 2133, 2103
1634, 1773, 1781, 1785, 1783, 2081, 2089, 2093, 2091
1635, 1763, 1754, 1769, 1774, 2071, 2062, 2077, 2082
1636, 1795, 1782, 1772, 1780, 2103, 2090, 2080, 2088
1637, 1778, 1785, 1781, 1771, 2086, 2093, 2089, 2079
1638, 1764, 1770, 1786, 1780, 2072, 2078, 2094, 2088
1639, 1743, 1779, 1788, 1790, 2051, 2087, 2096, 2098
1640, 1829, 1796, 1783, 1785, 2137, 2104, 2091, 2093
1641, 1765, 1833, 1771, 1781, 2073, 2141, 2079, 2089
1642, 1684, 1784, 1669, 1818, 1992, 2092, 1977, 2126
1643, 1830, 1723, 1716, 1793, 2138, 2031, 2024, 2101
1644, 1794, 1786, 1770, 1779, 2102, 2094, 2078, 2087
1645, 1846, 1790, 1792, 1800, 2154, 2098, 2100, 2108
1646, 1828, 1788, 1774, 1769, 2136, 2096, 2082, 2077
1647, 1838, 1829, 1785, 1778, 2146, 2137, 2093, 2086
1648, 1789, 1799, 1831, 1744, 2097, 2107, 2139, 2052
1649, 1843, 1747, 1846, 1800, 2151, 2055, 2154, 2108
1650, 1803, 1845, 1809, 1810, 2111, 2153, 2117, 2118
1651, 1845, 1806, 1791, 1801, 2153, 2114, 2099, 2109
1652, 1836, 1805, 1800, 1792, 2144, 2113, 2108, 2100
1653, 1830, 1793, 1829, 1838, 2138, 2101, 2137, 2146
1654, 1837, 1825, 1786, 1794, 2145, 2133, 2094, 2102
1655, 1717, 1821, 1795, 1825, 2025, 2129, 2103, 2133
1656, 1793, 1716, 1796, 1829, 2101, 2024, 2104, 2137
1657, 1798, 1768, 1742, 1748, 2106, 2076, 2050, 2056
1658, 1803, 1810, 1749, 1807, 2111, 2118, 2057, 2115
1659, 1842, 1799, 1791, 1806, 2150, 2107, 2099, 2114
1660, 1749, 1810, 1802, 1797, 2057, 2118, 2110, 2105
1661, 1806, 1845, 1803, 1842, 2114, 2153, 2111, 2150
1662, 1812, 1805, 1836, 1809, 2120, 2113, 2144, 2117
1663, 1844, 1734, 1737, 1808, 2152, 2042, 2045, 2116
1664, 1748, 1841, 1811, 1798, 2056, 2149, 2119, 2106
1665, 1802, 1810, 1809, 1836, 2110, 2118, 2117, 2144
1666, 1811, 1804, 1805, 1812, 2119, 2112, 2113, 2120
1667, 1843, 1804, 1844, 1808, 2151, 2112, 2152, 2116
1668, 1651, 1606, 1645, 1814, 1959, 1914, 1953, 2122
1669, 1819, 1638, 1815, 1824, 2127, 1946, 2123, 2132
1670, 1681, 1636, 1593, 1816, 1989, 1944, 1901, 2124
1671, 1684, 1637, 1635, 1817, 1992, 1945, 1943, 2125
1672, 1644, 1604, 1624, 1659, 1952, 1912, 1932, 1967
1673, 1822, 1819, 1824, 1823, 2130, 2127, 2132, 2131
1674, 1823, 1750, 1757, 1822, 2131, 2058, 2065, 2130
1675, 1825, 1837, 1721, 1717, 2133, 2145, 2029, 2025
1676, 1838, 1848, 1789, 1830, 2146, 2156, 2097, 2138
1677, 1732, 1729, 1744, 1831, 2040, 2037, 2052, 2139
1678, 1727, 1723, 1830, 1832, 2035, 2031, 2138, 2140
1679, 1839, 1771, 1833, 1834, 2147, 2079, 2141, 2142
1680, 1840, 1839, 1834, 1835, 2148, 2147, 2142, 2143
1681, 1827, 1762, 1835, 1834, 2135, 2070, 2143, 2142
1682, 1847, 1778, 1771, 1839, 2155, 2086, 2079, 2147
1683, 1844, 1841, 1728, 1734, 2152, 2149, 2036, 2042
1684, 1747, 1743, 1790, 1846, 2055, 2051, 2098, 2154
1685, 1778, 1847, 1848, 1838, 2086, 2155, 2156, 2146
1686, 1840, 1787, 1789, 1848, 2148, 2095, 2097, 2156
1687, 1945, 1849, 1864, 1943, 2253, 2157, 2172, 2251
1688, 1943, 1864, 1880, 1944, 2251, 2172, 2188, 2252
1689, 1923, 1881, 1851, 1921, 2231, 2189, 2159, 2229
1690, 2067, 2124, 1901, 1922, 2375, 2432, 2209, 2230
1691, 2067, 1922, 1942, 1946, 2375, 2230, 2250, 2254
1692, 1947, 1979, 2085, 1993, 2255, 2287, 2393, 2301
1693, 1927, 1885, 1855, 1917, 2235, 2193, 2163, 2225
1694, 1981, 1925, 1938, 1957, 2289, 2233, 2246, 2265
1695, 1909, 1887, 1857, 1908, 2217, 2195, 2165, 2216
1696, 1872, 1907, 1937, 1895, 2180, 2215, 2245, 2203
1697, 1910, 1858, 1888, 1930, 2218, 2166, 2196, 2238
1698, 1973, 1909, 1908, 1950, 2281, 2217, 2216, 2258
1699, 2012, 2008, 1973, 1950, 2320, 2316, 2281, 2258
1700, 1973, 2008, 2005, 1951, 2281, 2316, 2313, 2259
1701, 1890, 1932, 1912, 1861, 2198, 2240, 2220, 2169
1702, 1968, 1863, 1862, 1913, 2276, 2171, 2170, 2221
1703, 1952, 2066, 1913, 1912, 2260, 2374, 2221, 2220
1704, 1867, 1953, 1914, 1868, 2175, 2261, 2222, 2176
1705, 1933, 1891, 1868, 1914, 2241, 2199, 2176, 2222
1706, 2084, 1959, 2122, 1991, 2392, 2267, 2430, 2299
1707, 1968, 1913, 2066, 2121, 2276, 2221, 2374, 2429
1708, 2121, 2060, 2074, 1990, 2429, 2368, 2382, 2298
1709, 1984, 1935, 1929, 1983, 2292, 2243, 2237, 2291
1710, 2003, 1987, 1981, 2134, 2311, 2295, 2289, 2442
1711, 1926, 1884, 1883, 1904, 2234, 2192, 2191, 2212
1712, 1854, 1918, 1904, 1883, 2162, 2226, 2212, 2191
1713, 2123, 1976, 1920, 2023, 2431, 2284, 2228, 2331
1714, 1944, 1880, 1879, 1901, 2252, 2188, 2187, 2209
1715, 1919, 1853, 1852, 1902, 2227, 2161, 2160, 2210
1716, 1920, 1876, 1899, 1941, 2228, 2184, 2207, 2249
1717, 1987, 1939, 1925, 1981, 2295, 2247, 2233, 2289
1718, 1885, 1927, 1906, 1856, 2193, 2235, 2214, 2164
1719, 1928, 1886, 1856, 1906, 2236, 2194, 2164, 2214
1720, 1930, 1888, 1887, 1909, 2238, 2196, 2195, 2217
1721, 1869, 1915, 1916, 1870, 2177, 2223, 2224, 2178
1722, 1911, 1859, 1889, 1931, 2219, 2167, 2197, 2239
1723, 2059, 2064, 2060, 2046, 2367, 2372, 2368, 2354
1724, 1914, 1959, 1960, 1933, 2222, 2267, 2268, 2241
1725, 1933, 1960, 1966, 1915, 2241, 2268, 2274, 2223
1726, 1894, 1936, 1907, 1872, 2202, 2244, 2215, 2180
1727, 1895, 1937, 1905, 1873, 2203, 2245, 2213, 2181
1728, 1939, 1897, 1874, 1925, 2247, 2205, 2182, 2233
1729, 2023, 1920, 1941, 1956, 2331, 2228, 2249, 2264
1730, 1976, 1877, 1876, 1920, 2284, 2185, 2184, 2228
1731, 1901, 1879, 1878, 1922, 2209, 2187, 2186, 2230
1732, 1902, 1852, 1881, 1923, 2210, 2160, 2189, 2231
1733, 1924, 1882, 1853, 1919, 2232, 2190, 2161, 2227
1734, 1882, 1924, 1918, 1854, 2190, 2232, 2226, 2162
1735, 1898, 1940, 1903, 1875, 2206, 2248, 2211, 2183
1736, 1941, 1899, 1875, 1903, 2249, 2207, 2183, 2211
1737, 1974, 1926, 1904, 1955, 2282, 2234, 2212, 2263
1738, 1917, 1855, 1884, 1926, 2225, 2163, 2192, 2234
1739, 1938, 1896, 1873, 1905, 2246, 2204, 2181, 2213
1740, 1925, 1874, 1896, 1938, 2233, 2182, 2204, 2246
1741, 1927, 1982, 1949, 1906, 2235, 2290, 2257, 2214
1742, 1908, 1857, 1886, 1928, 2216, 2165, 2194, 2236
1743, 1871, 1929, 1935, 1893, 2179, 2237, 2243, 2201
1744, 1907, 1964, 1986, 1937, 2215, 2272, 2294, 2245
1745, 1951, 1930, 1909, 1973, 2259, 2238, 2217, 2281
1746, 1931, 1889, 1858, 1910, 2239, 2197, 2166, 2218
1747, 1967, 1860, 1859, 1911, 2275, 2168, 2167, 2219
1748, 2129, 1994, 2090, 2103, 2437, 2302, 2398, 2411
1749, 1860, 1967, 1932, 1890, 2168, 2275, 2240, 2198
1750, 1929, 1871, 1892, 1934, 2237, 2179, 2200, 2242
1751, 1913, 1862, 1861, 1912, 2221, 2170, 2169, 2220
1752, 1934, 1892, 1870, 1916, 2242, 2200, 2178, 2224
1753, 1969, 1865, 1863, 1968, 2277, 2173, 2171, 2276
1754, 1970, 1866, 1865, 1969, 2278, 2174, 2173, 2277
1755, 1915, 1869, 1891, 1933, 2223, 2177, 2199, 2241
1756, 2022, 1911, 1931, 1958, 2330, 2219, 2239, 2266
1757, 2009, 1983, 1972, 2006, 2317, 2291, 2280, 2314
1758, 1971, 1910, 1930, 1951, 2279, 2218, 2238, 2259
1759, 2026, 2028, 2050, 2063, 2334, 2336, 2358, 2371
1760, 1918, 1962, 1955, 1904, 2226, 2270, 2263, 2212
1761, 1877, 1976, 1942, 1900, 2185, 2284, 2250, 2208
1762, 1947, 1902, 1923, 1979, 2255, 2210, 2231, 2287
1763, 2075, 2092, 1992, 2125, 2383, 2400, 2300, 2433
1764, 1849, 1945, 1978, 1850, 2157, 2253, 2286, 2158
1765, 1900, 1942, 1922, 1878, 2208, 2250, 2230, 2186
1766, 2061, 1989, 2124, 2067, 2369, 2297, 2432, 2375
1767, 1975, 1919, 1902, 1947, 2283, 2227, 2210, 2255
1768, 1995, 2000, 1980, 1975, 2303, 2308, 2288, 2283
1769, 1940, 1898, 1897, 1939, 2248, 2206, 2205, 2247
1770, 1987, 2003, 1999, 1988, 2295, 2311, 2307, 2296
1771, 2031, 2035, 2007, 2004, 2339, 2343, 2315, 2312
1772, 1936, 1894, 1893, 1935, 2244, 2202, 2201, 2243
1773, 2129, 1997, 2128, 1994, 2437, 2305, 2436, 2302
1774, 1971, 1951, 2005, 2001, 2279, 2259, 2313, 2309
1775, 1937, 1986, 1948, 1905, 2245, 2294, 2256, 2213
1776, 2007, 2010, 1974, 1955, 2315, 2318, 2282, 2263
1777, 1903, 1961, 1956, 1941, 2211, 2269, 2264, 2249
1778, 2125, 1943, 1944, 1989, 2433, 2251, 2252, 2297
1779, 1921, 1851, 1850, 1978, 2229, 2159, 2158, 2286
1780, 1977, 1921, 1978, 2126, 2285, 2229, 2286, 2434
1781, 1921, 1977, 1979, 1923, 2229, 2285, 2287, 2231
1782, 1946, 1942, 1976, 2123, 2254, 2250, 2284, 2431
1783, 1980, 1924, 1919, 1975, 2288, 2232, 2227, 2283
1784, 1917, 1963, 1982, 1927, 2225, 2271, 2290, 2235
1785, 1957, 1938, 1905, 1948, 2265, 2246, 2213, 2256
1786, 1965, 1928, 1906, 1949, 2273, 2236, 2214, 2257
1787, 1950, 1908, 1928, 1965, 2258, 2216, 2236, 2273
1788, 1910, 1971, 1958, 1931, 2218, 2279, 2266, 2239
1789, 1934, 1972, 1983, 1929, 2242, 2280, 2291, 2237
1790, 2128, 1960, 1959, 1994, 2436, 2268, 2267, 2302
1791, 2022, 1952, 1967, 1911, 2330, 2260, 2275, 2219
1792, 1991, 1970, 1969, 1990, 2299, 2278, 2277, 2298
1793, 1866, 1970, 1953, 1867, 2174, 2278, 2261, 2175
1794, 1972, 1934, 1916, 1954, 2280, 2242, 2224, 2262
1795, 1963, 1917, 1926, 1974, 2271, 2225, 2234, 2282
1796, 2125, 1989, 2061, 2075, 2433, 2297, 2369, 2383
1797, 2059, 2046, 2022, 2048, 2367, 2354, 2330, 2356
1798, 1968, 2121, 1990, 1969, 2276, 2429, 2298, 2277
1799, 1954, 1916, 1915, 1966, 2262, 2224, 2223, 2274
1800, 2002, 1954, 1966, 1997, 2310, 2262, 2274, 2305
1801, 1940, 1988, 1961, 1903, 2248, 2296, 2269, 2211
1802, 1956, 2049, 2047, 2023, 2264, 2357, 2355, 2331
1803, 2000, 2004, 1962, 1980, 2308, 2312, 2270, 2288
1804, 2044, 2020, 2014, 2040, 2352, 2328, 2322, 2348
1805, 1936, 1985, 1964, 1907, 2244, 2293, 2272, 2215
1806, 2039, 2013, 2009, 2033, 2347, 2321, 2317, 2341
1807, 2006, 1972, 1954, 2002, 2314, 2280, 2262, 2310
1808, 1953, 1970, 1991, 2122, 2261, 2278, 2299, 2430
1809, 1985, 1936, 1935, 1984, 2293, 2244, 2243, 2292
1810, 1962, 1918, 1924, 1980, 2270, 2226, 2232, 2288
1811, 2081, 2075, 2061, 2065, 2389, 2383, 2369, 2373
1812, 1945, 1992, 2126, 1978, 2253, 2300, 2434, 2286
1813, 1975, 1947, 1993, 1995, 2283, 2255, 2301, 2303
1814, 1988, 1940, 1939, 1987, 2296, 2248, 2247, 2295
1815, 2016, 2012, 1950, 1965, 2324, 2320, 2258, 2273
1816, 2017, 1985, 1984, 2013, 2325, 2293, 2292, 2321
1817, 2033, 2009, 2006, 2029, 2341, 2317, 2314, 2337
1818, 2145, 2102, 2033, 2029, 2453, 2410, 2341, 2337
1819, 2134, 1981, 1957, 2011, 2442, 2289, 2265, 2319
1820, 2065, 2061, 2127, 2130, 2373, 2369, 2435, 2438
1821, 1995, 1993, 2091, 2104, 2303, 2301, 2399, 2412
1822, 2127, 2061, 2067, 1946, 2435, 2369, 2375, 2254
1823, 2080, 2074, 2060, 2064, 2388, 2382, 2368, 2372
1824, 2121, 2066, 2046, 2060, 2429, 2374, 2354, 2368
1825, 2090, 1994, 1959, 2084, 2398, 2302, 2267, 2392
1826, 1979, 1977, 2092, 2085, 2287, 2285, 2400, 2393
1827, 2131, 2049, 2069, 2058, 2439, 2357, 2377, 2366
1828, 2071, 2059, 2048, 2068, 2379, 2367, 2356, 2376
1829, 1997, 1966, 1960, 2128, 2305, 2274, 2268, 2436
1830, 2004, 2007, 1955, 1962, 2312, 2315, 2263, 2270
1831, 1996, 1961, 1988, 1999, 2304, 2269, 2296, 2307
1832, 2049, 1956, 1961, 1996, 2357, 2264, 2269, 2304
1833, 2013, 1984, 1983, 2009, 2321, 2292, 2291, 2317
1834, 1958, 1971, 2001, 1998, 2266, 2279, 2309, 2306
1835, 2104, 2024, 2000, 1995, 2412, 2332, 2308, 2303
1836, 2010, 2014, 1963, 1974, 2318, 2322, 2271, 2282
1837, 1997, 2129, 2025, 2002, 2305, 2437, 2333, 2310
1838, 2019, 1964, 1985, 2017, 2327, 2272, 2293, 2325
1839, 2014, 2020, 1982, 1963, 2322, 2328, 2290, 2271
1840, 2041, 2044, 2054, 2115, 2349, 2352, 2362, 2423
1841, 2018, 1986, 1964, 2019, 2326, 2294, 2272, 2327
1842, 2043, 2017, 2013, 2039, 2351, 2325, 2321, 2347
1843, 2037, 2010, 2007, 2035, 2345, 2318, 2315, 2343
1844, 1948, 2015, 2011, 1957, 2256, 2323, 2319, 2265
1845, 2003, 2134, 2028, 1999, 2311, 2442, 2336, 2307
1846, 2008, 2030, 2027, 2005, 2316, 2338, 2335, 2313
1847, 2056, 2050, 2028, 2032, 2364, 2358, 2336, 2340
1848, 2002, 2025, 2029, 2006, 2310, 2333, 2337, 2314
1849, 2021, 2016, 1965, 1949, 2329, 2324, 2273, 2257
1850, 2044, 2040, 2139, 2054, 2352, 2348, 2447, 2362
1851, 2018, 2042, 2036, 2015, 2326, 2350, 2344, 2323
1852, 1986, 2018, 2015, 1948, 2294, 2326, 2323, 2256
1853, 2028, 2134, 2011, 2032, 2336, 2442, 2319, 2340
1854, 2055, 2039, 2033, 2051, 2363, 2347, 2341, 2359
1855, 2151, 2043, 2039, 2055, 2459, 2351, 2347, 2363
1856, 2015, 2036, 2032, 2011, 2323, 2344, 2340, 2319
1857, 1949, 1982, 2020, 2021, 2257, 2290, 2328, 2329
1858, 2012, 2016, 2038, 2034, 2320, 2324, 2346, 2342
1859, 2066, 1952, 2022, 2046, 2374, 2260, 2330, 2354
1860, 2047, 2132, 2123, 2023, 2355, 2440, 2431, 2331
1861, 2132, 2047, 2049, 2131, 2440, 2355, 2357, 2439
1862, 2031, 2004, 2000, 2024, 2339, 2312, 2308, 2332
1863, 1996, 1999, 2028, 2026, 2304, 2307, 2336, 2334
1864, 1998, 2001, 2005, 2027, 2306, 2309, 2313, 2335
1865, 2052, 2140, 2138, 2097, 2360, 2448, 2446, 2405
1866, 2045, 2019, 2017, 2043, 2353, 2327, 2325, 2351
1867, 2030, 2008, 2012, 2034, 2338, 2316, 2320, 2342
1868, 2096, 2087, 2078, 2082, 2404, 2395, 2386, 2390
1869, 2040, 2014, 2010, 2037, 2348, 2322, 2318, 2345
1870, 2043, 2151, 2116, 2045, 2351, 2459, 2424, 2353
1871, 2120, 2109, 2106, 2119, 2428, 2417, 2414, 2427
1872, 2144, 2100, 2136, 2110, 2452, 2408, 2444, 2418
1873, 2041, 2021, 2020, 2044, 2349, 2329, 2328, 2352
1874, 2107, 2150, 2054, 2139, 2415, 2458, 2362, 2447
1875, 2021, 2041, 2038, 2016, 2329, 2349, 2346, 2324
1876, 2030, 2034, 2038, 2053, 2338, 2342, 2346, 2361
1877, 2109, 2120, 2117, 2153, 2417, 2428, 2425, 2461
1878, 2150, 2111, 2115, 2054, 2458, 2419, 2423, 2362
1879, 2105, 2053, 2038, 2057, 2413, 2361, 2346, 2365
1880, 2019, 2045, 2042, 2018, 2327, 2353, 2350, 2326
1881, 2149, 2056, 2032, 2036, 2457, 2364, 2340, 2344
1882, 2108, 2113, 2112, 2151, 2416, 2421, 2420, 2459
1883, 2064, 2059, 2071, 2072, 2372, 2367, 2379, 2380
1884, 2142, 2141, 2073, 2135, 2450, 2449, 2381, 2443
1885, 2022, 1958, 1998, 2048, 2330, 2266, 2306, 2356
1886, 2070, 2063, 2083, 2143, 2378, 2371, 2391, 2451
1887, 2027, 2030, 2053, 2062, 2335, 2338, 2361, 2370
1888, 2102, 2087, 2051, 2033, 2410, 2395, 2359, 2341
1889, 2052, 2037, 2035, 2140, 2360, 2345, 2343, 2448
1890, 2038, 2041, 2115, 2057, 2346, 2349, 2423, 2365
1891, 2083, 2076, 2099, 2095, 2391, 2384, 2407, 2403
1892, 2112, 2119, 2149, 2152, 2420, 2427, 2457, 2460
1893, 2109, 2099, 2076, 2106, 2417, 2407, 2384, 2414
1894, 2110, 2136, 2077, 2105, 2418, 2444, 2385, 2413
1895, 2069, 2026, 2063, 2070, 2377, 2334, 2371, 2378
1896, 2070, 2135, 2058, 2069, 2378, 2443, 2366, 2377
1897, 2071, 2068, 2027, 2062, 2379, 2376, 2335, 2370
1898, 2072, 2071, 2082, 2078, 2380, 2379, 2390, 2386
1899, 2147, 2148, 2156, 2155, 2455, 2456, 2464, 2463
1900, 2064, 2072, 2088, 2080, 2372, 2380, 2396, 2388
1901, 2065, 2073, 2089, 2081, 2373, 2381, 2397, 2389
1902, 2048, 1998, 2027, 2068, 2356, 2306, 2335, 2376
1903, 2049, 1996, 2026, 2069, 2357, 2304, 2334, 2377
1904, 2135, 2073, 2065, 2058, 2443, 2381, 2373, 2366
1905, 2143, 2083, 2095, 2148, 2451, 2391, 2403, 2456
1906, 2084, 2074, 2080, 2090, 2392, 2382, 2388, 2398
1907, 1993, 2085, 2081, 2091, 2301, 2393, 2389, 2399
1908, 1990, 2074, 2084, 1991, 2298, 2382, 2392, 2299
1909, 2081, 2085, 2092, 2075, 2389, 2393, 2400, 2383
1910, 2107, 2097, 2095, 2099, 2415, 2405, 2403, 2407
1911, 2076, 2083, 2063, 2050, 2384, 2391, 2371, 2358
1912, 2136, 2100, 2098, 2096, 2444, 2408, 2406, 2404
1913, 2105, 2077, 2062, 2053, 2413, 2385, 2370, 2361
1914, 2088, 2094, 2133, 2103, 2396, 2402, 2441, 2411
1915, 2081, 2089, 2093, 2091, 2389, 2397, 2401, 2399
1916, 2071, 2062, 2077, 2082, 2379, 2370, 2385, 2390
1917, 2103, 2090, 2080, 2088, 2411, 2398, 2388, 2396
1918, 2086, 2093, 2089, 2079, 2394, 2401, 2397, 2387
1919, 2072, 2078, 2094, 2088, 2380, 2386, 2402, 2396
1920, 2051, 2087, 2096, 2098, 2359, 2395, 2404, 2406
1921, 2137, 2104, 2091, 2093, 2445, 2412, 2399, 2401
1922, 2073, 2141, 2079, 2089, 2381, 2449, 2387, 2397
1923, 1992, 2092, 1977, 2126, 2300, 2400, 2285, 2434
1924, 2138, 2031, 2024, 2101, 2446, 2339, 2332, 2409
1925, 2102, 2094, 2078, 2087, 2410, 2402, 2386, 2395
1926, 2154, 2098, 2100, 2108, 2462, 2406, 2408, 2416
1927, 2136, 2096, 2082, 2077, 2444, 2404, 2390, 2385
1928, 2146, 2137, 2093, 2086, 2454, 2445, 2401, 2394
1929, 2097, 2107, 2139, 2052, 2405, 2415, 2447, 2360
1930, 2151, 2055, 2154, 2108, 2459, 2363, 2462, 2416
1931, 2111, 2153, 2117, 2118, 2419, 2461, 2425, 2426
1932, 2153, 2114, 2099, 2109, 2461, 2422, 2407, 2417
1933, 2144, 2113, 2108, 2100, 2452, 2421, 2416, 2408
1934, 2138, 2101, 2137, 2146, 2446, 2409, 2445, 2454
1935, 2145, 2133, 2094, 2102, 2453, 2441, 2402, 2410
1936, 2025, 2129, 2103, 2133, 2333, 2437, 2411, 2441
1937, 2101, 2024, 2104, 2137, 2409, 2332, 2412, 2445
1938, 2106, 2076, 2050, 2056, 2414, 2384, 2358, 2364
1939, 2111, 2118, 2057, 2115, 2419, 2426, 2365, 2423
1940, 2150, 2107, 2099, 2114, 2458, 2415, 2407, 2422
1941, 2057, 2118, 2110, 2105, 2365, 2426, 2418, 2413
1942, 2114, 2153, 2111, 2150, 2422, 2461, 2419, 2458
1943, 2120, 2113, 2144, 2117, 2428, 2421, 2452, 2425
1944, 2152, 2042, 2045, 2116, 2460, 2350, 2353, 2424
1945, 2056, 2149, 2119, 2106, 2364, 2457, 2427, 2414
1946, 2110, 2118, 2117, 2144, 2418, 2426, 2425, 2452
1947, 2119, 2112, 2113, 2120, 2427, 2420, 2421, 2428
1948, 2151, 2112, 2152, 2116, 2459, 2420, 2460, 2424
1949, 1959, 1914, 1953, 2122, 2267, 2222, 2261, 2430
1950, 2127, 1946, 2123, 2132, 2435, 2254, 2431, 2440
1951, 1989, 1944, 1901, 2124, 2297, 2252, 2209, 2432
1952, 1992, 1945, 1943, 2125, 2300, 2253, 2251, 2433
1953, 1952, 1912, 1932, 1967, 2260, 2220, 2240, 2275
1954, 2130, 2127, 2132, 2131, 2438, 2435, 2440, 2439
1955, 2131, 2058, 2065, 2130, 2439, 2366, 2373, 2438
1956, 2133, 2145, 2029, 2025, 2441, 2453, 2337, 2333
1957, 2146, 2156, 2097, 2138, 2454, 2464, 2405, 2446
1958, 2040, 2037, 2052, 2139, 2348, 2345, 2360, 2447
1959, 2035, 2031, 2138, 2140, 2343, 2339, 2446, 2448
1960, 2147, 2079, 2141, 2142, 2455, 2387, 2449, 2450
1961, 2148, 2147, 2142, 2143, 2456, 2455, 2450, 2451
1962, 2135, 2070, 2143, 2142, 2443, 2378, 2451, 2450
1963, 2155, 2086, 2079, 2147, 2463, 2394, 2387, 2455
1964, 2152, 2149, 2036, 2042, 2460, 2457, 2344, 2350
1965, 2055, 2051, 2098, 2154, 2363, 2359, 2406, 2462
1966, 2086, 2155, 2156, 2146, 2394, 2463, 2464, 2454
1967, 2148, 2095, 2097, 2156, 2456, 2403, 2405, 2464
1968, 2253, 2157, 2172, 2251, 2561, 2465, 2480, 2559
1969, 2251, 2172, 2188, 2252, 2559, 2480, 2496, 2560
1970, 2231, 2189, 2159, 2229, 2539, 2497, 2467, 2537
1971, 2375, 2432, 2209, 2230, 2683, 2740, 2517, 2538
1972, 2375, 2230, 2250, 2254, 2683, 2538, 2558, 2562
1973, 2255, 2287, 2393, 2301, 2563, 2595, 2701, 2609
1974, 2235, 2193, 2163, 2225, 2543, 2501, 2471, 2533
1975, 2289, 2233, 2246, 2265, 2597, 2541, 2554, 2573
1976, 2217, 2195, 2165, 2216, 2525, 2503, 2473, 2524
1977, 2180, 2215, 2245, 2203, 2488, 2523, 2553, 2511
1978, 2218, 2166, 2196, 2238, 2526, 2474, 2504, 2546
1979, 2281, 2217, 2216, 2258, 2589, 2525, 2524, 2566
1980, 2320, 2316, 2281, 2258, 2628, 2624, 2589, 2566
1981, 2281, 2316, 2313, 2259, 2589, 2624, 2621, 2567
1982, 2198, 2240, 2220, 2169, 2506, 2548, 2528, 2477
1983, 2276, 2171, 2170, 2221, 2584, 2479, 2478, 2529
1984, 2260, 2374, 2221, 2220, 2568, 2682, 2529, 2528
1985, 2175, 2261, 2222, 2176, 2483, 2569, 2530, 2484
1986, 2241, 2199, 2176, 2222, 2549, 2507, 2484, 2530
1987, 2392, 2267, 2430, 2299, 2700, 2575, 2738, 2607
1988, 2276, 2221, 2374, 2429, 2584, 2529, 2682, 2737
1989, 2429, 2368, 2382, 2298, 2737, 2676, 2690, 2606
1990, 2292, 2243, 2237, 2291, 2600, 2551, 2545, 2599
1991, 2311, 2295, 2289, 2442, 2619, 2603, 2597, 2750
1992, 2234, 2192, 2191, 2212, 2542, 2500, 2499, 2520
1993, 2162, 2226, 2212, 2191, 2470, 2534, 2520, 2499
1994, 2431, 2284, 2228, 2331, 2739, 2592, 2536, 2639
1995, 2252, 2188, 2187, 2209, 2560, 2496, 2495, 2517
1996, 2227, 2161, 2160, 2210, 2535, 2469, 2468, 2518
1997, 2228, 2184, 2207, 2249, 2536, 2492, 2515, 2557
1998, 2295, 2247, 2233, 2289, 2603, 2555, 2541, 2597
1999, 2193, 2235, 2214, 2164, 2501, 2543, 2522, 2472
2000, 2236, 2194, 2164, 2214, 2544, 2502, 2472, 2522
2001, 2238, 2196, 2195, 2217, 2546, 2504, 2503, 2525
2002, 2177, 2223, 2224, 2178, 2485, 2531, 2532, 2486
2003, 2219, 2167, 2197, 2239, 2527, 2475, 2505, 2547
2004, 2367, 2372, 2368, 2354, 2675, 2680, 2676, 2662
2005, 2222, 2267, 2268, 2241, 2530, 2575, 2576, 2549
2006, 2241, 2268, 2274, 2223, 2549, 2576, 2582, 2531
2007, 2202, 2244, 2215, 2180, 2510, 2552, 2523, 2488
2008, 2203, 2245, 2213, 2181, 2511, 2553, 2521, 2489
2009, 2247, 2205, 2182, 2233, 2555, 2513, 2490, 2541
2010, 2331, 2228, 2249, 2264, 2639, 2536, 2557, 2572
2011, 2284, 2185, 2184, 2228, 2592, 2493, 2492, 2536
2012, 2209, 2187, 2186, 2230, 2517, 2495, 2494, 2538
2013, 2210, 2160, 2189, 2231, 2518, 2468, 2497, 2539
2014, 2232, 2190, 2161, 2227, 2540, 2498, 2469, 2535
2015, 2190, 2232, 2226, 2162, 2498, 2540, 2534, 2470
2016, 2206, 2248, 2211, 2183, 2514, 2556, 2519, 2491
2017, 2249, 2207, 2183, 2211, 2557, 2515, 2491, 2519
2018, 2282, 2234, 2212, 2263, 2590, 2542, 2520, 2571
2019, 2225, 2163, 2192, 2234, 2533, 2471, 2500, 2542
2020, 2246, 2204, 2181, 2213, 2554, 2512, 2489, 2521
2021, 2233, 2182, 2204, 2246, 2541, 2490, 2512, 2554
2022, 2235, 2290, 2257, 2214, 2543, 2598, 2565, 2522
2023, 2216, 2165, 2194, 2236, 2524, 2473, 2502, 2544
2024, 2179, 2237, 2243, 2201, 2487, 2545, 2551, 2509
2025, 2215, 2272, 2294, 2245, 2523, 2580, 2602, 2553
2026, 2259, 2238, 2217, 2281, 2567, 2546, 2525, 2589
2027, 2239, 2197, 2166, 2218, 2547, 2505, 2474, 2526
2028, 2275, 2168, 2167, 2219, 2583, 2476, 2475, 2527
2029, 2437, 2302, 2398, 2411, 2745, 2610, 2706, 2719
2030, 2168, 2275, 2240, 2198, 2476, 2583, 2548, 2506
2031, 2237, 2179, 2200, 2242, 2545, 2487, 2508, 2550
2032, 2221, 2170, 2169, 2220, 2529, 2478, 2477, 2528
2033, 2242, 2200, 2178, 2224, 2550, 2508, 2486, 2532
2034, 2277, 2173, 2171, 2276, 2585, 2481, 2479, 2584
2035, 2278, 2174, 2173, 2277, 2586, 2482, 2481, 2585
2036, 2223, 2177, 2199, 2241, 2531, 2485, 2507, 2549
2037, 2330, 2219, 2239, 2266, 2638, 2527, 2547, 2574
2038, 2317, 2291, 2280, 2314, 2625, 2599, 2588, 2622
2039, 2279, 2218, 2238, 2259, 2587, 2526, 2546, 2567
2040, 2334, 2336, 2358, 2371, 2642, 2644, 2666, 2679
2041, 2226, 2270, 2263, 2212, 2534, 2578, 2571, 2520
2042, 2185, 2284, 2250, 2208, 2493, 2592, 2558, 2516
2043, 2255, 2210, 2231, 2287, 2563, 2518, 2539, 2595
2044, 2383, 2400, 2300, 2433, 2691, 2708, 2608, 2741
2045, 2157, 2253, 2286, 2158, 2465, 2561, 2594, 2466
2046, 2208, 2250, 2230, 2186, 2516, 2558, 2538, 2494
2047, 2369, 2297, 2432, 2375, 2677, 2605, 2740, 2683
2048, 2283, 2227, 2210, 2255, 2591, 2535, 2518, 2563
2049, 2303, 2308, 2288, 2283, 2611, 2616, 2596, 2591
2050, 2248, 2206, 2205, 2247, 2556, 2514, 2513, 2555
2051, 2295, 2311, 2307, 2296, 2603, 2619, 2615, 2604
2052, 2339, 2343, 2315, 2312, 2647, 2651, 2623, 2620
2053, 2244, 2202, 2201, 2243, 2552, 2510, 2509, 2551
2054, 2437, 2305, 2436, 2302, 2745, 2613, 2744, 2610
2055, 2279, 2259, 2313, 2309, 2587, 2567, 2621, 2617
2056, 2245, 2294, 2256, 2213, 2553, 2602, 2564, 2521
2057, 2315, 2318, 2282, 2263, 2623, 2626, 2590, 2571
2058, 2211, 2269, 2264, 2249, 2519, 2577, 2572, 2557
2059, 2433, 2251, 2252, 2297, 2741, 2559, 2560, 2605
2060, 2229, 2159, 2158, 2286, 2537, 2467, 2466, 2594
2061, 2285, 2229, 2286, 2434, 2593, 2537, 2594, 2742
2062, 2229, 2285, 2287, 2231, 2537, 2593, 2595, 2539
2063, 2254, 2250, 2284, 2431, 2562, 2558, 2592, 2739
2064, 2288, 2232, 2227, 2283, 2596, 2540, 2535, 2591
2065, 2225, 2271, 2290, 2235, 2533, 2579, 2598, 2543
2066, 2265, 2246, 2213, 2256, 2573, 2554, 2521, 2564
2067, 2273, 2236, 2214, 2257, 2581, 2544, 2522, 2565
2068, 2258, 2216, 2236, 2273, 2566, 2524, 2544, 2581
2069, 2218, 2279, 2266, 2239, 2526, 2587, 2574, 2547
2070, 2242, 2280, 2291, 2237, 2550, 2588, 2599, 2545
2071, 2436, 2268, 2267, 2302, 2744, 2576, 2575, 2610
2072, 2330, 2260, 2275, 2219, 2638, 2568, 2583, 2527
2073, 2299, 2278, 2277, 2298, 2607, 2586, 2585, 2606
2074, 2174, 2278, 2261, 2175, 2482, 2586, 2569, 2483
2075, 2280, 2242, 2224, 2262, 2588, 2550, 2532, 2570
2076, 2271, 2225, 2234, 2282, 2579, 2533, 2542, 2590
2077, 2433, 2297, 2369, 2383, 2741, 2605, 2677, 2691
2078, 2367, 2354, 2330, 2356, 2675, 2662, 2638, 2664
2079, 2276, 2429, 2298, 2277, 2584, 2737, 2606, 2585
2080, 2262, 2224, 2223, 2274, 2570, 2532, 2531, 2582
2081, 2310, 2262, 2274, 2305, 2618, 2570, 2582, 2613
2082, 2248, 2296, 2269, 2211, 2556, 2604, 2577, 2519
2083, 2264, 2357, 2355, 2331, 2572, 2665, 2663, 2639
2084, 2308, 2312, 2270, 2288, 2616, 2620, 2578, 2596
2085, 2352, 2328, 2322, 2348, 2660, 2636, 2630, 2656
2086, 2244, 2293, 2272, 2215, 2552, 2601, 2580, 2523
2087, 2347, 2321, 2317, 2341, 2655, 2629, 2625, 2649
2088, 2314, 2280, 2262, 2310, 2622, 2588, 2570, 2618
2089, 2261, 2278, 2299, 2430, 2569, 2586, 2607, 2738
2090, 2293, 2244, 2243, 2292, 2601, 2552, 2551, 2600
2091, 2270, 2226, 2232, 2288, 2578, 2534, 2540, 2596
2092, 2389, 2383, 2369, 2373, 2697, 2691, 2677, 2681
2093, 2253, 2300, 2434, 2286, 2561, 2608, 2742, 2594
2094, 2283, 2255, 2301, 2303, 2591, 2563, 2609, 2611
2095, 2296, 2248, 2247, 2295, 2604, 2556, 2555, 2603
2096, 2324, 2320, 2258, 2273, 2632, 2628, 2566, 2581
2097, 2325, 2293, 2292, 2321, 2633, 2601, 2600, 2629
2098, 2341, 2317, 2314, 2337, 2649, 2625, 2622, 2645
2099, 2453, 2410, 2341, 2337, 2761, 2718, 2649, 2645
2100, 2442, 2289, 2265, 2319, 2750, 2597, 2573, 2627
2101, 2373, 2369, 2435, 2438, 2681, 2677, 2743, 2746
2102, 2303, 2301, 2399, 2412, 2611, 2609, 2707, 2720
2103, 2435, 2369, 2375, 2254, 2743, 2677, 2683, 2562
2104, 2388, 2382, 2368, 2372, 2696, 2690, 2676, 2680
2105, 2429, 2374, 2354, 2368, 2737, 2682, 2662, 2676
2106, 2398, 2302, 2267, 2392, 2706, 2610, 2575, 2700
2107, 2287, 2285, 2400, 2393, 2595, 2593, 2708, 2701
2108, 2439, 2357, 2377, 2366, 2747, 2665, 2685, 2674
2109, 2379, 2367, 2356, 2376, 2687, 2675, 2664, 2684
2110, 2305, 2274, 2268, 2436, 2613, 2582, 2576, 2744
2111, 2312, 2315, 2263, 2270, 2620, 2623, 2571, 2578
2112, 2304, 2269, 2296, 2307, 2612, 2577, 2604, 2615
2113, 2357, 2264, 2269, 2304, 2665, 2572, 2577, 2612
2114, 2321, 2292, 2291, 2317, 2629, 2600, 2599, 2625
2115, 2266, 2279, 2309, 2306, 2574, 2587, 2617, 2614
2116, 2412, 2332, 2308, 2303, 2720, 2640, 2616, 2611
2117, 2318, 2322, 2271, 2282, 2626, 2630, 2579, 2590
2118, 2305, 2437, 2333, 2310, 2613, 2745, 2641, 2618
2119, 2327, 2272, 2293, 2325, 2635, 2580, 2601, 2633
2120, 2322, 2328, 2290, 2271, 2630, 2636, 2598, 2579
2121, 2349, 2352, 2362, 2423, 2657, 2660, 2670, 2731
2122, 2326, 2294, 2272, 2327, 2634, 2602, 2580, 2635
2123, 2351, 2325, 2321, 2347, 2659, 2633, 2629, 2655
2124, 2345, 2318, 2315, 2343, 2653, 2626, 2623, 2651
2125, 2256, 2323, 2319, 2265, 2564, 2631, 2627, 2573
2126, 2311, 2442, 2336, 2307, 2619, 2750, 2644, 2615
2127, 2316, 2338, 2335, 2313, 2624, 2646, 2643, 2621
2128, 2364, 2358, 2336, 2340, 2672, 2666, 2644, 2648
2129, 2310, 2333, 2337, 2314, 2618, 2641, 2645, 2622
2130, 2329, 2324, 2273, 2257, 2637, 2632, 2581, 2565
2131, 2352, 2348, 2447, 2362, 2660, 2656, 2755, 2670
2132, 2326, 2350, 2344, 2323, 2634, 2658, 2652, 2631
2133, 2294, 2326, 2323, 2256, 2602, 2634, 2631, 2564
2134, 2336, 2442, 2319, 2340, 2644, 2750, 2627, 2648
2135, 2363, 2347, 2341, 2359, 2671, 2655, 2649, 2667
2136, 2459, 2351, 2347, 2363, 2767, 2659, 2655, 2671
2137, 2323, 2344, 2340, 2319, 2631, 2652, 2648, 2627
2138, 2257, 2290, 2328, 2329, 2565, 2598, 2636, 2637
2139, 2320, 2324, 2346, 2342, 2628, 2632, 2654, 2650
2140, 2374, 2260, 2330, 2354, 2682, 2568, 2638, 2662
2141, 2355, 2440, 2431, 2331, 2663, 2748, 2739, 2639
2142, 2440, 2355, 2357, 2439, 2748, 2663, 2665, 2747
2143, 2339, 2312, 2308, 2332, 2647, 2620, 2616, 2640
2144, 2304, 2307, 2336, 2334, 2612, 2615, 2644, 2642
2145, 2306, 2309, 2313, 2335, 2614, 2617, 2621, 2643
2146, 2360, 2448, 2446, 2405, 2668, 2756, 2754, 2713
2147, 2353, 2327, 2325, 2351, 2661, 2635, 2633, 2659
2148, 2338, 2316, 2320, 2342, 2646, 2624, 2628, 2650
2149, 2404, 2395, 2386, 2390, 2712, 2703, 2694, 2698
2150, 2348, 2322, 2318, 2345, 2656, 2630, 2626, 2653
2151, 2351, 2459, 2424, 2353, 2659, 2767, 2732, 2661
2152, 2428, 2417, 2414, 2427, 2736, 2725, 2722, 2735
2153, 2452, 2408, 2444, 2418, 2760, 2716, 2752, 2726
2154, 2349, 2329, 2328, 2352, 2657, 2637, 2636, 2660
2155, 2415, 2458, 2362, 2447, 2723, 2766, 2670, 2755
2156, 2329, 2349, 2346, 2324, 2637, 2657, 2654, 2632
2157, 2338, 2342, 2346, 2361, 2646, 2650, 2654, 2669
2158, 2417, 2428, 2425, 2461, 2725, 2736, 2733, 2769
2159, 2458, 2419, 2423, 2362, 2766, 2727, 2731, 2670
2160, 2413, 2361, 2346, 2365, 2721, 2669, 2654, 2673
2161, 2327, 2353, 2350, 2326, 2635, 2661, 2658, 2634
2162, 2457, 2364, 2340, 2344, 2765, 2672, 2648, 2652
2163, 2416, 2421, 2420, 2459, 2724, 2729, 2728, 2767
2164, 2372, 2367, 2379, 2380, 2680, 2675, 2687, 2688
2165, 2450, 2449, 2381, 2443, 2758, 2757, 2689, 2751
2166, 2330, 2266, 2306, 2356, 2638, 2574, 2614, 2664
2167, 2378, 2371, 2391, 2451, 2686, 2679, 2699, 2759
2168, 2335, 2338, 2361, 2370, 2643, 2646, 2669, 2678
2169, 2410, 2395, 2359, 2341, 2718, 2703, 2667, 2649
2170, 2360, 2345, 2343, 2448, 2668, 2653, 2651, 2756
2171, 2346, 2349, 2423, 2365, 2654, 2657, 2731, 2673
2172, 2391, 2384, 2407, 2403, 2699, 2692, 2715, 2711
2173, 2420, 2427, 2457, 2460, 2728, 2735, 2765, 2768
2174, 2417, 2407, 2384, 2414, 2725, 2715, 2692, 2722
2175, 2418, 2444, 2385, 2413, 2726, 2752, 2693, 2721
2176, 2377, 2334, 2371, 2378, 2685, 2642, 2679, 2686
2177, 2378, 2443, 2366, 2377, 2686, 2751, 2674, 2685
2178, 2379, 2376, 2335, 2370, 2687, 2684, 2643, 2678
2179, 2380, 2379, 2390, 2386, 2688, 2687, 2698, 2694
2180, 2455, 2456, 2464, 2463, 2763, 2764, 2772, 2771
2181, 2372, 2380, 2396, 2388, 2680, 2688, 2704, 2696
2182, 2373, 2381, 2397, 2389, 2681, 2689, 2705, 2697
2183, 2356, 2306, 2335, 2376, 2664, 2614, 2643, 2684
2184, 2357, 2304, 2334, 2377, 2665, 2612, 2642, 2685
2185, 2443, 2381, 2373, 2366, 2751, 2689, 2681, 2674
2186, 2451, 2391, 2403, 2456, 2759, 2699, 2711, 2764
2187, 2392, 2382, 2388, 2398, 2700, 2690, 2696, 2706
2188, 2301, 2393, 2389, 2399, 2609, 2701, 2697, 2707
2189, 2298, 2382, 2392, 2299, 2606, 2690, 2700, 2607
2190, 2389, 2393, 2400, 2383, 2697, 2701, 2708, 2691
2191, 2415, 2405, 2403, 2407, 2723, 2713, 2711, 2715
2192, 2384, 2391, 2371, 2358, 2692, 2699, 2679, 2666
2193, 2444, 2408, 2406, 2404, 2752, 2716, 2714, 2712
2194, 2413, 2385, 2370, 2361, 2721, 2693, 2678, 2669
2195, 2396, 2402, 2441, 2411, 2704, 2710, 2749, 2719
2196, 2389, 2397, 2401, 2399, 2697, 2705, 2709, 2707
2197, 2379, 2370, 2385, 2390, 2687, 2678, 2693, 2698
2198, 2411, 2398, 2388, 2396, 2719, 2706, 2696, 2704
2199, 2394, 2401, 2397, 2387, 2702, 2709, 2705, 2695
2200, 2380, 2386, 2402, 2396, 2688, 2694, 2710, 2704
2201, 2359, 2395, 2404, 2406, 2667, 2703, 2712, 2714
2202, 2445, 2412, 2399, 2401, 2753, 2720, 2707, 2709
2203, 2381, 2449, 2387, 2397, 2689, 2757, 2695, 2705
2204, 2300, 2400, 2285, 2434, 2608, 2708, 2593, 2742
2205, 2446, 2339, 2332, 2409, 2754, 2647, 2640, 2717
2206, 2410, 2402, 2386, 2395, 2718, 2710, 2694, 2703
2207, 2462, 2406, 2408, 2416, 2770, 2714, 2716, 2724
2208, 2444, 2404, 2390, 2385, 2752, 2712, 2698, 2693
2209, 2454, 2445, 2401, 2394, 2762, 2753, 2709, 2702
2210, 2405, 2415, 2447, 2360, 2713, 2723, 2755, 2668
2211, 2459, 2363, 2462, 2416, 2767, 2671, 2770, 2724
2212, 2419, 2461, 2425, 2426, 2727, 2769, 2733, 2734
2213, 2461, 2422, 2407, 2417, 2769, 2730, 2715, 2725
2214, 2452, 2421, 2416, 2408, 2760, 2729, 2724, 2716
2215, 2446, 2409, 2445, 2454, 2754, 2717, 2753, 2762
2216, 2453, 2441, 2402, 2410, 2761, 2749, 2710, 2718
2217, 2333, 2437, 2411, 2441, 2641, 2745, 2719, 2749
2218, 2409, 2332, 2412, 2445, 2717, 2640, 2720, 2753
2219, 2414, 2384, 2358, 2364, 2722, 2692, 2666, 2672
2220, 2419, 2426, 2365, 2423, 2727, 2734, 2673, 2731
2221, 2458, 2415, 2407, 2422, 2766, 2723, 2715, 2730
2222, 2365, 2426, 2418, 2413, 2673, 2734, 2726, 2721
2223, 2422, 2461, 2419, 2458, 2730, 2769, 2727, 2766
2224, 2428, 2421, 2452, 2425, 2736, 2729, 2760, 2733
2225, 2460, 2350, 2353, 2424, 2768, 2658, 2661, 2732
2226, 2364, 2457, 2427, 2414, 2672, 2765, 2735, 2722
2227, 2418, 2426, 2425, 2452, 2726, 2734, 2733, 2760
2228, 2427, 2420, 2421, 2428, 2735, 2728, 2729, 2736
2229, 2459, 2420, 2460, 2424, 2767, 2728, 2768, 2732
2230, 2267, 2222, 2261, 2430, 2575, 2530, 2569, 2738
2231, 2435, 2254, 2431, 2440, 2743, 2562, 2739, 2748
2232, 2297, 2252, 2209, 2432, 2605, 2560, 2517, 2740
2233, 2300, 2253, 2251, 2433, 2608, 2561, 2559, 2741
2234, 2260, 2220, 2240, 2275, 2568, 2528, 2548, 2583
2235, 2438, 2435, 2440, 2439, 2746, 2743, 2748, 2747
2236, 2439, 2366, 2373, 2438, 2747, 2674, 2681, 2746
2237, 2441, 2453, 2337, 2333, 2749, 2761, 2645, 2641
2238, 2454, 2464, 2405, 2446, 2762, 2772, 2713, 2754
2239, 2348, 2345, 2360, 2447, 2656, 2653, 2668, 2755
2240, 2343, 2339, 2446, 2448, 2651, 2647, 2754, 2756
2241, 2455, 2387, 2449, 2450, 2763, 2695, 2757, 2758
2242, 2456, 2455, 2450, 2451, 2764, 2763, 2758, 2759
2243, 2443, 2378, 2451, 2450, 2751, 2686, 2759, 2758
2244, 2463, 2394, 2387, 2455, 2771, 2702, 2695, 2763
2245, 2460, 2457, 2344, 2350, 2768, 2765, 2652, 2658
2246, 2363, 2359, 2406, 2462, 2671, 2667, 2714, 2770
2247, 2394, 2463, 2464, 2454, 2702, 2771, 2772, 2762
2248, 2456, 2403, 2405, 2464, 2764, 2711, 2713, 2772
2249, 2561, 2465, 2480, 2559, 2869, 2773, 2788, 2867
2250, 2559, 2480, 2496, 2560, 2867, 2788, 2804, 2868
2251, 2539, 2497, 2467, 2537, 2847, 2805, 2775, 2845
2252, 2683, 2740, 2517, 2538, 2991, 3048, 2825, 2846
2253, 2683, 2538, 2558, 2562, 2991, 2846, 2866, 2870
2254, 2563, 2595, 2701, 2609, 2871, 2903, 3009, 2917
2255, 2543, 2501, 2471, 2533, 2851, 2809, 2779, 2841
2256, 2597, 2541, 2554, 2573, 2905, 2849, 2862, 2881
2257, 2525, 2503, 2473, 2524, 2833, 2811, 2781, 2832
2258, 2488, 2523, 2553, 2511, 2796, 2831, 2861, 2819
2259, 2526, 2474, 2504, 2546, 2834, 2782, 2812, 2854
2260, 2589, 2525, 2524, 2566, 2897, 2833, 2832, 2874
2261, 2628, 2624, 2589, 2566, 2936, 2932, 2897, 2874
2262, 2589, 2624, 2621, 2567, 2897, 2932, 2929, 2875
2263, 2506, 2548, 2528, 2477, 2814, 2856, 2836, 2785
2264, 2584, 2479, 2478, 2529, 2892, 2787, 2786, 2837
2265, 2568, 2682, 2529, 2528, 2876, 2990, 2837, 2836
2266, 2483, 2569, 2530, 2484, 2791, 2877, 2838, 2792
2267, 2549, 2507, 2484, 2530, 2857, 2815, 2792, 2838
2268, 2700, 2575, 2738, 2607, 3008, 2883, 3046, 2915
2269, 2584, 2529, 2682, 2737, 2892, 2837, 2990, 3045
2270, 2737, 2676, 2690, 2606, 3045, 2984, 2998, 2914
2271, 2600, 2551, 2545, 2599, 2908, 2859, 2853, 2907
2272, 2619, 2603, 2597, 2750, 2927, 2911, 2905, 3058
2273, 2542, 2500, 2499, 2520, 2850, 2808, 2807, 2828
2274, 2470, 2534, 2520, 2499, 2778, 2842, 2828, 2807
2275, 2739, 2592, 2536, 2639, 3047, 2900, 2844, 2947
2276, 2560, 2496, 2495, 2517, 2868, 2804, 2803, 2825
2277, 2535, 2469, 2468, 2518, 2843, 2777, 2776, 2826
2278, 2536, 2492, 2515, 2557, 2844, 2800, 2823, 2865
2279, 2603, 2555, 2541, 2597, 2911, 2863, 2849, 2905
2280, 2501, 2543, 2522, 2472, 2809, 2851, 2830, 2780
2281, 2544, 2502, 2472, 2522, 2852, 2810, 2780, 2830
2282, 2546, 2504, 2503, 2525, 2854, 2812, 2811, 2833
2283, 2485, 2531, 2532, 2486, 2793, 2839, 2840, 2794
2284, 2527, 2475, 2505, 2547, 2835, 2783, 2813, 2855
2285, 2675, 2680, 2676, 2662, 2983, 2988, 2984, 2970
2286, 2530, 2575, 2576, 2549, 2838, 2883, 2884, 2857
2287, 2549, 2576, 2582, 2531, 2857, 2884, 2890, 2839
2288, 2510, 2552, 2523, 2488, 2818, 2860, 2831, 2796
2289, 2511, 2553, 2521, 2489, 2819, 2861, 2829, 2797
2290, 2555, 2513, 2490, 2541, 2863, 2821, 2798, 2849
2291, 2639, 2536, 2557, 2572, 2947, 2844, 2865, 2880
2292, 2592, 2493, 2492, 2536, 2900, 2801, 2800, 2844
2293, 2517, 2495, 2494, 2538, 2825, 2803, 2802, 2846
2294, 2518, 2468, 2497, 2539, 2826, 2776, 2805, 2847
2295, 2540, 2498, 2469, 2535, 2848, 2806, 2777, 2843
2296, 2498, 2540, 2534, 2470, 2806, 2848, 2842, 2778
2297, 2514, 2556, 2519, 2491, 2822, 2864, 2827, 2799
2298, 2557, 2515, 2491, 2519, 2865, 2823, 2799, 2827
2299, 2590, 2542, 2520, 2571, 2898, 2850, 2828, 2879
2300, 2533, 2471, 2500, 2542, 2841, 2779, 2808, 2850
2301, 2554, 2512, 2489, 2521, 2862, 2820, 2797, 2829
2302, 2541, 2490, 2512, 2554, 2849, 2798, 2820, 2862
2303, 2543, 2598, 2565, 2522, 2851, 2906, 2873, 2830
2304, 2524, 2473, 2502, 2544, 2832, 2781, 2810, 2852
2305, 2487, 2545, 2551, 2509, 2795, 2853, 2859, 2817
2306, 2523, 2580, 2602, 2553, 2831, 2888, 2910, 2861
2307, 2567, 2546, 2525, 2589, 2875, 2854, 2833, 2897
2308, 2547, 2505, 2474, 2526, 2855, 2813, 2782, 2834
2309, 2583, 2476, 2475, 2527, 2891, 2784, 2783, 2835
2310, 2745, 2610, 2706, 2719, 3053, 2918, 3014, 3027
2311, 2476, 2583, 2548, 2506, 2784, 2891, 2856, 2814
2312, 2545, 2487, 2508, 2550, 2853, 2795, 2816, 2858
2313, 2529, 2478, 2477, 2528, 2837, 2786, 2785, 2836
2314, 2550, 2508, 2486, 2532, 2858, 2816, 2794, 2840
2315, 2585, 2481, 2479, 2584, 2893, 2789, 2787, 2892
2316, 2586, 2482, 2481, 2585, 2894, 2790, 2789, 2893
2317, 2531, 2485, 2507, 2549, 2839, 2793, 2815, 2857
2318, 2638, 2527, 2547, 2574, 2946, 2835, 2855, 2882
2319, 2625, 2599, 2588, 2622, 2933, 2907, 2896, 2930
2320, 2587, 2526, 2546, 2567, 2895, 2834, 2854, 2875
2321, 2642, 2644, 2666, 2679, 2950, 2952, 2974, 2987
2322, 2534, 2578, 2571, 2520, 2842, 2886, 2879, 2828
2323, 2493, 2592, 2558, 2516, 2801, 2900, 2866, 2824
2324, 2563, 2518, 2539, 2595, 2871, 2826, 2847, 2903
2325, 2691, 2708, 2608, 2741, 2999, 3016, 2916, 3049
2326, 2465, 2561, 2594, 2466, 2773, 2869, 2902, 2774
2327, 2516, 2558, 2538, 2494, 2824, 2866, 2846, 2802
2328, 2677, 2605, 2740, 2683, 2985, 2913, 3048, 2991
2329, 2591, 2535, 2518, 2563, 2899, 2843, 2826, 2871
2330, 2611, 2616, 2596, 2591, 2919, 2924, 2904, 2899
2331, 2556, 2514, 2513, 2555, 2864, 2822, 2821, 2863
2332, 2603, 2619, 2615, 2604, 2911, 2927, 2923, 2912
2333, 2647, 2651, 2623, 2620, 2955, 2959, 2931, 2928
2334, 2552, 2510, 2509, 2551, 2860, 2818, 2817, 2859
2335, 2745, 2613, 2744, 2610, 3053, 2921, 3052, 2918
2336, 2587, 2567, 2621, 2617, 2895, 2875, 2929, 2925
2337, 2553, 2602, 2564, 2521, 2861, 2910, 2872, 2829
2338, 2623, 2626, 2590, 2571, 2931, 2934, 2898, 2879
2339, 2519, 2577, 2572, 2557, 2827, 2885, 2880, 2865
2340, 2741, 2559, 2560, 2605, 3049, 2867, 2868, 2913
2341, 2537, 2467, 2466, 2594, 2845, 2775, 2774, 2902
2342, 2593, 2537, 2594, 2742, 2901, 2845, 2902, 3050
2343, 2537, 2593, 2595, 2539, 2845, 2901, 2903, 2847
2344, 2562, 2558, 2592, 2739, 2870, 2866, 2900, 3047
2345, 2596, 2540, 2535, 2591, 2904, 2848, 2843, 2899
2346, 2533, 2579, 2598, 2543, 2841, 2887, 2906, 2851
2347, 2573, 2554, 2521, 2564, 2881, 2862, 2829, 2872
2348, 2581, 2544, 2522, 2565, 2889, 2852, 2830, 2873
2349, 2566, 2524, 2544, 2581, 2874, 2832, 2852, 2889
2350, 2526, 2587, 2574, 2547, 2834, 2895, 2882, 2855
2351, 2550, 2588, 2599, 2545, 2858, 2896, 2907, 2853
2352, 2744, 2576, 2575, 2610, 3052, 2884, 2883, 2918
2353, 2638, 2568, 2583, 2527, 2946, 2876, 2891, 2835
2354, 2607, 2586, 2585, 2606, 2915, 2894, 2893, 2914
2355, 2482, 2586, 2569, 2483, 2790, 2894, 2877, 2791
2356, 2588, 2550, 2532, 2570, 2896, 2858, 2840, 2878
2357, 2579, 2533, 2542, 2590, 2887, 2841, 2850, 2898
2358, 2741, 2605, 2677, 2691, 3049, 2913, 2985, 2999
2359, 2675, 2662, 2638, 2664, 2983, 2970, 2946, 2972
2360, 2584, 2737, 2606, 2585, 2892, 3045, 2914, 2893
2361, 2570, 2532, 2531, 2582, 2878, 2840, 2839, 2890
2362, 2618, 2570, 2582, 2613, 2926, 2878, 2890, 2921
2363, 2556, 2604, 2577, 2519, 2864, 2912, 2885, 2827
2364, 2572, 2665, 2663, 2639, 2880, 2973, 2971, 2947
2365, 2616, 2620, 2578, 2596, 2924, 2928, 2886, 2904
2366, 2660, 2636, 2630, 2656, 2968, 2944, 2938, 2964
2367, 2552, 2601, 2580, 2523, 2860, 2909, 2888, 2831
2368, 2655, 2629, 2625, 2649, 2963, 2937, 2933, 2957
2369, 2622, 2588, 2570, 2618, 2930, 2896, 2878, 2926
2370, 2569, 2586, 2607, 2738, 2877, 2894, 2915, 3046
2371, 2601, 2552, 2551, 2600, 2909, 2860, 2859, 2908
2372, 2578, 2534, 2540, 2596, 2886, 2842, 2848, 2904
2373, 2697, 2691, 2677, 2681, 3005, 2999, 2985, 2989
2374, 2561, 2608, 2742, 2594, 2869, 2916, 3050, 2902
2375, 2591, 2563, 2609, 2611, 2899, 2871, 2917, 2919
2376, 2604, 2556, 2555, 2603, 2912, 2864, 2863, 2911
2377, 2632, 2628, 2566, 2581, 2940, 2936, 2874, 2889
2378, 2633, 2601, 2600, 2629, 2941, 2909, 2908, 2937
2379, 2649, 2625, 2622, 2645, 2957, 2933, 2930, 2953
2380, 2761, 2718, 2649, 2645, 3069, 3026, 2957, 2953
2381, 2750, 2597, 2573, 2627, 3058, 2905, 2881, 2935
2382, 2681, 2677, 2743, 2746, 2989, 2985, 3051, 3054
2383, 2611, 2609, 2707, 2720, 2919, 2917, 3015, 3028
2384, 2743, 2677, 2683, 2562, 3051, 2985, 2991, 2870
2385, 2696, 2690, 2676, 2680, 3004, 2998, 2984, 2988
2386, 2737, 2682, 2662, 2676, 3045, 2990, 2970, 2984
2387, 2706, 2610, 2575, 2700, 3014, 2918, 2883, 3008
2388, 2595, 2593, 2708, 2701, 2903, 2901, 3016, 3009
2389, 2747, 2665, 2685, 2674, 3055, 2973, 2993, 2982
2390, 2687, 2675, 2664, 2684, 2995, 2983, 2972, 2992
2391, 2613, 2582, 2576, 2744, 2921, 2890, 2884, 3052
2392, 2620, 2623, 2571, 2578, 2928, 2931, 2879, 2886
2393, 2612, 2577, 2604, 2615, 2920, 2885, 2912, 2923
2394, 2665, 2572, 2577, 2612, 2973, 2880, 2885, 2920
2395, 2629, 2600, 2599, 2625, 2937, 2908, 2907, 2933
2396, 2574, 2587, 2617, 2614, 2882, 2895, 2925, 2922
2397, 2720, 2640, 2616, 2611, 3028, 2948, 2924, 2919
2398, 2626, 2630, 2579, 2590, 2934, 2938, 2887, 2898
2399, 2613, 2745, 2641, 2618, 2921, 3053, 2949, 2926
2400, 2635, 2580, 2601, 2633, 2943, 2888, 2909, 2941
2401, 2630, 2636, 2598, 2579, 2938, 2944, 2906, 2887
2402, 2657, 2660, 2670, 2731, 2965, 2968, 2978, 3039
2403, 2634, 2602, 2580, 2635, 2942, 2910, 2888, 2943
2404, 2659, 2633, 2629, 2655, 2967, 2941, 2937, 2963
2405, 2653, 2626, 2623, 2651, 2961, 2934, 2931, 2959
2406, 2564, 2631, 2627, 2573, 2872, 2939, 2935, 2881
2407, 2619, 2750, 2644, 2615, 2927, 3058, 2952, 2923
2408, 2624, 2646, 2643, 2621, 2932, 2954, 2951, 2929
2409, 2672, 2666, 2644, 2648, 2980, 2974, 2952, 2956
2410, 2618, 2641, 2645, 2622, 2926, 2949, 2953, 2930
2411, 2637, 2632, 2581, 2565, 2945, 2940, 2889, 2873
2412, 2660, 2656, 2755, 2670, 2968, 2964, 3063, 2978
2413, 2634, 2658, 2652, 2631, 2942, 2966, 2960, 2939
2414, 2602, 2634, 2631, 2564, 2910, 2942, 2939, 2872
2415, 2644, 2750, 2627, 2648, 2952, 3058, 2935, 2956
2416, 2671, 2655, 2649, 2667, 2979, 2963, 2957, 2975
2417, 2767, 2659, 2655, 2671, 3075, 2967, 2963, 2979
2418, 2631, 2652, 2648, 2627, 2939, 2960, 2956, 2935
2419, 2565, 2598, 2636, 2637, 2873, 2906, 2944, 2945
2420, 2628, 2632, 2654, 2650, 2936, 2940, 2962, 2958
2421, 2682, 2568, 2638, 2662, 2990, 2876, 2946, 2970
2422, 2663, 2748, 2739, 2639, 2971, 3056, 3047, 2947
2423, 2748, 2663, 2665, 2747, 3056, 2971, 2973, 3055
2424, 2647, 2620, 2616, 2640, 2955, 2928, 2924, 2948
2425, 2612, 2615, 2644, 2642, 2920, 2923, 2952, 2950
2426, 2614, 2617, 2621, 2643, 2922, 2925, 2929, 2951
2427, 2668, 2756, 2754, 2713, 2976, 3064, 3062, 3021
2428, 2661, 2635, 2633, 2659, 2969, 2943, 2941, 2967
2429, 2646, 2624, 2628, 2650, 2954, 2932, 2936, 2958
2430, 2712, 2703, 2694, 2698, 3020, 3011, 3002, 3006
2431, 2656, 2630, 2626, 2653, 2964, 2938, 2934, 2961
2432, 2659, 2767, 2732, 2661, 2967, 3075, 3040, 2969
2433, 2736, 2725, 2722, 2735, 3044, 3033, 3030, 3043
2434, 2760, 2716, 2752, 2726, 3068, 3024, 3060, 3034
2435, 2657, 2637, 2636, 2660, 2965, 2945, 2944, 2968
2436, 2723, 2766, 2670, 2755, 3031, 3074, 2978, 3063
2437, 2637, 2657, 2654, 2632, 2945, 2965, 2962, 2940
2438, 2646, 2650, 2654, 2669, 2954, 2958, 2962, 2977
2439, 2725, 2736, 2733, 2769, 3033, 3044, 3041, 3077
2440, 2766, 2727, 2731, 2670, 3074, 3035, 3039, 2978
2441, 2721, 2669, 2654, 2673, 3029, 2977, 2962, 2981
2442, 2635, 2661, 2658, 2634, 2943, 2969, 2966, 2942
2443, 2765, 2672, 2648, 2652, 3073, 2980, 2956, 2960
2444, 2724, 2729, 2728, 2767, 3032, 3037, 3036, 3075
2445, 2680, 2675, 2687, 2688, 2988, 2983, 2995, 2996
2446, 2758, 2757, 2689, 2751, 3066, 3065, 2997, 3059
2447, 2638, 2574, 2614, 2664, 2946, 2882, 2922, 2972
2448, 2686, 2679, 2699, 2759, 2994, 2987, 3007, 3067
2449, 2643, 2646, 2669, 2678, 2951, 2954, 2977, 2986
2450, 2718, 2703, 2667, 2649, 3026, 3011, 2975, 2957
2451, 2668, 2653, 2651, 2756, 2976, 2961, 2959, 3064
2452, 2654, 2657, 2731, 2673, 2962, 2965, 3039, 2981
2453, 2699, 2692, 2715, 2711, 3007, 3000, 3023, 3019
2454, 2728, 2735, 2765, 2768, 3036, 3043, 3073, 3076
2455, 2725, 2715, 2692, 2722, 3033, 3023, 3000, 3030
2456, 2726, 2752, 2693, 2721, 3034, 3060, 3001, 3029
2457, 2685, 2642, 2679, 2686, 2993, 2950, 2987, 2994
2458, 2686, 2751, 2674, 2685, 2994, 3059, 2982, 2993
2459, 2687, 2684, 2643, 2678, 2995, 2992, 2951, 2986
2460, 2688, 2687, 2698, 2694, 2996, 2995, 3006, 3002
2461, 2763, 2764, 2772, 2771, 3071, 3072, 3080, 3079
2462, 2680, 2688, 2704, 2696, 2988, 2996, 3012, 3004
2463, 2681, 2689, 2705, 2697, 2989, 2997, 3013, 3005
2464, 2664, 2614, 2643, 2684, 2972, 2922, 2951, 2992
2465, 2665, 2612, 2642, 2685, 2973, 2920, 2950, 2993
2466, 2751, 2689, 2681, 2674, 3059, 2997, 2989, 2982
2467, 2759, 2699, 2711, 2764, 3067, 3007, 3019, 3072
2468, 2700, 2690, 2696, 2706, 3008, 2998, 3004, 3014
2469, 2609, 2701, 2697, 2707, 2917, 3009, 3005, 3015
2470, 2606, 2690, 2700, 2607, 2914, 2998, 3008, 2915
2471, 2697, 2701, 2708, 2691, 3005, 3009, 3016, 2999
2472, 2723, 2713, 2711, 2715, 3031, 3021, 3019, 3023
2473, 2692, 2699, 2679, 2666, 3000, 3007, 2987, 2974
2474, 2752, 2716, 2714, 2712, 3060, 3024, 3022, 3020
2475, 2721, 2693, 2678, 2669, 3029, 3001, 2986, 2977
2476, 2704, 2710, 2749, 2719, 3012, 3018, 3057, 3027
2477, 2697, 2705, 2709, 2707, 3005, 3013, 3017, 3015
2478, 2687, 2678, 2693, 2698, 2995, 2986, 3001, 3006
2479, 2719, 2706, 2696, 2704, 3027, 3014, 3004, 3012
2480, 2702, 2709, 2705, 2695, 3010, 3017, 3013, 3003
2481, 2688, 2694, 2710, 2704, 2996, 3002, 3018, 3012
2482, 2667, 2703, 2712, 2714, 2975, 3011, 3020, 3022
2483, 2753, 2720, 2707, 2709, 3061, 3028, 3015, 3017
2484, 2689, 2757, 2695, 2705, 2997, 3065, 3003, 3013
2485, 2608, 2708, 2593, 2742, 2916, 3016, 2901, 3050
2486, 2754, 2647, 2640, 2717, 3062, 2955, 2948, 3025
2487, 2718, 2710, 2694, 2703, 3026, 3018, 3002, 3011
2488, 2770, 2714, 2716, 2724, 3078, 3022, 3024, 3032
2489, 2752, 2712, 2698, 2693, 3060, 3020, 3006, 3001
2490, 2762, 2753, 2709, 2702, 3070, 3061, 3017, 3010
2491, 2713, 2723, 2755, 2668, 3021, 3031, 3063, 2976
2492, 2767, 2671, 2770, 2724, 3075, 2979, 3078, 3032
2493, 2727, 2769, 2733, 2734, 3035, 3077, 3041, 3042
2494, 2769, 2730, 2715, 2725, 3077, 3038, 3023, 3033
2495, 2760, 2729, 2724, 2716, 3068, 3037, 3032, 3024
2496, 2754, 2717, 2753, 2762, 3062, 3025, 3061, 3070
2497, 2761, 2749, 2710, 2718, 3069, 3057, 3018, 3026
2498, 2641, 2745, 2719, 2749, 2949, 3053, 3027, 3057
2499, 2717, 2640, 2720, 2753, 3025, 2948, 3028, 3061
2500, 2722, 2692, 2666, 2672, 3030, 3000, 2974, 2980
2501, 2727, 2734, 2673, 2731, 3035, 3042, 2981, 3039
2502, 2766, 2723, 2715, 2730, 3074, 3031, 3023, 3038
2503, 2673, 2734, 2726, 2721, 2981, 3042, 3034, 3029
2504, 2730, 2769, 2727, 2766, 3038, 3077, 3035, 3074
2505, 2736, 2729, 2760, 2733, 3044, 3037, 3068, 3041
2506, 2768, 2658, 2661, 2732, 3076, 2966, 2969, 3040
2507, 2672, 2765, 2735, 2722, 2980, 3073, 3043, 3030
2508, 2726, 2734, 2733, 2760, 3034, 3042, 3041, 3068
2509, 2735, 2728, 2729, 2736, 3043, 3036, 3037, 3044
2510, 2767, 2728, 2768, 2732, 3075, 3036, 3076, 3040
2511, 2575, 2530, 2569, 2738, 2883, 2838, 2877, 3046
2512, 2743, 2562, 2739, 2748, 3051, 2870, 3047, 3056
2513, 2605, 2560, 2517, 2740, 2913, 2868, 2825, 3048
2514, 2608, 2561, 2559, 2741, 2916, 2869, 2867, 3049
2515, 2568, 2528, 2548, 2583, 2876, 2836, 2856, 2891
2516, 2746, 2743, 2748, 2747, 3054, 3051, 3056, 3055
2517, 2747, 2674, 2681, 2746, 3055, 2982, 2989, 3054
2518, 2749, 2761, 2645, 2641, 3057, 3069, 2953, 2949
2519, 2762, 2772, 2713, 2754, 3070, 3080, 3021, 3062
2520, 2656, 2653, 2668, 2755, 2964, 2961, 2976, 3063
2521, 2651, 2647, 2754, 2756, 2959, 2955, 3062, 3064
2522, 2763, 2695, 2757, 2758, 3071, 3003, 3065, 3066
2523, 2764, 2763, 2758, 2759, 3072, 3071, 3066, 3067
2524, 2751, 2686, 2759, 2758, 3059, 2994, 3067, 3066
2525, 2771, 2702, 2695, 2763, 3079, 3010, 3003, 3071
2526, 2768, 2765, 2652, 2658, 3076, 3073, 2960, 2966
2527, 2671, 2667, 2714, 2770, 2979, 2975, 3022, 3078
2528, 2702, 2771, 2772, 2762, 3010, 3079, 3080, 3070
2529, 2764, 2711, 2713, 2772, 3072, 3019, 3021, 3080
2530, 2869, 2773, 2788, 2867, 3177, 3081, 3096, 3175
2531, 2867, 2788, 2804, 2868, 3175, 3096, 3112, 3176
2532, 2847, 2805, 2775, 2845, 3155, 3113, 3083, 3153
2533, 2991, 3048, 2825, 2846, 3299, 3356, 3133, 3154
2534, 2991, 2846, 2866, 2870, 3299, 3154, 3174, 3178
2535, 2871, 2903, 3009, 2917, 3179, 3211, 3317, 3225
2536, 2851, 2809, 2779, 2841, 3159, 3117, 3087, 3149
2537, 2905, 2849, 2862, 2881, 3213, 3157, 3170, 3189
2538, 2833, 2811, 2781, 2832, 3141, 3119, 3089, 3140
2539, 2796, 2831, 2861, 2819, 3104, 3139, 3169, 3127
2540, 2834, 2782, 2812, 2854, 3142, 3090, 3120, 3162
2541, 2897, 2833, 2832, 2874, 3205, 3141, 3140, 3182
2542, 2936, 2932, 2897, 2874, 3244, 3240, 3205, 3182
2543, 2897, 2932, 2929, 2875, 3205, 3240, 3237, 3183
2544, 2814, 2856, 2836, 2785, 3122, 3164, 3144, 3093
2545, 2892, 2787, 2786, 2837, 3200, 3095, 3094, 3145
2546, 2876, 2990, 2837, 2836, 3184, 3298, 3145, 3144
2547, 2791, 2877, 2838, 2792, 3099, 3185, 3146, 3100
2548, 2857, 2815, 2792, 2838, 3165, 3123, 3100, 3146
2549, 3008, 2883, 3046, 2915, 3316, 3191, 3354, 3223
2550, 2892, 2837, 2990, 3045, 3200, 3145, 3298, 3353
2551, 3045, 2984, 2998, 2914, 3353, 3292, 3306, 3222
2552, 2908, 2859, 2853, 2907, 3216, 3167, 3161, 3215
2553, 2927, 2911, 2905, 3058, 3235, 3219, 3213, 3366
2554, 2850, 2808, 2807, 2828, 3158, 3116, 3115, 3136
2555, 2778, 2842, 2828, 2807, 3086, 3150, 3136, 3115
2556, 3047, 2900, 2844, 2947, 3355, 3208, 3152, 3255
2557, 2868, 2804, 2803, 2825, 3176, 3112, 3111, 3133
2558, 2843, 2777, 2776, 2826, 3151, 3085, 3084, 3134
2559, 2844, 2800, 2823, 2865, 3152, 3108, 3131, 3173
2560, 2911, 2863, 2849, 2905, 3219, 3171, 3157, 3213
2561, 2809, 2851, 2830, 2780, 3117, 3159, 3138, 3088
2562, 2852, 2810, 2780, 2830, 3160, 3118, 3088, 3138
2563, 2854, 2812, 2811, 2833, 3162, 3120, 3119, 3141
2564, 2793, 2839, 2840, 2794, 3101, 3147, 3148, 3102
2565, 2835, 2783, 2813, 2855, 3143, 3091, 3121, 3163
2566, 2983, 2988, 2984, 2970, 3291, 3296, 3292, 3278
2567, 2838, 2883, 2884, 2857, 3146, 3191, 3192, 3165
2568, 2857, 2884, 2890, 2839, 3165, 3192, 3198, 3147
2569, 2818, 2860, 2831, 2796, 3126, 3168, 3139, 3104
2570, 2819, 2861, 2829, 2797, 3127, 3169, 3137, 3105
2571, 2863, 2821, 2798, 2849, 3171, 3129, 3106, 3157
2572, 2947, 2844, 2865, 2880, 3255, 3152, 3173, 3188
2573, 2900, 2801, 2800, 2844, 3208, 3109, 3108, 3152
2574, 2825, 2803, 2802, 2846, 3133, 3111, 3110, 3154
2575, 2826, 2776, 2805, 2847, 3134, 3084, 3113, 3155
2576, 2848, 2806, 2777, 2843, 3156, 3114, 3085, 3151
2577, 2806, 2848, 2842, 2778, 3114, 3156, 3150, 3086
2578, 2822, 2864, 2827, 2799, 3130, 3172, 3135, 3107
2579, 2865, 2823, 2799, 2827, 3173, 3131, 3107, 3135
2580, 2898, 2850, 2828, 2879, 3206, 3158, 3136, 3187
2581, 2841, 2779, 2808, 2850, 3149, 3087, 3116, 3158
2582, 2862, 2820, 2797, 2829, 3170, 3128, 3105, 3137
2583, 2849, 2798, 2820, 2862, 3157, 3106, 3128, 3170
2584, 2851, 2906, 2873, 2830, 3159, 3214, 3181, 3138
2585, 2832, 2781, 2810, 2852, 3140, 3089, 3118, 3160
2586, 2795, 2853, 2859, 2817, 3103, 3161, 3167, 3125
2587, 2831, 2888, 2910, 2861, 3139, 3196, 3218, 3169
2588, 2875, 2854, 2833, 2897, 3183, 3162, 3141, 3205
2589, 2855, 2813, 2782, 2834, 3163, 3121, 3090, 3142
2590, 2891, 2784, 2783, 2835, 3199, 3092, 3091, 3143
2591, 3053, 2918, 3014, 3027, 3361, 3226, 3322, 3335
2592, 2784, 2891, 2856, 2814, 3092, 3199, 3164, 3122
2593, 2853, 2795, 2816, 2858, 3161, 3103, 3124, 3166
2594, 2837, 2786, 2785, 2836, 3145, 3094, 3093, 3144
2595, 2858, 2816, 2794, 2840, 3166, 3124, 3102, 3148
2596, 2893, 2789, 2787, 2892, 3201, 3097, 3095, 3200
2597, 2894, 2790, 2789, 2893, 3202, 3098, 3097, 3201
2598, 2839, 2793, 2815, 2857, 3147, 3101, 3123, 3165
2599, 2946, 2835, 2855, 2882, 3254, 3143, 3163, 3190
2600, 2933, 2907, 2896, 2930, 3241, 3215, 3204, 3238
2601, 2895, 2834, 2854, 2875, 3203, 3142, 3162, 3183
2602, 2950, 2952, 2974, 2987, 3258, 3260, 3282, 3295
2603, 2842, 2886, 2879, 2828, 3150, 3194, 3187, 3136
2604, 2801, 2900, 2866, 2824, 3109, 3208, 3174, 3132
2605, 2871, 2826, 2847, 2903, 3179, 3134, 3155, 3211
2606, 2999, 3016, 2916, 3049, 3307, 3324, 3224, 3357
2607, 2773, 2869, 2902, 2774, 3081, 3177, 3210, 3082
2608, 2824, 2866, 2846, 2802, 3132, 3174, 3154, 3110
2609, 2985, 2913, 3048, 2991, 3293, 3221, 3356, 3299
2610, 2899, 2843, 2826, 2871, 3207, 3151, 3134, 3179
2611, 2919, 2924, 2904, 2899, 3227, 3232, 3212, 3207
2612, 2864, 2822, 2821, 2863, 3172, 3130, 3129, 3171
2613, 2911, 2927, 2923, 2912, 3219, 3235, 3231, 3220
2614, 2955, 2959, 2931, 2928, 3263, 3267, 3239, 3236
2615, 2860, 2818, 2817, 2859, 3168, 3126, 3125, 3167
2616, 3053, 2921, 3052, 2918, 3361, 3229, 3360, 3226
2617, 2895, 2875, 2929, 2925, 3203, 3183, 3237, 3233
2618, 2861, 2910, 2872, 2829, 3169, 3218, 3180, 3137
2619, 2931, 2934, 2898, 2879, 3239, 3242, 3206, 3187
2620, 2827, 2885, 2880, 2865, 3135, 3193, 3188, 3173
2621, 3049, 2867, 2868, 2913, 3357, 3175, 3176, 3221
2622, 2845, 2775, 2774, 2902, 3153, 3083, 3082, 3210
2623, 2901, 2845, 2902, 3050, 3209, 3153, 3210, 3358
2624, 2845, 2901, 2903, 2847, 3153, 3209, 3211, 3155
2625, 2870, 2866, 2900, 3047, 3178, 3174, 3208, 3355
2626, 2904, 2848, 2843, 2899, 3212, 3156, 3151, 3207
2627, 2841, 2887, 2906, 2851, 3149, 3195, 3214, 3159
2628, 2881, 2862, 2829, 2872, 3189, 3170, 3137, 3180
2629, 2889, 2852, 2830, 2873, 3197, 3160, 3138, 3181
2630, 2874, 2832, 2852, 2889, 3182, 3140, 3160, 3197
2631, 2834, 2895, 2882, 2855, 3142, 3203, 3190, 3163
2632, 2858, 2896, 2907, 2853, 3166, 3204, 3215, 3161
2633, 3052, 2884, 2883, 2918, 3360, 3192, 3191, 3226
2634, 2946, 2876, 2891, 2835, 3254, 3184, 3199, 3143
2635, 2915, 2894, 2893, 2914, 3223, 3202, 3201, 3222
2636, 2790, 2894, 2877, 2791, 3098, 3202, 3185, 3099
2637, 2896, 2858, 2840, 2878, 3204, 3166, 3148, 3186
2638, 2887, 2841, 2850, 2898, 3195, 3149, 3158, 3206
2639, 3049, 2913, 2985, 2999, 3357, 3221, 3293, 3307
2640, 2983, 2970, 2946, 2972, 3291, 3278, 3254, 3280
2641, 2892, 3045, 2914, 2893, 3200, 3353, 3222, 3201
2642, 2878, 2840, 2839, 2890, 3186, 3148, 3147, 3198
2643, 2926, 2878, 2890, 2921, 3234, 3186, 3198, 3229
2644, 2864, 2912, 2885, 2827, 3172, 3220, 3193, 3135
2645, 2880, 2973, 2971, 2947, 3188, 3281, 3279, 3255
2646, 2924, 2928, 2886, 2904, 3232, 3236, 3194, 3212
2647, 2968, 2944, 2938, 2964, 3276, 3252, 3246, 3272
2648, 2860, 2909, 2888, 2831, 3168, 3217, 3196, 3139
2649, 2963, 2937, 2933, 2957, 3271, 3245, 3241, 3265
2650, 2930, 2896, 2878, 2926, 3238, 3204, 3186, 3234
2651, 2877, 2894, 2915, 3046, 3185, 3202, 3223, 3354
2652, 2909, 2860, 2859, 2908, 3217, 3168, 3167, 3216
2653, 2886, 2842, 2848, 2904, 3194, 3150, 3156, 3212
2654, 3005, 2999, 2985, 2989, 3313, 3307, 3293, 3297
2655, 2869, 2916, 3050, 2902, 3177, 3224, 3358, 3210
2656, 2899, 2871, 2917, 2919, 3207, 3179, 3225, 3227
2657, 2912, 2864, 2863, 2911, 3220, 3172, 3171, 3219
2658, 2940, 2936, 2874, 2889, 3248, 3244, 3182, 3197
2659, 2941, 2909, 2908, 2937, 3249, 3217, 3216, 3245
2660, 2957, 2933, 2930, 2953, 3265, 3241, 3238, 3261
2661, 3069, 3026, 2957, 2953, 3377, 3334, 3265, 3261
2662, 3058, 2905, 2881, 2935, 3366, 3213, 3189, 3243
2663, 2989, 2985, 3051, 3054, 3297, 3293, 3359, 3362
2664, 2919, 2917, 3015, 3028, 3227, 3225, 3323, 3336
2665, 3051, 2985, 2991, 2870, 3359, 3293, 3299, 3178
2666, 3004, 2998, 2984, 2988, 3312, 3306, 3292, 3296
2667, 3045, 2990, 2970, 2984, 3353, 3298, 3278, 3292
2668, 3014, 2918, 2883, 3008, 3322, 3226, 3191, 3316
2669, 2903, 2901, 3016, 3009, 3211, 3209, 3324, 3317
2670, 3055, 2973, 2993, 2982, 3363, 3281, 3301, 3290
2671, 2995, 2983, 2972, 2992, 3303, 3291, 3280, 3300
2672, 2921, 2890, 2884, 3052, 3229, 3198, 3192, 3360
2673, 2928, 2931, 2879, 2886, 3236, 3239, 3187, 3194
2674, 2920, 2885, 2912, 2923, 3228, 3193, 3220, 3231
2675, 2973, 2880, 2885, 2920, 3281, 3188, 3193, 3228
2676, 2937, 2908, 2907, 2933, 3245, 3216, 3215, 3241
2677, 2882, 2895, 2925, 2922, 3190, 3203, 3233, 3230
2678, 3028, 2948, 2924, 2919, 3336, 3256, 3232, 3227
2679, 2934, 2938, 2887, 2898, 3242, 3246, 3195, 3206
2680, 2921, 3053, 2949, 2926, 3229, 3361, 3257, 3234
2681, 2943, 2888, 2909, 2941, 3251, 3196, 3217, 3249
2682, 2938, 2944, 2906, 2887, 3246, 3252, 3214, 3195
2683, 2965, 2968, 2978, 3039, 3273, 3276, 3286, 3347
2684, 2942, 2910, 2888, 2943, 3250, 3218, 3196, 3251
2685, 2967, 2941, 2937, 2963, 3275, 3249, 3245, 3271
2686, 2961, 2934, 2931, 2959, 3269, 3242, 3239, 3267
2687, 2872, 2939, 2935, 2881, 3180, 3247, 3243, 3189
2688, 2927, 3058, 2952, 2923, 3235, 3366, 3260, 3231
2689, 2932, 2954, 2951, 2929, 3240, 3262, 3259, 3237
2690, 2980, 2974, 2952, 2956, 3288, 3282, 3260, 3264
2691, 2926, 2949, 2953, 2930, 3234, 3257, 3261, 3238
2692, 2945, 2940, 2889, 2873, 3253, 3248, 3197, 3181
2693, 2968, 2964, 3063, 2978, 3276, 3272, 3371, 3286
2694, 2942, 2966, 2960, 2939, 3250, 3274, 3268, 3247
2695, 2910, 2942, 2939, 2872, 3218, 3250, 3247, 3180
2696, 2952, 3058, 2935, 2956, 3260, 3366, 3243, 3264
2697, 2979, 2963, 2957, 2975, 3287, 3271, 3265, 3283
2698, 3075, 2967, 2963, 2979, 3383, 3275, 3271, 3287
2699, 2939, 2960, 2956, 2935, 3247, 3268, 3264, 3243
2700, 2873, 2906, 2944, 2945, 3181, 3214, 3252, 3253
2701, 2936, 2940, 2962, 2958, 3244, 3248, 3270, 3266
2702, 2990, 2876, 2946, 2970, 3298, 3184, 3254, 3278
2703, 2971, 3056, 3047, 2947, 3279, 3364, 3355, 3255
2704, 3056, 2971, 2973, 3055, 3364, 3279, 3281, 3363
2705, 2955, 2928, 2924, 2948, 3263, 3236, 3232, 3256
2706, 2920, 2923, 2952, 2950, 3228, 3231, 3260, 3258
2707, 2922, 2925, 2929, 2951, 3230, 3233, 3237, 3259
2708, 2976, 3064, 3062, 3021, 3284, 3372, 3370, 3329
2709, 2969, 2943, 2941, 2967, 3277, 3251, 3249, 3275
2710, 2954, 2932, 2936, 2958, 3262, 3240, 3244, 3266
2711, 3020, 3011, 3002, 3006, 3328, 3319, 3310, 3314
2712, 2964, 2938, 2934, 2961, 3272, 3246, 3242, 3269
2713, 2967, 3075, 3040, 2969, 3275, 3383, 3348, 3277
2714, 3044, 3033, 3030, 3043, 3352, 3341, 3338, 3351
2715, 3068, 3024, 3060, 3034, 3376, 3332, 3368, 3342
2716, 2965, 2945, 2944, 2968, 3273, 3253, 3252, 3276
2717, 3031, 3074, 2978, 3063, 3339, 3382, 3286, 3371
2718, 2945, 2965, 2962, 2940, 3253, 3273, 3270, 3248
2719, 2954, 2958, 2962, 2977, 3262, 3266, 3270, 3285
2720, 3033, 3044, 3041, 3077, 3341, 3352, 3349, 3385
2721, 3074, 3035, 3039, 2978, 3382, 3343, 3347, 3286
2722, 3029, 2977, 2962, 2981, 3337, 3285, 3270, 3289
2723, 2943, 2969, 2966, 2942, 3251, 3277, 3274, 3250
2724, 3073, 2980, 2956, 2960, 3381, 3288, 3264, 3268
2725, 3032, 3037, 3036, 3075, 3340, 3345, 3344, 3383
2726, 2988, 2983, 2995, 2996, 3296, 3291, 3303, 3304
2727, 3066, 3065, 2997, 3059, 3374, 3373, 3305, 3367
2728, 2946, 2882, 2922, 2972, 3254, 3190, 3230, 3280
2729, 2994, 2987, 3007, 3067, 3302, 3295, 3315, 3375
2730, 2951, 2954, 2977, 2986, 3259, 3262, 3285, 3294
2731, 3026, 3011, 2975, 2957, 3334, 3319, 3283, 3265
2732, 2976, 2961, 2959, 3064, 3284, 3269, 3267, 3372
2733, 2962, 2965, 3039, 2981, 3270, 3273, 3347, 3289
2734, 3007, 3000, 3023, 3019, 3315, 3308, 3331, 3327
2735, 3036, 3043, 3073, 3076, 3344, 3351, 3381, 3384
2736, 3033, 3023, 3000, 3030, 3341, 3331, 3308, 3338
2737, 3034, 3060, 3001, 3029, 3342, 3368, 3309, 3337
2738, 2993, 2950, 2987, 2994, 3301, 3258, 3295, 3302
2739, 2994, 3059, 2982, 2993, 3302, 3367, 3290, 3301
2740, 2995, 2992, 2951, 2986, 3303, 3300, 3259, 3294
2741, 2996, 2995, 3006, 3002, 3304, 3303, 3314, 3310
2742, 3071, 3072, 3080, 3079, 3379, 3380, 3388, 3387
2743, 2988, 2996, 3012, 3004, 3296, 3304, 3320, 3312
2744, 2989, 2997, 3013, 3005, 3297, 3305, 3321, 3313
2745, 2972, 2922, 2951, 2992, 3280, 3230, 3259, 3300
2746, 2973, 2920, 2950, 2993, 3281, 3228, 3258, 3301
2747, 3059, 2997, 2989, 2982, 3367, 3305, 3297, 3290
2748, 3067, 3007, 3019, 3072, 3375, 3315, 3327, 3380
2749, 3008, 2998, 3004, 3014, 3316, 3306, 3312, 3322
2750, 2917, 3009, 3005, 3015, 3225, 3317, 3313, 3323
2751, 2914, 2998, 3008, 2915, 3222, 3306, 3316, 3223
2752, 3005, 3009, 3016, 2999, 3313, 3317, 3324, 3307
2753, 3031, 3021, 3019, 3023, 3339, 3329, 3327, 3331
2754, 3000, 3007, 2987, 2974, 3308, 3315, 3295, 3282
2755, 3060, 3024, 3022, 3020, 3368, 3332, 3330, 3328
2756, 3029, 3001, 2986, 2977, 3337, 3309, 3294, 3285
2757, 3012, 3018, 3057, 3027, 3320, 3326, 3365, 3335
2758, 3005, 3013, 3017, 3015, 3313, 3321, 3325, 3323
2759, 2995, 2986, 3001, 3006, 3303, 3294, 3309, 3314
2760, 3027, 3014, 3004, 3012, 3335, 3322, 3312, 3320
2761, 3010, 3017, 3013, 3003, 3318, 3325, 3321, 3311
2762, 2996, 3002, 3018, 3012, 3304, 3310, 3326, 3320
2763, 2975, 3011, 3020, 3022, 3283, 3319, 3328, 3330
2764, 3061, 3028, 3015, 3017, 3369, 3336, 3323, 3325
2765, 2997, 3065, 3003, 3013, 3305, 3373, 3311, 3321
2766, 2916, 3016, 2901, 3050, 3224, 3324, 3209, 3358
2767, 3062, 2955, 2948, 3025, 3370, 3263, 3256, 3333
2768, 3026, 3018, 3002, 3011, 3334, 3326, 3310, 3319
2769, 3078, 3022, 3024, 3032, 3386, 3330, 3332, 3340
2770, 3060, 3020, 3006, 3001, 3368, 3328, 3314, 3309
2771, 3070, 3061, 3017, 3010, 3378, 3369, 3325, 3318
2772, 3021, 3031, 3063, 2976, 3329, 3339, 3371, 3284
2773, 3075, 2979, 3078, 3032, 3383, 3287, 3386, 3340
2774, 3035, 3077, 3041, 3042, 3343, 3385, 3349, 3350
2775, 3077, 3038, 3023, 3033, 3385, 3346, 3331, 3341
2776, 3068, 3037, 3032, 3024, 3376, 3345, 3340, 3332
2777, 3062, 3025, 3061, 3070, 3370, 3333, 3369, 3378
2778, 3069, 3057, 3018, 3026, 3377, 3365, 3326, 3334
2779, 2949, 3053, 3027, 3057, 3257, 3361, 3335, 3365
2780, 3025, 2948, 3028, 3061, 3333, 3256, 3336, 3369
2781, 3030, 3000, 2974, 2980, 3338, 3308, 3282, 3288
2782, 3035, 3042, 2981, 3039, 3343, 3350, 3289, 3347
2783, 3074, 3031, 3023, 3038, 3382, 3339, 3331, 3346
2784, 2981, 3042, 3034, 3029, 3289, 3350, 3342, 3337
2785, 3038, 3077, 3035, 3074, 3346, 3385, 3343, 3382
2786, 3044, 3037, 3068, 3041, 3352, 3345, 3376, 3349
2787, 3076, 2966, 2969, 3040, 3384, 3274, 3277, 3348
2788, 2980, 3073, 3043, 3030, 3288, 3381, 3351, 3338
2789, 3034, 3042, 3041, 3068, 3342, 3350, 3349, 3376
2790, 3043, 3036, 3037, 3044, 3351, 3344, 3345, 3352
2791, 3075, 3036, 3076, 3040, 3383, 3344, 3384, 3348
2792, 2883, 2838, 2877, 3046, 3191, 3146, 3185, 3354
2793, 3051, 2870, 3047, 3056, 3359, 3178, 3355, 3364
2794, 2913, 2868, 2825, 3048, 3221, 3176, 3133, 3356
2795, 2916, 2869, 2867, 3049, 3224, 3177, 3175, 3357
2796, 2876, 2836, 2856, 2891, 3184, 3144, 3164, 3199
2797, 3054, 3051, 3056, 3055, 3362, 3359, 3364, 3363
2798, 3055, 2982, 2989, 3054, 3363, 3290, 3297, 3362
2799, 3057, 3069, 2953, 2949, 3365, 3377, 3261, 3257
2800, 3070, 3080, 3021, 3062, 3378, 3388, 3329, 3370
2801, 2964, 2961, 2976, 3063, 3272, 3269, 3284, 3371
2802, 2959, 2955, 3062, 3064, 3267, 3263, 3370, 3372
2803, 3071, 3003, 3065, 3066, 3379, 3311, 3373, 3374
2804, 3072, 3071, 3066, 3067, 3380, 3379, 3374, 3375
2805, 3059, 2994, 3067, 3066, 3367, 3302, 3375, 3374
2806, 3079, 3010, 3003, 3071, 3387, 3318, 3311, 3379
2807, 3076, 3073, 2960, 2966, 3384, 3381, 3268, 3274
2808, 2979, 2975, 3022, 3078, 3287, 3283, 3330, 3386
2809, 3010, 3079, 3080, 3070, 3318, 3387, 3388, 3378
2810, 3072, 3019, 3021, 3080, 3380, 3327, 3329, 3388
2811, 3177, 3081, 3096, 3175, 3485, 3389, 3404, 3483
2812, 3175, 3096, 3112, 3176, 3483, 3404, 3420, 3484
2813, 3155, 3113, 3083, 3153, 3463, 3421, 3391, 3461
2814, 3299, 3356, 3133, 3154, 3607, 3664, 3441, 3462
2815, 3299, 3154, 3174, 3178, 3607, 3462, 3482, 3486
2816, 3179, 3211, 3317, 3225, 3487, 3519, 3625, 3533
2817, 3159, 3117, 3087, 3149, 3467, 3425, 3395, 3457
2818, 3213, 3157, 3170, 3189, 3521, 3465, 3478, 3497
2819, 3141, 3119, 3089, 3140, 3449, 3427, 3397, 3448
2820, 3104, 3139, 3169, 3127, 3412, 3447, 3477, 3435
2821, 3142, 3090, 3120, 3162, 3450, 3398, 3428, 3470
2822, 3205, 3141, 3140, 3182, 3513, 3449, 3448, 3490
2823, 3244, 3240, 3205, 3182, 3552, 3548, 3513, 3490
2824, 3205, 3240, 3237, 3183, 3513, 3548, 3545, 3491
2825, 3122, 3164, 3144, 3093, 3430, 3472, 3452, 3401
2826, 3200, 3095, 3094, 3145, 3508, 3403, 3402, 3453
2827, 3184, 3298, 3145, 3144, 3492, 3606, 3453, 3452
2828, 3099, 3185, 3146, 3100, 3407, 3493, 3454, 3408
2829, 3165, 3123, 3100, 3146, 3473, 3431, 3408, 3454
2830, 3316, 3191, 3354, 3223, 3624, 3499, 3662, 3531
2831, 3200, 3145, 3298, 3353, 3508, 3453, 3606, 3661
2832, 3353, 3292, 3306, 3222, 3661, 3600, 3614, 3530
2833, 3216, 3167, 3161, 3215, 3524, 3475, 3469, 3523
2834, 3235, 3219, 3213, 3366, 3543, 3527, 3521, 3674
2835, 3158, 3116, 3115, 3136, 3466, 3424, 3423, 3444
2836, 3086, 3150, 3136, 3115, 3394, 3458, 3444, 3423
2837, 3355, 3208, 3152, 3255, 3663, 3516, 3460, 3563
2838, 3176, 3112, 3111, 3133, 3484, 3420, 3419, 3441
2839, 3151, 3085, 3084, 3134, 3459, 3393, 3392, 3442
2840, 3152, 3108, 3131, 3173, 3460, 3416, 3439, 3481
2841, 3219, 3171, 3157, 3213, 3527, 3479, 3465, 3521
2842, 3117, 3159, 3138, 3088, 3425, 3467, 3446, 3396
2843, 3160, 3118, 3088, 3138, 3468, 3426, 3396, 3446
2844, 3162, 3120, 3119, 3141, 3470, 3428, 3427, 3449
2845, 3101, 3147, 3148, 3102, 3409, 3455, 3456, 3410
2846, 3143, 3091, 3121, 3163, 3451, 3399, 3429, 3471
2847, 3291, 3296, 3292, 3278, 3599, 3604, 3600, 3586
2848, 3146, 3191, 3192, 3165, 3454, 3499, 3500, 3473
2849, 3165, 3192, 3198, 3147, 3473, 3500, 3506, 3455
2850, 3126, 3168, 3139, 3104, 3434, 3476, 3447, 3412
2851, 3127, 3169, 3137, 3105, 3435, 3477, 3445, 3413
2852, 3171, 3129, 3106, 3157, 3479, 3437, 3414, 3465
2853, 3255, 3152, 3173, 3188, 3563, 3460, 3481, 3496
2854, 3208, 3109, 3108, 3152, 3516, 3417, 3416, 3460
2855, 3133, 3111, 3110, 3154, 3441, 3419, 3418, 3462
2856, 3134, 3084, 3113, 3155, 3442, 3392, 3421, 3463
2857, 3156, 3114, 3085, 3151, 3464, 3422, 3393, 3459
2858, 3114, 3156, 3150, 3086, 3422, 3464, 3458, 3394
2859, 3130, 3172, 3135, 3107, 3438, 3480, 3443, 3415
2860, 3173, 3131, 3107, 3135, 3481, 3439, 3415, 3443
2861, 3206, 3158, 3136, 3187, 3514, 3466, 3444, 3495
2862, 3149, 3087, 3116, 3158, 3457, 3395, 3424, 3466
2863, 3170, 3128, 3105, 3137, 3478, 3436, 3413, 3445
2864, 3157, 3106, 3128, 3170, 3465, 3414, 3436, 3478
2865, 3159, 3214, 3181, 3138, 3467, 3522, 3489, 3446
2866, 3140, 3089, 3118, 3160, 3448, 3397, 3426, 3468
2867, 3103, 3161, 3167, 3125, 3411, 3469, 3475, 3433
2868, 3139, 3196, 3218, 3169, 3447, 3504, 3526, 3477
2869, 3183, 3162, 3141, 3205, 3491, 3470, 3449, 3513
2870, 3163, 3121, 3090, 3142, 3471, 3429, 3398, 3450
2871, 3199, 3092, 3091, 3143, 3507, 3400, 3399, 3451
2872, 3361, 3226, 3322, 3335, 3669, 3534, 3630, 3643
2873, 3092, 3199, 3164, 3122, 3400, 3507, 3472, 3430
2874, 3161, 3103, 3124, 3166, 3469, 3411, 3432, 3474
2875, 3145, 3094, 3093, 3144, 3453, 3402, 3401, 3452
2876, 3166, 3124, 3102, 3148, 3474, 3432, 3410, 3456
2877, 3201, 3097, 3095, 3200, 3509, 3405, 3403, 3508
2878, 3202, 3098, 3097, 3201, 3510, 3406, 3405, 3509
2879, 3147, 3101, 3123, 3165, 3455, 3409, 3431, 3473
2880, 3254, 3143, 3163, 3190, 3562, 3451, 3471, 3498
2881, 3241, 3215, 3204, 3238, 3549, 3523, 3512, 3546
2882, 3203, 3142, 3162, 3183, 3511, 3450, 3470, 3491
2883, 3258, 3260, 3282, 3295, 3566, 3568, 3590, 3603
2884, 3150, 3194, 3187, 3136, 3458, 3502, 3495, 3444
2885, 3109, 3208, 3174, 3132, 3417, 3516, 3482, 3440
2886, 3179, 3134, 3155, 3211, 3487, 3442, 3463, 3519
2887, 3307, 3324, 3224, 3357, 3615, 3632, 3532, 3665
2888, 3081, 3177, 3210, 3082, 3389, 3485, 3518, 3390
2889, 3132, 3174, 3154, 3110, 3440, 3482, 3462, 3418
2890, 3293, 3221, 3356, 3299, 3601, 3529, 3664, 3607
2891, 3207, 3151, 3134, 3179, 3515, 3459, 3442, 3487
2892, 3227, 3232, 3212, 3207, 3535, 3540, 3520, 3515
2893, 3172, 3130, 3129, 3171, 3480, 3438, 3437, 3479
2894, 3219, 3235, 3231, 3220, 3527, 3543, 3539, 3528
2895, 3263, 3267, 3239, 3236, 3571, 3575, 3547, 3544
2896, 3168, 3126, 3125, 3167, 3476, 3434, 3433, 3475
2897, 3361, 3229, 3360, 3226, 3669, 3537, 3668, 3534
2898, 3203, 3183, 3237, 3233, 3511, 3491, 3545, 3541
2899, 3169, 3218, 3180, 3137, 3477, 3526, 3488, 3445
2900, 3239, 3242, 3206, 3187, 3547, 3550, 3514, 3495
2901, 3135, 3193, 3188, 3173, 3443, 3501, 3496, 3481
2902, 3357, 3175, 3176, 3221, 3665, 3483, 3484, 3529
2903, 3153, 3083, 3082, 3210, 3461, 3391, 3390, 3518
2904, 3209, 3153, 3210, 3358, 3517, 3461, 3518, 3666
2905, 3153, 3209, 3211, 3155, 3461, 3517, 3519, 3463
2906, 3178, 3174, 3208, 3355, 3486, 3482, 3516, 3663
2907, 3212, 3156, 3151, 3207, 3520, 3464, 3459, 3515
2908, 3149, 3195, 3214, 3159, 3457, 3503, 3522, 3467
2909, 3189, 3170, 3137, 3180, 3497, 3478, 3445, 3488
2910, 3197, 3160, 3138, 3181, 3505, 3468, 3446, 3489
2911, 3182, 3140, 3160, 3197, 3490, 3448, 3468, 3505
2912, 3142, 3203, 3190, 3163, 3450, 3511, 3498, 3471
2913, 3166, 3204, 3215, 3161, 3474, 3512, 3523, 3469
2914, 3360, 3192, 3191, 3226, 3668, 3500, 3499, 3534
2915, 3254, 3184, 3199, 3143, 3562, 3492, 3507, 3451
2916, 3223, 3202, 3201, 3222, 3531, 3510, 3509, 3530
2917, 3098, 3202, 3185, 3099, 3406, 3510, 3493, 3407
2918, 3204, 3166, 3148, 3186, 3512, 3474, 3456, 3494
2919, 3195, 3149, 3158, 3206, 3503, 3457, 3466, 3514
2920, 3357, 3221, 3293, 3307, 3665, 3529, 3601, 3615
2921, 3291, 3278, 3254, 3280, 3599, 3586, 3562, 3588
2922, 3200, 3353, 3222, 3201, 3508, 3661, 3530, 3509
2923, 3186, 3148, 3147, 3198, 3494, 3456, 3455, 3506
2924, 3234, 3186, 3198, 3229, 3542, 3494, 3506, 3537
2925, 3172, 3220, 3193, 3135, 3480, 3528, 3501, 3443
2926, 3188, 3281, 3279, 3255, 3496, 3589, 3587, 3563
2927, 3232, 3236, 3194, 3212, 3540, 3544, 3502, 3520
2928, 3276, 3252, 3246, 3272, 3584, 3560, 3554, 3580
2929, 3168, 3217, 3196, 3139, 3476, 3525, 3504, 3447
2930, 3271, 3245, 3241, 3265, 3579, 3553, 3549, 3573
2931, 3238, 3204, 3186, 3234, 3546, 3512, 3494, 3542
2932, 3185, 3202, 3223, 3354, 3493, 3510, 3531, 3662
2933, 3217, 3168, 3167, 3216, 3525, 3476, 3475, 3524
2934, 3194, 3150, 3156, 3212, 3502, 3458, 3464, 3520
2935, 3313, 3307, 3293, 3297, 3621, 3615, 3601, 3605
2936, 3177, 3224, 3358, 3210, 3485, 3532, 3666, 3518
2937, 3207, 3179, 3225, 3227, 3515, 3487, 3533, 3535
2938, 3220, 3172, 3171, 3219, 3528, 3480, 3479, 3527
2939, 3248, 3244, 3182, 3197, 3556, 3552, 3490, 3505
2940, 3249, 3217, 3216, 3245, 3557, 3525, 3524, 3553
2941, 3265, 3241, 3238, 3261, 3573, 3549, 3546, 3569
2942, 3377, 3334, 3265, 3261, 3685, 3642, 3573, 3569
2943, 3366, 3213, 3189, 3243, 3674, 3521, 3497, 3551
2944, 3297, 3293, 3359, 3362, 3605, 3601, 3667, 3670
2945, 3227, 3225, 3323, 3336, 3535, 3533, 3631, 3644
2946, 3359, 3293, 3299, 3178, 3667, 3601, 3607, 3486
2947, 3312, 3306, 3292, 3296, 3620, 3614, 3600, 3604
2948, 3353, 3298, 3278, 3292, 3661, 3606, 3586, 3600
2949, 3322, 3226, 3191, 3316, 3630, 3534, 3499, 3624
2950, 3211, 3209, 3324, 3317, 3519, 3517, 3632, 3625
2951, 3363, 3281, 3301, 3290, 3671, 3589, 3609, 3598
2952, 3303, 3291, 3280, 3300, 3611, 3599, 3588, 3608
2953, 3229, 3198, 3192, 3360, 3537, 3506, 3500, 3668
2954, 3236, 3239, 3187, 3194, 3544, 3547, 3495, 3502
2955, 3228, 3193, 3220, 3231, 3536, 3501, 3528, 3539
2956, 3281, 3188, 3193, 3228, 3589, 3496, 3501, 3536
2957, 3245, 3216, 3215, 3241, 3553, 3524, 3523, 3549
2958, 3190, 3203, 3233, 3230, 3498, 3511, 3541, 3538
2959, 3336, 3256, 3232, 3227, 3644, 3564, 3540, 3535
2960, 3242, 3246, 3195, 3206, 3550, 3554, 3503, 3514
2961, 3229, 3361, 3257, 3234, 3537, 3669, 3565, 3542
2962, 3251, 3196, 3217, 3249, 3559, 3504, 3525, 3557
2963, 3246, 3252, 3214, 3195, 3554, 3560, 3522, 3503
2964, 3273, 3276, 3286, 3347, 3581, 3584, 3594, 3655
2965, 3250, 3218, 3196, 3251, 3558, 3526, 3504, 3559
2966, 3275, 3249, 3245, 3271, 3583, 3557, 3553, 3579
2967, 3269, 3242, 3239, 3267, 3577, 3550, 3547, 3575
2968, 3180, 3247, 3243, 3189, 3488, 3555, 3551, 3497
2969, 3235, 3366, 3260, 3231, 3543, 3674, 3568, 3539
2970, 3240, 3262, 3259, 3237, 3548, 3570, 3567, 3545
2971, 3288, 3282, 3260, 3264, 3596, 3590, 3568, 3572
2972, 3234, 3257, 3261, 3238, 3542, 3565, 3569, 3546
2973, 3253, 3248, 3197, 3181, 3561, 3556, 3505, 3489
2974, 3276, 3272, 3371, 3286, 3584, 3580, 3679, 3594
2975, 3250, 3274, 3268, 3247, 3558, 3582, 3576, 3555
2976, 3218, 3250, 3247, 3180, 3526, 3558, 3555, 3488
2977, 3260, 3366, 3243, 3264, 3568, 3674, 3551, 3572
2978, 3287, 3271, 3265, 3283, 3595, 3579, 3573, 3591
2979, 3383, 3275, 3271, 3287, 3691, 3583, 3579, 3595
2980, 3247, 3268, 3264, 3243, 3555, 3576, 3572, 3551
2981, 3181, 3214, 3252, 3253, 3489, 3522, 3560, 3561
2982, 3244, 3248, 3270, 3266, 3552, 3556, 3578, 3574
2983, 3298, 3184, 3254, 3278, 3606, 3492, 3562, 3586
2984, 3279, 3364, 3355, 3255, 3587, 3672, 3663, 3563
2985, 3364, 3279, 3281, 3363, 3672, 3587, 3589, 3671
2986, 3263, 3236, 3232, 3256, 3571, 3544, 3540, 3564
2987, 3228, 3231, 3260, 3258, 3536, 3539, 3568, 3566
2988, 3230, 3233, 3237, 3259, 3538, 3541, 3545, 3567
2989, 3284, 3372, 3370, 3329, 3592, 3680, 3678, 3637
2990, 3277, 3251, 3249, 3275, 3585, 3559, 3557, 3583
2991, 3262, 3240, 3244, 3266, 3570, 3548, 3552, 3574
2992, 3328, 3319, 3310, 3314, 3636, 3627, 3618, 3622
2993, 3272, 3246, 3242, 3269, 3580, 3554, 3550, 3577
2994, 3275, 3383, 3348, 3277, 3583, 3691, 3656, 3585
2995, 3352, 3341, 3338, 3351, 3660, 3649, 3646, 3659
2996, 3376, 3332, 3368, 3342, 3684, 3640, 3676, 3650
2997, 3273, 3253, 3252, 3276, 3581, 3561, 3560, 3584
2998, 3339, 3382, 3286, 3371, 3647, 3690, 3594, 3679
2999, 3253, 3273, 3270, 3248, 3561, 3581, 3578, 3556
3000, 3262, 3266, 3270, 3285, 3570, 3574, 3578, 3593
3001, 3341, 3352, 3349, 3385, 3649, 3660, 3657, 3693
3002, 3382, 3343, 3347, 3286, 3690, 3651, 3655, 3594
3003, 3337, 3285, 3270, 3289, 3645, 3593, 3578, 3597
3004, 3251, 3277, 3274, 3250, 3559, 3585, 3582, 3558
3005, 3381, 3288, 3264, 3268, 3689, 3596, 3572, 3576
3006, 3340, 3345, 3344, 3383, 3648, 3653, 3652, 3691
3007, 3296, 3291, 3303, 3304, 3604, 3599, 3611, 3612
3008, 3374, 3373, 3305, 3367, 3682, 3681, 3613, 3675
3009, 3254, 3190, 3230, 3280, 3562, 3498, 3538, 3588
3010, 3302, 3295, 3315, 3375, 3610, 3603, 3623, 3683
3011, 3259, 3262, 3285, 3294, 3567, 3570, 3593, 3602
3012, 3334, 3319, 3283, 3265, 3642, 3627, 3591, 3573
3013, 3284, 3269, 3267, 3372, 3592, 3577, 3575, 3680
3014, 3270, 3273, 3347, 3289, 3578, 3581, 3655, 3597
3015, 3315, 3308, 3331, 3327, 3623, 3616, 3639, 3635
3016, 3344, 3351, 3381, 3384, 3652, 3659, 3689, 3692
3017, 3341, 3331, 3308, 3338, 3649, 3639, 3616, 3646
3018, 3342, 3368, 3309, 3337, 3650, 3676, 3617, 3645
3019, 3301, 3258, 3295, 3302, 3609, 3566, 3603, 3610
3020, 3302, 3367, 3290, 3301, 3610, 3675, 3598, 3609
3021, 3303, 3300, 3259, 3294, 3611, 3608, 3567, 3602
3022, 3304, 3303, 3314, 3310, 3612, 3611, 3622, 3618
3023, 3379, 3380, 3388, 3387, 3687, 3688, 3696, 3695
3024, 3296, 3304, 3320, 3312, 3604, 3612, 3628, 3620
3025, 3297, 3305, 3321, 3313, 3605, 3613, 3629, 3621
3026, 3280, 3230, 3259, 3300, 3588, 3538, 3567, 3608
3027, 3281, 3228, 3258, 3301, 3589, 3536, 3566, 3609
3028, 3367, 3305, 3297, 3290, 3675, 3613, 3605, 3598
3029, 3375, 3315, 3327, 3380, 3683, 3623, 3635, 3688
3030, 3316, 3306, 3312, 3322, 3624, 3614, 3620, 3630
3031, 3225, 3317, 3313, 3323, 3533, 3625, 3621, 3631
3032, 3222, 3306, 3316, 3223, 3530, 3614, 3624, 3531
3033, 3313, 3317, 3324, 3307, 3621, 3625, 3632, 3615
3034, 3339, 3329, 3327, 3331, 3647, 3637, 3635, 3639
3035, 3308, 3315, 3295, 3282, 3616, 3623, 3603, 3590
3036, 3368, 3332, 3330, 3328, 3676, 3640, 3638, 3636
3037, 3337, 3309, 3294, 3285, 3645, 3617, 3602, 3593
3038, 3320, 3326, 3365, 3335, 3628, 3634, 3673, 3643
3039, 3313, 3321, 3325, 3323, 3621, 3629, 3633, 3631
3040, 3303, 3294, 3309, 3314, 3611, 3602, 3617, 3622
3041, 3335, 3322, 3312, 3320, 3643, 3630, 3620, 3628
3042, 3318, 3325, 3321, 3311, 3626, 3633, 3629, 3619
3043, 3304, 3310, 3326, 3320, 3612, 3618, 3634, 3628
3044, 3283, 3319, 3328, 3330, 3591, 3627, 3636, 3638
3045, 3369, 3336, 3323, 3325, 3677, 3644, 3631, 3633
3046, 3305, 3373, 3311, 3321, 3613, 3681, 3619, 3629
3047, 3224, 3324, 3209, 3358, 3532, 3632, 3517, 3666
3048, 3370, 3263, 3256, 3333, 3678, 3571, 3564, 3641
3049, 3334, 3326, 3310, 3319, 3642, 3634, 3618, 3627
3050, 3386, 3330, 3332, 3340, 3694, 3638, 3640, 3648
3051, 3368, 3328, 3314, 3309, 3676, 3636, 3622, 3617
3052, 3378, 3369, 3325, 3318, 3686, 3677, 3633, 3626
3053, 3329, 3339, 3371, 3284, 3637, 3647, 3679, 3592
3054, 3383, 3287, 3386, 3340, 3691, 3595, 3694, 3648
3055, 3343, 3385, 3349, 3350, 3651, 3693, 3657, 3658
3056, 3385, 3346, 3331, 3341, 3693, 3654, 3639, 3649
3057, 3376, 3345, 3340, 3332, 3684, 3653, 3648, 3640
3058, 3370, 3333, 3369, 3378, 3678, 3641, 3677, 3686
3059, 3377, 3365, 3326, 3334, 3685, 3673, 3634, 3642
3060, 3257, 3361, 3335, 3365, 3565, 3669, 3643, 3673
3061, 3333, 3256, 3336, 3369, 3641, 3564, 3644, 3677
3062, 3338, 3308, 3282, 3288, 3646, 3616, 3590, 3596
3063, 3343, 3350, 3289, 3347, 3651, 3658, 3597, 3655
3064, 3382, 3339, 3331, 3346, 3690, 3647, 3639, 3654
3065, 3289, 3350, 3342, 3337, 3597, 3658, 3650, 3645
3066, 3346, 3385, 3343, 3382, 3654, 3693, 3651, 3690
3067, 3352, 3345, 3376, 3349, 3660, 3653, 3684, 3657
3068, 3384, 3274, 3277, 3348, 3692, 3582, 3585, 3656
3069, 3288, 3381, 3351, 3338, 3596, 3689, 3659, 3646
3070, 3342, 3350, 3349, 3376, 3650, 3658, 3657, 3684
3071, 3351, 3344, 3345, 3352, 3659, 3652, 3653, 3660
3072, 3383, 3344, 3384, 3348, 3691, 3652, 3692, 3656
3073, 3191, 3146, 3185, 3354, 3499, 3454, 3493, 3662
3074, 3359, 3178, 3355, 3364, 3667, 3486, 3663, 3672
3075, 3221, 3176, 3133, 3356, 3529, 3484, 3441, 3664
3076, 3224, 3177, 3175, 3357, 3532, 3485, 3483, 3665
3077, 3184, 3144, 3164, 3199, 3492, 3452, 3472, 3507
3078, 3362, 3359, 3364, 3363, 3670, 3667, 3672, 3671
3079, 3363, 3290, 3297, 3362, 3671, 3598, 3605, 3670
3080, 3365, 3377, 3261, 3257, 3673, 3685, 3569, 3565
3081, 3378, 3388, 3329, 3370, 3686, 3696, 3637, 3678
3082, 3272, 3269, 3284, 3371, 3580, 3577, 3592, 3679
3083, 3267, 3263, 3370, 3372, 3575, 3571, 3678, 3680
3084, 3379, 3311, 3373, 3374, 3687, 3619, 3681, 3682
3085, 3380, 3379, 3374, 3375, 3688, 3687, 3682, 3683
3086, 3367, 3302, 3375, 3374, 3675, 3610, 3683, 3682
3087, 3387, 3318, 3311, 3379, 3695, 3626, 3619, 3687
3088, 3384, 3381, 3268, 3274, 3692, 3689, 3576, 3582
3089, 3287, 3283, 3330, 3386, 3595, 3591, 3638, 3694
3090, 3318, 3387, 3388, 3378, 3626, 3695, 3696, 3686
3091, 3380, 3327, 3329, 3388, 3688, 3635, 3637, 3696
3092, 3485, 3389, 3404, 3483, 3793, 3697, 3712, 3791
3093, 3483, 3404, 3420, 3484, 3791, 3712, 3728, 3792
3094, 3463, 3421, 3391, 3461, 3771, 3729, 3699, 3769
3095, 3607, 3664, 3441, 3462, 3915, 3972, 3749, 3770
3096, 3607, 3462, 3482, 3486, 3915, 3770, 3790, 3794
3097, 3487, 3519, 3625, 3533, 3795, 3827, 3933, 3841
3098, 3467, 3425, 3395, 3457, 3775, 3733, 3703, 3765
3099, 3521, 3465, 3478, 3497, 3829, 3773, 3786, 3805
3100, 3449, 3427, 3397, 3448, 3757, 3735, 3705, 3756
3101, 3412, 3447, 3477, 3435, 3720, 3755, 3785, 3743
3102, 3450, 3398, 3428, 3470, 3758, 3706, 3736, 3778
3103, 3513, 3449, 3448, 3490, 3821, 3757, 3756, 3798
3104, 3552, 3548, 3513, 3490, 3860, 3856, 3821, 3798
3105, 3513, 3548, 3545, 3491, 3821, 3856, 3853, 3799
3106, 3430, 3472, 3452, 3401, 3738, 3780, 3760, 3709
3107, 3508, 3403, 3402, 3453, 3816, 3711, 3710, 3761
3108, 3492, 3606, 3453, 3452, 3800, 3914, 3761, 3760
3109, 3407, 3493, 3454, 3408, 3715, 3801, 3762, 3716
3110, 3473, 3431, 3408, 3454, 3781, 3739, 3716, 3762
3111, 3624, 3499, 3662, 3531, 3932, 3807, 3970, 3839
3112, 3508, 3453, 3606, 3661, 3816, 3761, 3914, 3969
3113, 3661, 3600, 3614, 3530, 3969, 3908, 3922, 3838
3114, 3524, 3475, 3469, 3523, 3832, 3783, 3777, 3831
3115, 3543, 3527, 3521, 3674, 3851, 3835, 3829, 3982
3116, 3466, 3424, 3423, 3444, 3774, 3732, 3731, 3752
3117, 3394, 3458, 3444, 3423, 3702, 3766, 3752, 3731
3118, 3663, 3516, 3460, 3563, 3971, 3824, 3768, 3871
3119, 3484, 3420, 3419, 3441, 3792, 3728, 3727, 3749
3120, 3459, 3393, 3392, 3442, 3767, 3701, 3700, 3750
3121, 3460, 3416, 3439, 3481, 3768, 3724, 3747, 3789
3122, 3527, 3479, 3465, 3521, 3835, 3787, 3773, 3829
3123, 3425, 3467, 3446, 3396, 3733, 3775, 3754, 3704
3124, 3468, 3426, 3396, 3446, 3776, 3734, 3704, 3754
3125, 3470, 3428, 3427, 3449, 3778, 3736, 3735, 3757
3126, 3409, 3455, 3456, 3410, 3717, 3763, 3764, 3718
3127, 3451, 3399, 3429, 3471, 3759, 3707, 3737, 3779
3128, 3599, 3604, 3600, 3586, 3907, 3912, 3908, 3894
3129, 3454, 3499, 3500, 3473, 3762, 3807, 3808, 3781
3130, 3473, 3500, 3506, 3455, 3781, 3808, 3814, 3763
3131, 3434, 3476, 3447, 3412, 3742, 3784, 3755, 3720
3132, 3435, 3477, 3445, 3413, 3743, 3785, 3753, 3721
3133, 3479, 3437, 3414, 3465, 3787, 3745, 3722, 3773
3134, 3563, 3460, 3481, 3496, 3871, 3768, 3789, 3804
3135, 3516, 3417, 3416, 3460, 3824, 3725, 3724, 3768
3136, 3441, 3419, 3418, 3462, 3749, 3727, 3726, 3770
3137, 3442, 3392, 3421, 3463, 3750, 3700, 3729, 3771
3138, 3464, 3422, 3393, 3459, 3772, 3730, 3701, 3767
3139, 3422, 3464, 3458, 3394, 3730, 3772, 3766, 3702
3140, 3438, 3480, 3443, 3415, 3746, 3788, 3751, 3723
3141, 3481, 3439, 3415, 3443, 3789, 3747, 3723, 3751
3142, 3514, 3466, 3444, 3495, 3822, 3774, 3752, 3803
3143, 3457, 3395, 3424, 3466, 3765, 3703, 3732, 3774
3144, 3478, 3436, 3413, 3445, 3786, 3744, 3721, 3753
3145, 3465, 3414, 3436, 3478, 3773, 3722, 3744, 3786
3146, 3467, 3522, 3489, 3446, 3775, 3830, 3797, 3754
3147, 3448, 3397, 3426, 3468, 3756, 3705, 3734, 3776
3148, 3411, 3469, 3475, 3433, 3719, 3777, 3783, 3741
3149, 3447, 3504, 3526, 3477, 3755, 3812, 3834, 3785
3150, 3491, 3470, 3449, 3513, 3799, 3778, 3757, 3821
3151, 3471, 3429, 3398, 3450, 3779, 3737, 3706, 3758
3152, 3507, 3400, 3399, 3451, 3815, 3708, 3707, 3759
3153, 3669, 3534, 3630, 3643, 3977, 3842, 3938, 3951
3154, 3400, 3507, 3472, 3430, 3708, 3815, 3780, 3738
3155, 3469, 3411, 3432, 3474, 3777, 3719, 3740, 3782
3156, 3453, 3402, 3401, 3452, 3761, 3710, 3709, 3760
3157, 3474, 3432, 3410, 3456, 3782, 3740, 3718, 3764
3158, 3509, 3405, 3403, 3508, 3817, 3713, 3711, 3816
3159, 3510, 3406, 3405, 3509, 3818, 3714, 3713, 3817
3160, 3455, 3409, 3431, 3473, 3763, 3717, 3739, 3781
3161, 3562, 3451, 3471, 3498, 3870, 3759, 3779, 3806
3162, 3549, 3523, 3512, 3546, 3857, 3831, 3820, 3854
3163, 3511, 3450, 3470, 3491, 3819, 3758, 3778, 3799
3164, 3566, 3568, 3590, 3603, 3874, 3876, 3898, 3911
3165, 3458, 3502, 3495, 3444, 3766, 3810, 3803, 3752
3166, 3417, 3516, 3482, 3440, 3725, 3824, 3790, 3748
3167, 3487, 3442, 3463, 3519, 3795, 3750, 3771, 3827
3168, 3615, 3632, 3532, 3665, 3923, 3940, 3840, 3973
3169, 3389, 3485, 3518, 3390, 3697, 3793, 3826, 3698
3170, 3440, 3482, 3462, 3418, 3748, 3790, 3770, 3726
3171, 3601, 3529, 3664, 3607, 3909, 3837, 3972, 3915
3172, 3515, 3459, 3442, 3487, 3823, 3767, 3750, 3795
3173, 3535, 3540, 3520, 3515, 3843, 3848, 3828, 3823
3174, 3480, 3438, 3437, 3479, 3788, 3746, 3745, 3787
3175, 3527, 3543, 3539, 3528, 3835, 3851, 3847, 3836
3176, 3571, 3575, 3547, 3544, 3879, 3883, 3855, 3852
3177, 3476, 3434, 3433, 3475, 3784, 3742, 3741, 3783
3178, 3669, 3537, 3668, 3534, 3977, 3845, 3976, 3842
3179, 3511, 3491, 3545, 3541, 3819, 3799, 3853, 3849
3180, 3477, 3526, 3488, 3445, 3785, 3834, 3796, 3753
3181, 3547, 3550, 3514, 3495, 3855, 3858, 3822, 3803
3182, 3443, 3501, 3496, 3481, 3751, 3809, 3804, 3789
3183, 3665, 3483, 3484, 3529, 3973, 3791, 3792, 3837
3184, 3461, 3391, 3390, 3518, 3769, 3699, 3698, 3826
3185, 3517, 3461, 3518, 3666, 3825, 3769, 3826, 3974
3186, 3461, 3517, 3519, 3463, 3769, 3825, 3827, 3771
3187, 3486, 3482, 3516, 3663, 3794, 3790, 3824, 3971
3188, 3520, 3464, 3459, 3515, 3828, 3772, 3767, 3823
3189, 3457, 3503, 3522, 3467, 3765, 3811, 3830, 3775
3190, 3497, 3478, 3445, 3488, 3805, 3786, 3753, 3796
3191, 3505, 3468, 3446, 3489, 3813, 3776, 3754, 3797
3192, 3490, 3448, 3468, 3505, 3798, 3756, 3776, 3813
3193, 3450, 3511, 3498, 3471, 3758, 3819, 3806, 3779
3194, 3474, 3512, 3523, 3469, 3782, 3820, 3831, 3777
3195, 3668, 3500, 3499, 3534, 3976, 3808, 3807, 3842
3196, 3562, 3492, 3507, 3451, 3870, 3800, 3815, 3759
3197, 3531, 3510, 3509, 3530, 3839, 3818, 3817, 3838
3198, 3406, 3510, 3493, 3407, 3714, 3818, 3801, 3715
3199, 3512, 3474, 3456, 3494, 3820, 3782, 3764, 3802
3200, 3503, 3457, 3466, 3514, 3811, 3765, 3774, 3822
3201, 3665, 3529, 3601, 3615, 3973, 3837, 3909, 3923
3202, 3599, 3586, 3562, 3588, 3907, 3894, 3870, 3896
3203, 3508, 3661, 3530, 3509, 3816, 3969, 3838, 3817
3204, 3494, 3456, 3455, 3506, 3802, 3764, 3763, 3814
3205, 3542, 3494, 3506, 3537, 3850, 3802, 3814, 3845
3206, 3480, 3528, 3501, 3443, 3788, 3836, 3809, 3751
3207, 3496, 3589, 3587, 3563, 3804, 3897, 3895, 3871
3208, 3540, 3544, 3502, 3520, 3848, 3852, 3810, 3828
3209, 3584, 3560, 3554, 3580, 3892, 3868, 3862, 3888
3210, 3476, 3525, 3504, 3447, 3784, 3833, 3812, 3755
3211, 3579, 3553, 3549, 3573, 3887, 3861, 3857, 3881
3212, 3546, 3512, 3494, 3542, 3854, 3820, 3802, 3850
3213, 3493, 3510, 3531, 3662, 3801, 3818, 3839, 3970
3214, 3525, 3476, 3475, 3524, 3833, 3784, 3783, 3832
3215, 3502, 3458, 3464, 3520, 3810, 3766, 3772, 3828
3216, 3621, 3615, 3601, 3605, 3929, 3923, 3909, 3913
3217, 3485, 3532, 3666, 3518, 3793, 3840, 3974, 3826
3218, 3515, 3487, 3533, 3535, 3823, 3795, 3841, 3843
3219, 3528, 3480, 3479, 3527, 3836, 3788, 3787, 3835
3220, 3556, 3552, 3490, 3505, 3864, 3860, 3798, 3813
3221, 3557, 3525, 3524, 3553, 3865, 3833, 3832, 3861
3222, 3573, 3549, 3546, 3569, 3881, 3857, 3854, 3877
3223, 3685, 3642, 3573, 3569, 3993, 3950, 3881, 3877
3224, 3674, 3521, 3497, 3551, 3982, 3829, 3805, 3859
3225, 3605, 3601, 3667, 3670, 3913, 3909, 3975, 3978
3226, 3535, 3533, 3631, 3644, 3843, 3841, 3939, 3952
3227, 3667, 3601, 3607, 3486, 3975, 3909, 3915, 3794
3228, 3620, 3614, 3600, 3604, 3928, 3922, 3908, 3912
3229, 3661, 3606, 3586, 3600, 3969, 3914, 3894, 3908
3230, 3630, 3534, 3499, 3624, 3938, 3842, 3807, 3932
3231, 3519, 3517, 3632, 3625, 3827, 3825, 3940, 3933
3232, 3671, 3589, 3609, 3598, 3979, 3897, 3917, 3906
3233, 3611, 3599, 3588, 3608, 3919, 3907, 3896, 3916
3234, 3537, 3506, 3500, 3668, 3845, 3814, 3808, 3976
3235, 3544, 3547, 3495, 3502, 3852, 3855, 3803, 3810
3236, 3536, 3501, 3528, 3539, 3844, 3809, 3836, 3847
3237, 3589, 3496, 3501, 3536, 3897, 3804, 3809, 3844
3238, 3553, 3524, 3523, 3549, 3861, 3832, 3831, 3857
3239, 3498, 3511, 3541, 3538, 3806, 3819, 3849, 3846
3240, 3644, 3564, 3540, 3535, 3952, 3872, 3848, 3843
3241, 3550, 3554, 3503, 3514, 3858, 3862, 3811, 3822
3242, 3537, 3669, 3565, 3542, 3845, 3977, 3873, 3850
3243, 3559, 3504, 3525, 3557, 3867, 3812, 3833, 3865
3244, 3554, 3560, 3522, 3503, 3862, 3868, 3830, 3811
3245, 3581, 3584, 3594, 3655, 3889, 3892, 3902, 3963
3246, 3558, 3526, 3504, 3559, 3866, 3834, 3812, 3867
3247, 3583, 3557, 3553, 3579, 3891, 3865, 3861, 3887
3248, 3577, 3550, 3547, 3575, 3885, 3858, 3855, 3883
3249, 3488, 3555, 3551, 3497, 3796, 3863, 3859, 3805
3250, 3543, 3674, 3568, 3539, 3851, 3982, 3876, 3847
3251, 3548, 3570, 3567, 3545, 3856, 3878, 3875, 3853
3252, 3596, 3590, 3568, 3572, 3904, 3898, 3876, 3880
3253, 3542, 3565, 3569, 3546, 3850, 3873, 3877, 3854
3254, 3561, 3556, 3505, 3489, 3869, 3864, 3813, 3797
3255, 3584, 3580, 3679, 3594, 3892, 3888, 3987, 3902
3256, 3558, 3582, 3576, 3555, 3866, 3890, 3884, 3863
3257, 3526, 3558, 3555, 3488, 3834, 3866, 3863, 3796
3258, 3568, 3674, 3551, 3572, 3876, 3982, 3859, 3880
3259, 3595, 3579, 3573, 3591, 3903, 3887, 3881, 3899
3260, 3691, 3583, 3579, 3595, 3999, 3891, 3887, 3903
3261, 3555, 3576, 3572, 3551, 3863, 3884, 3880, 3859
3262, 3489, 3522, 3560, 3561, 3797, 3830, 3868, 3869
3263, 3552, 3556, 3578, 3574, 3860, 3864, 3886, 3882
3264, 3606, 3492, 3562, 3586, 3914, 3800, 3870, 3894
3265, 3587, 3672, 3663, 3563, 3895, 3980, 3971, 3871
3266, 3672, 3587, 3589, 3671, 3980, 3895, 3897, 3979
3267, 3571, 3544, 3540, 3564, 3879, 3852, 3848, 3872
3268, 3536, 3539, 3568, 3566, 3844, 3847, 3876, 3874
3269, 3538, 3541, 3545, 3567, 3846, 3849, 3853, 3875
3270, 3592, 3680, 3678, 3637, 3900, 3988, 3986, 3945
3271, 3585, 3559, 3557, 3583, 3893, 3867, 3865, 3891
3272, 3570, 3548, 3552, 3574, 3878, 3856, 3860, 3882
3273, 3636, 3627, 3618, 3622, 3944, 3935, 3926, 3930
3274, 3580, 3554, 3550, 3577, 3888, 3862, 3858, 3885
3275, 3583, 3691, 3656, 3585, 3891, 3999, 3964, 3893
3276, 3660, 3649, 3646, 3659, 3968, 3957, 3954, 3967
3277, 3684, 3640, 3676, 3650, 3992, 3948, 3984, 3958
3278, 3581, 3561, 3560, 3584, 3889, 3869, 3868, 3892
3279, 3647, 3690, 3594, 3679, 3955, 3998, 3902, 3987
3280, 3561, 3581, 3578, 3556, 3869, 3889, 3886, 3864
3281, 3570, 3574, 3578, 3593, 3878, 3882, 3886, 3901
3282, 3649, 3660, 3657, 3693, 3957, 3968, 3965, 4001
3283, 3690, 3651, 3655, 3594, 3998, 3959, 3963, 3902
3284, 3645, 3593, 3578, 3597, 3953, 3901, 3886, 3905
3285, 3559, 3585, 3582, 3558, 3867, 3893, 3890, 3866
3286, 3689, 3596, 3572, 3576, 3997, 3904, 3880, 3884
3287, 3648, 3653, 3652, 3691, 3956, 3961, 3960, 3999
3288, 3604, 3599, 3611, 3612, 3912, 3907, 3919, 3920
3289, 3682, 3681, 3613, 3675, 3990, 3989, 3921, 3983
3290, 3562, 3498, 3538, 3588, 3870, 3806, 3846, 3896
3291, 3610, 3603, 3623, 3683, 3918, 3911, 3931, 3991
3292, 3567, 3570, 3593, 3602, 3875, 3878, 3901, 3910
3293, 3642, 3627, 3591, 3573, 3950, 3935, 3899, 3881
3294, 3592, 3577, 3575, 3680, 3900, 3885, 3883, 3988
3295, 3578, 3581, 3655, 3597, 3886, 3889, 3963, 3905
3296, 3623, 3616, 3639, 3635, 3931, 3924, 3947, 3943
3297, 3652, 3659, 3689, 3692, 3960, 3967, 3997, 4000
3298, 3649, 3639, 3616, 3646, 3957, 3947, 3924, 3954
3299, 3650, 3676, 3617, 3645, 3958, 3984, 3925, 3953
3300, 3609, 3566, 3603, 3610, 3917, 3874, 3911, 3918
3301, 3610, 3675, 3598, 3609, 3918, 3983, 3906, 3917
3302, 3611, 3608, 3567, 3602, 3919, 3916, 3875, 3910
3303, 3612, 3611, 3622, 3618, 3920, 3919, 3930, 3926
3304, 3687, 3688, 3696, 3695, 3995, 3996, 4004, 4003
3305, 3604, 3612, 3628, 3620, 3912, 3920, 3936, 3928
3306, 3605, 3613, 3629, 3621, 3913, 3921, 3937, 3929
3307, 3588, 3538, 3567, 3608, 3896, 3846, 3875, 3916
3308, 3589, 3536, 3566, 3609, 3897, 3844, 3874, 3917
3309, 3675, 3613, 3605, 3598, 3983, 3921, 3913, 3906
3310, 3683, 3623, 3635, 3688, 3991, 3931, 3943, 3996
3311, 3624, 3614, 3620, 3630, 3932, 3922, 3928, 3938
3312, 3533, 3625, 3621, 3631, 3841, 3933, 3929, 3939
3313, 3530, 3614, 3624, 3531, 3838, 3922, 3932, 3839
3314, 3621, 3625, 3632, 3615, 3929, 3933, 3940, 3923
3315, 3647, 3637, 3635, 3639, 3955, 3945, 3943, 3947
3316, 3616, 3623, 3603, 3590, 3924, 3931, 3911, 3898
3317, 3676, 3640, 3638, 3636, 3984, 3948, 3946, 3944
3318, 3645, 3617, 3602, 3593, 3953, 3925, 3910, 3901
3319, 3628, 3634, 3673, 3643, 3936, 3942, 3981, 3951
3320, 3621, 3629, 3633, 3631, 3929, 3937, 3941, 3939
3321, 3611, 3602, 3617, 3622, 3919, 3910, 3925, 3930
3322, 3643, 3630, 3620, 3628, 3951, 3938, 3928, 3936
3323, 3626, 3633, 3629, 3619, 3934, 3941, 3937, 3927
3324, 3612, 3618, 3634, 3628, 3920, 3926, 3942, 3936
3325, 3591, 3627, 3636, 3638, 3899, 3935, 3944, 3946
3326, 3677, 3644, 3631, 3633, 3985, 3952, 3939, 3941
3327, 3613, 3681, 3619, 3629, 3921, 3989, 3927, 3937
3328, 3532, 3632, 3517, 3666, 3840, 3940, 3825, 3974
3329, 3678, 3571, 3564, 3641, 3986, 3879, 3872, 3949
3330, 3642, 3634, 3618, 3627, 3950, 3942, 3926, 3935
3331, 3694, 3638, 3640, 3648, 4002, 3946, 3948, 3956
3332, 3676, 3636, 3622, 3617, 3984, 3944, 3930, 3925
3333, 3686, 3677, 3633, 3626, 3994, 3985, 3941, 3934
3334, 3637, 3647, 3679, 3592, 3945, 3955, 3987, 3900
3335, 3691, 3595, 3694, 3648, 3999, 3903, 4002, 3956
3336, 3651, 3693, 3657, 3658, 3959, 4001, 3965, 3966
3337, 3693, 3654, 3639, 3649, 4001, 3962, 3947, 3957
3338, 3684, 3653, 3648, 3640, 3992, 3961, 3956, 3948
3339, 3678, 3641, 3677, 3686, 3986, 3949, 3985, 3994
3340, 3685, 3673, 3634, 3642, 3993, 3981, 3942, 3950
3341, 3565, 3669, 3643, 3673, 3873, 3977, 3951, 3981
3342, 3641, 3564, 3644, 3677, 3949, 3872, 3952, 3985
3343, 3646, 3616, 3590, 3596, 3954, 3924, 3898, 3904
3344, 3651, 3658, 3597, 3655, 3959, 3966, 3905, 3963
3345, 3690, 3647, 3639, 3654, 3998, 3955, 3947, 3962
3346, 3597, 3658, 3650, 3645, 3905, 3966, 3958, 3953
3347, 3654, 3693, 3651, 3690, 3962, 4001, 3959, 3998
3348, 3660, 3653, 3684, 3657, 3968, 3961, 3992, 3965
3349, 3692, 3582, 3585, 3656, 4000, 3890, 3893, 3964
3350, 3596, 3689, 3659, 3646, 3904, 3997, 3967, 3954
3351, 3650, 3658, 3657, 3684, 3958, 3966, 3965, 3992
3352, 3659, 3652, 3653, 3660, 3967, 3960, 3961, 3968
3353, 3691, 3652, 3692, 3656, 3999, 3960, 4000, 3964
3354, 3499, 3454, 3493, 3662, 3807, 3762, 3801, 3970
3355, 3667, 3486, 3663, 3672, 3975, 3794, 3971, 3980
3356, 3529, 3484, 3441, 3664, 3837, 3792, 3749, 3972
3357, 3532, 3485, 3483, 3665, 3840, 3793, 3791, 3973
3358, 3492, 3452, 3472, 3507, 3800, 3760, 3780, 3815
3359, 3670, 3667, 3672, 3671, 3978, 3975, 3980, 3979
3360, 3671, 3598, 3605, 3670, 3979, 3906, 3913, 3978
3361, 3673, 3685, 3569, 3565, 3981, 3993, 3877, 3873
3362, 3686, 3696, 3637, 3678, 3994, 4004, 3945, 3986
3363, 3580, 3577, 3592, 3679, 3888, 3885, 3900, 3987
3364, 3575, 3571, 3678, 3680, 3883, 3879, 3986, 3988
3365, 3687, 3619, 3681, 3682, 3995, 3927, 3989, 3990
3366, 3688, 3687, 3682, 3683, 3996, 3995, 3990, 3991
3367, 3675, 3610, 3683, 3682, 3983, 3918, 3991, 3990
3368, 3695, 3626, 3619, 3687, 4003, 3934, 3927, 3995
3369, 3692, 3689, 3576, 3582, 4000, 3997, 3884, 3890
3370, 3595, 3591, 3638, 3694, 3903, 3899, 3946, 4002
3371, 3626, 3695, 3696, 3686, 3934, 4003, 4004, 3994
3372, 3688, 3635, 3637, 3696, 3996, 3943, 3945, 4004
3373, 3793, 3697, 3712, 3791, 4101, 4005, 4020, 4099
3374, 3791, 3712, 3728, 3792, 4099, 4020, 4036, 4100
3375, 3771, 3729, 3699, 3769, 4079, 4037, 4007, 4077
3376, 3915, 3972, 3749, 3770, 4223, 4280, 4057, 4078
3377, 3915, 3770, 3790, 3794, 4223, 4078, 4098, 4102
3378, 3795, 3827, 3933, 3841, 4103, 4135, 4241, 4149
3379, 3775, 3733, 3703, 3765, 4083, 4041, 4011, 4073
3380, 3829, 3773, 3786, 3805, 4137, 4081, 4094, 4113
3381, 3757, 3735, 3705, 3756, 4065, 4043, 4013, 4064
3382, 3720, 3755, 3785, 3743, 4028, 4063, 4093, 4051
3383, 3758, 3706, 3736, 3778, 4066, 4014, 4044, 4086
3384, 3821, 3757, 3756, 3798, 4129, 4065, 4064, 4106
3385, 3860, 3856, 3821, 3798, 4168, 4164, 4129, 4106
3386, 3821, 3856, 3853, 3799, 4129, 4164, 4161, 4107
3387, 3738, 3780, 3760, 3709, 4046, 4088, 4068, 4017
3388, 3816, 3711, 3710, 3761, 4124, 4019, 4018, 4069
3389, 3800, 3914, 3761, 3760, 4108, 4222, 4069, 4068
3390, 3715, 3801, 3762, 3716, 4023, 4109, 4070, 4024
3391, 3781, 3739, 3716, 3762, 4089, 4047, 4024, 4070
3392, 3932, 3807, 3970, 3839, 4240, 4115, 4278, 4147
3393, 3816, 3761, 3914, 3969, 4124, 4069, 4222, 4277
3394, 3969, 3908, 3922, 3838, 4277, 4216, 4230, 4146
3395, 3832, 3783, 3777, 3831, 4140, 4091, 4085, 4139
3396, 3851, 3835, 3829, 3982, 4159, 4143, 4137, 4290
3397, 3774, 3732, 3731, 3752, 4082, 4040, 4039, 4060
3398, 3702, 3766, 3752, 3731, 4010, 4074, 4060, 4039
3399, 3971, 3824, 3768, 3871, 4279, 4132, 4076, 4179
3400, 3792, 3728, 3727, 3749, 4100, 4036, 4035, 4057
3401, 3767, 3701, 3700, 3750, 4075, 4009, 4008, 4058
3402, 3768, 3724, 3747, 3789, 4076, 4032, 4055, 4097
3403, 3835, 3787, 3773, 3829, 4143, 4095, 4081, 4137
3404, 3733, 3775, 3754, 3704, 4041, 4083, 4062, 4012
3405, 3776, 3734, 3704, 3754, 4084, 4042, 4012, 4062
3406, 3778, 3736, 3735, 3757, 4086, 4044, 4043, 4065
3407, 3717, 3763, 3764, 3718, 4025, 4071, 4072, 4026
3408, 3759, 3707, 3737, 3779, 4067, 4015, 4045, 4087
3409, 3907, 3912, 3908, 3894, 4215, 4220, 4216, 4202
3410, 3762, 3807, 3808, 3781, 4070, 4115, 4116, 4089
3411, 3781, 3808, 3814, 3763, 4089, 4116, 4122, 4071
3412, 3742, 3784, 3755, 3720, 4050, 4092, 4063, 4028
3413, 3743, 3785, 3753, 3721, 4051, 4093, 4061, 4029
3414, 3787, 3745, 3722, 3773, 4095, 4053, 4030, 4081
3415, 3871, 3768, 3789, 3804, 4179, 4076, 4097, 4112
3416, 3824, 3725, 3724, 3768, 4132, 4033, 4032, 4076
3417, 3749, 3727, 3726, 3770, 4057, 4035, 4034, 4078
3418, 3750, 3700, 3729, 3771, 4058, 4008, 4037, 4079
3419, 3772, 3730, 3701, 3767, 4080, 4038, 4009, 4075
3420, 3730, 3772, 3766, 3702, 4038, 4080, 4074, 4010
3421, 3746, 3788, 3751, 3723, 4054, 4096, 4059, 4031
3422, 3789, 3747, 3723, 3751, 4097, 4055, 4031, 4059
3423, 3822, 3774, 3752, 3803, 4130, 4082, 4060, 4111
3424, 3765, 3703, 3732, 3774, 4073, 4011, 4040, 4082
3425, 3786, 3744, 3721, 3753, 4094, 4052, 4029, 4061
3426, 3773, 3722, 3744, 3786, 4081, 4030, 4052, 4094
3427, 3775, 3830, 3797, 3754, 4083, 4138, 4105, 4062
3428, 3756, 3705, 3734, 3776, 4064, 4013, 4042, 4084
3429, 3719, 3777, 3783, 3741, 4027, 4085, 4091, 4049
3430, 3755, 3812, 3834, 3785, 4063, 4120, 4142, 4093
3431, 3799, 3778, 3757, 3821, 4107, 4086, 4065, 4129
3432, 3779, 3737, 3706, 3758, 4087, 4045, 4014, 4066
3433, 3815, 3708, 3707, 3759, 4123, 4016, 4015, 4067
3434, 3977, 3842, 3938, 3951, 4285, 4150, 4246, 4259
3435, 3708, 3815, 3780, 3738, 4016, 4123, 4088, 4046
3436, 3777, 3719, 3740, 3782, 4085, 4027, 4048, 4090
3437, 3761, 3710, 3709, 3760, 4069, 4018, 4017, 4068
3438, 3782, 3740, 3718, 3764, 4090, 4048, 4026, 4072
3439, 3817, 3713, 3711, 3816, 4125, 4021, 4019, 4124
3440, 3818, 3714, 3713, 3817, 4126, 4022, 4021, 4125
3441, 3763, 3717, 3739, 3781, 4071, 4025, 4047, 4089
3442, 3870, 3759, 3779, 3806, 4178, 4067, 4087, 4114
3443, 3857, 3831, 3820, 3854, 4165, 4139, 4128, 4162
3444, 3819, 3758, 3778, 3799, 4127, 4066, 4086, 4107
3445, 3874, 3876, 3898, 3911, 4182, 4184, 4206, 4219
3446, 3766, 3810, 3803, 3752, 4074, 4118, 4111, 4060
3447, 3725, 3824, 3790, 3748, 4033, 4132, 4098, 4056
3448, 3795, 3750, 3771, 3827, 4103, 4058, 4079, 4135
3449, 3923, 3940, 3840, 3973, 4231, 4248, 4148, 4281
3450, 3697, 3793, 3826, 3698, 4005, 4101, 4134, 4006
3451, 3748, 3790, 3770, 3726, 4056, 4098, 4078, 4034
3452, 3909, 3837, 3972, 3915, 4217, 4145, 4280, 4223
3453, 3823, 3767, 3750, 3795, 4131, 4075, 4058, 4103
3454, 3843, 3848, 3828, 3823, 4151, 4156, 4136, 4131
3455, 3788, 3746, 3745, 3787, 4096, 4054, 4053, 4095
3456, 3835, 3851, 3847, 3836, 4143, 4159, 4155, 4144
3457, 3879, 3883, 3855, 3852, 4187, 4191, 4163, 4160
3458, 3784, 3742, 3741, 3783, 4092, 4050, 4049, 4091
3459, 3977, 3845, 3976, 3842, 4285, 4153, 4284, 4150
3460, 3819, 3799, 3853, 3849, 4127, 4107, 4161, 4157
3461, 3785, 3834, 3796, 3753, 4093, 4142, 4104, 4061
3462, 3855, 3858, 3822, 3803, 4163, 4166, 4130, 4111
3463, 3751, 3809, 3804, 3789, 4059, 4117, 4112, 4097
3464, 3973, 3791, 3792, 3837, 4281, 4099, 4100, 4145
3465, 3769, 3699, 3698, 3826, 4077, 4007, 4006, 4134
3466, 3825, 3769, 3826, 3974, 4133, 4077, 4134, 4282
3467, 3769, 3825, 3827, 3771, 4077, 4133, 4135, 4079
3468, 3794, 3790, 3824, 3971, 4102, 4098, 4132, 4279
3469, 3828, 3772, 3767, 3823, 4136, 4080, 4075, 4131
3470, 3765, 3811, 3830, 3775, 4073, 4119, 4138, 4083
3471, 3805, 3786, 3753, 3796, 4113, 4094, 4061, 4104
3472, 3813, 3776, 3754, 3797, 4121, 4084, 4062, 4105
3473, 3798, 3756, 3776, 3813, 4106, 4064, 4084, 4121
3474, 3758, 3819, 3806, 3779, 4066, 4127, 4114, 4087
3475, 3782, 3820, 3831, 3777, 4090, 4128, 4139, 4085
3476, 3976, 3808, 3807, 3842, 4284, 4116, 4115, 4150
3477, 3870, 3800, 3815, 3759, 4178, 4108, 4123, 4067
3478, 3839, 3818, 3817, 3838, 4147, 4126, 4125, 4146
3479, 3714, 3818, 3801, 3715, 4022, 4126, 4109, 4023
3480, 3820, 3782, 3764, 3802, 4128, 4090, 4072, 4110
3481, 3811, 3765, 3774, 3822, 4119, 4073, 4082, 4130
3482, 3973, 3837, 3909, 3923, 4281, 4145, 4217, 4231
3483, 3907, 3894, 3870, 3896, 4215, 4202, 4178, 4204
3484, 3816, 3969, 3838, 3817, 4124, 4277, 4146, 4125
3485, 3802, 3764, 3763, 3814, 4110, 4072, 4071, 4122
3486, 3850, 3802, 3814, 3845, 4158, 4110, 4122, 4153
3487, 3788, 3836, 3809, 3751, 4096, 4144, 4117, 4059
3488, 3804, 3897, 3895, 3871, 4112, 4205, 4203, 4179
3489, 3848, 3852, 3810, 3828, 4156, 4160, 4118, 4136
3490, 3892, 3868, 3862, 3888, 4200, 4176, 4170, 4196
3491, 3784, 3833, 3812, 3755, 4092, 4141, 4120, 4063
3492, 3887, 3861, 3857, 3881, 4195, 4169, 4165, 4189
3493, 3854, 3820, 3802, 3850, 4162, 4128, 4110, 4158
3494, 3801, 3818, 3839, 3970, 4109, 4126, 4147, 4278
3495, 3833, 3784, 3783, 3832, 4141, 4092, 4091, 4140
3496, 3810, 3766, 3772, 3828, 4118, 4074, 4080, 4136
3497, 3929, 3923, 3909, 3913, 4237, 4231, 4217, 4221
3498, 3793, 3840, 3974, 3826, 4101, 4148, 4282, 4134
3499, 3823, 3795, 3841, 3843, 4131, 4103, 4149, 4151
3500, 3836, 3788, 3787, 3835, 4144, 4096, 4095, 4143
3501, 3864, 3860, 3798, 3813, 4172, 4168, 4106, 4121
3502, 3865, 3833, 3832, 3861, 4173, 4141, 4140, 4169
3503, 3881, 3857, 3854, 3877, 4189, 4165, 4162, 4185
3504, 3993, 3950, 3881, 3877, 4301, 4258, 4189, 4185
3505, 3982, 3829, 3805, 3859, 4290, 4137, 4113, 4167
3506, 3913, 3909, 3975, 3978, 4221, 4217, 4283, 4286
3507, 3843, 3841, 3939, 3952, 4151, 4149, 4247, 4260
3508, 3975, 3909, 3915, 3794, 4283, 4217, 4223, 4102
3509, 3928, 3922, 3908, 3912, 4236, 4230, 4216, 4220
3510, 3969, 3914, 3894, 3908, 4277, 4222, 4202, 4216
3511, 3938, 3842, 3807, 3932, 4246, 4150, 4115, 4240
3512, 3827, 3825, 3940, 3933, 4135, 4133, 4248, 4241
3513, 3979, 3897, 3917, 3906, 4287, 4205, 4225, 4214
3514, 3919, 3907, 3896, 3916, 4227, 4215, 4204, 4224
3515, 3845, 3814, 3808, 3976, 4153, 4122, 4116, 4284
3516, 3852, 3855, 3803, 3810, 4160, 4163, 4111, 4118
3517, 3844, 3809, 3836, 3847, 4152, 4117, 4144, 4155
3518, 3897, 3804, 3809, 3844, 4205, 4112, 4117, 4152
3519, 3861, 3832, 3831, 3857, 4169, 4140, 4139, 4165
3520, 3806, 3819, 3849, 3846, 4114, 4127, 4157, 4154
3521, 3952, 3872, 3848, 3843, 4260, 4180, 4156, 4151
3522, 3858, 3862, 3811, 3822, 4166, 4170, 4119, 4130
3523, 3845, 3977, 3873, 3850, 4153, 4285, 4181, 4158
3524, 3867, 3812, 3833, 3865, 4175, 4120, 4141, 4173
3525, 3862, 3868, 3830, 3811, 4170, 4176, 4138, 4119
3526, 3889, 3892, 3902, 3963, 4197, 4200, 4210, 4271
3527, 3866, 3834, 3812, 3867, 4174, 4142, 4120, 4175
3528, 3891, 3865, 3861, 3887, 4199, 4173, 4169, 4195
3529, 3885, 3858, 3855, 3883, 4193, 4166, 4163, 4191
3530, 3796, 3863, 3859, 3805, 4104, 4171, 4167, 4113
3531, 3851, 3982, 3876, 3847, 4159, 4290, 4184, 4155
3532, 3856, 3878, 3875, 3853, 4164, 4186, 4183, 4161
3533, 3904, 3898, 3876, 3880, 4212, 4206, 4184, 4188
3534, 3850, 3873, 3877, 3854, 4158, 4181, 4185, 4162
3535, 3869, 3864, 3813, 3797, 4177, 4172, 4121, 4105
3536, 3892, 3888, 3987, 3902, 4200, 4196, 4295, 4210
3537, 3866, 3890, 3884, 3863, 4174, 4198, 4192, 4171
3538, 3834, 3866, 3863, 3796, 4142, 4174, 4171, 4104
3539, 3876, 3982, 3859, 3880, 4184, 4290, 4167, 4188
3540, 3903, 3887, 3881, 3899, 4211, 4195, 4189, 4207
3541, 3999, 3891, 3887, 3903, 4307, 4199, 4195, 4211
3542, 3863, 3884, 3880, 3859, 4171, 4192, 4188, 4167
3543, 3797, 3830, 3868, 3869, 4105, 4138, 4176, 4177
3544, 3860, 3864, 3886, 3882, 4168, 4172, 4194, 4190
3545, 3914, 3800, 3870, 3894, 4222, 4108, 4178, 4202
3546, 3895, 3980, 3971, 3871, 4203, 4288, 4279, 4179
3547, 3980, 3895, 3897, 3979, 4288, 4203, 4205, 4287
3548, 3879, 3852, 3848, 3872, 4187, 4160, 4156, 4180
3549, 3844, 3847, 3876, 3874, 4152, 4155, 4184, 4182
3550, 3846, 3849, 3853, 3875, 4154, 4157, 4161, 4183
3551, 3900, 3988, 3986, 3945, 4208, 4296, 4294, 4253
3552, 3893, 3867, 3865, 3891, 4201, 4175, 4173, 4199
3553, 3878, 3856, 3860, 3882, 4186, 4164, 4168, 4190
3554, 3944, 3935, 3926, 3930, 4252, 4243, 4234, 4238
3555, 3888, 3862, 3858, 3885, 4196, 4170, 4166, 4193
3556, 3891, 3999, 3964, 3893, 4199, 4307, 4272, 4201
3557, 3968, 3957, 3954, 3967, 4276, 4265, 4262, 4275
3558, 3992, 3948, 3984, 3958, 4300, 4256, 4292, 4266
3559, 3889, 3869, 3868, 3892, 4197, 4177, 4176, 4200
3560, 3955, 3998, 3902, 3987, 4263, 4306, 4210, 4295
3561, 3869, 3889, 3886, 3864, 4177, 4197, 4194, 4172
3562, 3878, 3882, 3886, 3901, 4186, 4190, 4194, 4209
3563, 3957, 3968, 3965, 4001, 4265, 4276, 4273, 4309
3564, 3998, 3959, 3963, 3902, 4306, 4267, 4271, 4210
3565, 3953, 3901, 3886, 3905, 4261, 4209, 4194, 4213
3566, 3867, 3893, 3890, 3866, 4175, 4201, 4198, 4174
3567, 3997, 3904, 3880, 3884, 4305, 4212, 4188, 4192
3568, 3956, 3961, 3960, 3999, 4264, 4269, 4268, 4307
3569, 3912, 3907, 3919, 3920, 4220, 4215, 4227, 4228
3570, 3990, 3989, 3921, 3983, 4298, 4297, 4229, 4291
3571, 3870, 3806, 3846, 3896, 4178, 4114, 4154, 4204
3572, 3918, 3911, 3931, 3991, 4226, 4219, 4239, 4299
3573, 3875, 3878, 3901, 3910, 4183, 4186, 4209, 4218
3574, 3950, 3935, 3899, 3881, 4258, 4243, 4207, 4189
3575, 3900, 3885, 3883, 3988, 4208, 4193, 4191, 4296
3576, 3886, 3889, 3963, 3905, 4194, 4197, 4271, 4213
3577, 3931, 3924, 3947, 3943, 4239, 4232, 4255, 4251
3578, 3960, 3967, 3997, 4000, 4268, 4275, 4305, 4308
3579, 3957, 3947, 3924, 3954, 4265, 4255, 4232, 4262
3580, 3958, 3984, 3925, 3953, 4266, 4292, 4233, 4261
3581, 3917, 3874, 3911, 3918, 4225, 4182, 4219, 4226
3582, 3918, 3983, 3906, 3917, 4226, 4291, 4214, 4225
3583, 3919, 3916, 3875, 3910, 4227, 4224, 4183, 4218
3584, 3920, 3919, 3930, 3926, 4228, 4227, 4238, 4234
3585, 3995, 3996, 4004, 4003, 4303, 4304, 4312, 4311
3586, 3912, 3920, 3936, 3928, 4220, 4228, 4244, 4236
3587, 3913, 3921, 3937, 3929, 4221, 4229, 4245, 4237
3588, 3896, 3846, 3875, 3916, 4204, 4154, 4183, 4224
3589, 3897, 3844, 3874, 3917, 4205, 4152, 4182, 4225
3590, 3983, 3921, 3913, 3906, 4291, 4229, 4221, 4214
3591, 3991, 3931, 3943, 3996, 4299, 4239, 4251, 4304
3592, 3932, 3922, 3928, 3938, 4240, 4230, 4236, 4246
3593, 3841, 3933, 3929, 3939, 4149, 4241, 4237, 4247
3594, 3838, 3922, 3932, 3839, 4146, 4230, 4240, 4147
3595, 3929, 3933, 3940, 3923, 4237, 4241, 4248, 4231
3596, 3955, 3945, 3943, 3947, 4263, 4253, 4251, 4255
3597, 3924, 3931, 3911, 3898, 4232, 4239, 4219, 4206
3598, 3984, 3948, 3946, 3944, 4292, 4256, 4254, 4252
3599, 3953, 3925, 3910, 3901, 4261, 4233, 4218, 4209
3600, 3936, 3942, 3981, 3951, 4244, 4250, 4289, 4259
3601, 3929, 3937, 3941, 3939, 4237, 4245, 4249, 4247
3602, 3919, 3910, 3925, 3930, 4227, 4218, 4233, 4238
3603, 3951, 3938, 3928, 3936, 4259, 4246, 4236, 4244
3604, 3934, 3941, 3937, 3927, 4242, 4249, 4245, 4235
3605, 3920, 3926, 3942, 3936, 4228, 4234, 4250, 4244
3606, 3899, 3935, 3944, 3946, 4207, 4243, 4252, 4254
3607, 3985, 3952, 3939, 3941, 4293, 4260, 4247, 4249
3608, 3921, 3989, 3927, 3937, 4229, 4297, 4235, 4245
3609, 3840, 3940, 3825, 3974, 4148, 4248, 4133, 4282
3610, 3986, 3879, 3872, 3949, 4294, 4187, 4180, 4257
3611, 3950, 3942, 3926, 3935, 4258, 4250, 4234, 4243
3612, 4002, 3946, 3948, 3956, 4310, 4254, 4256, 4264
3613, 3984, 3944, 3930, 3925, 4292, 4252, 4238, 4233
3614, 3994, 3985, 3941, 3934, 4302, 4293, 4249, 4242
3615, 3945, 3955, 3987, 3900, 4253, 4263, 4295, 4208
3616, 3999, 3903, 4002, 3956, 4307, 4211, 4310, 4264
3617, 3959, 4001, 3965, 3966, 4267, 4309, 4273, 4274
3618, 4001, 3962, 3947, 3957, 4309, 4270, 4255, 4265
3619, 3992, 3961, 3956, 3948, 4300, 4269, 4264, 4256
3620, 3986, 3949, 3985, 3994, 4294, 4257, 4293, 4302
3621, 3993, 3981, 3942, 3950, 4301, 4289, 4250, 4258
3622, 3873, 3977, 3951, 3981, 4181, 4285, 4259, 4289
3623, 3949, 3872, 3952, 3985, 4257, 4180, 4260, 4293
3624, 3954, 3924, 3898, 3904, 4262, 4232, 4206, 4212
3625, 3959, 3966, 3905, 3963, 4267, 4274, 4213, 4271
3626, 3998, 3955, 3947, 3962, 4306, 4263, 4255, 4270
3627, 3905, 3966, 3958, 3953, 4213, 4274, 4266, 4261
3628, 3962, 4001, 3959, 3998, 4270, 4309, 4267, 4306
3629, 3968, 3961, 3992, 3965, 4276, 4269, 4300, 4273
3630, 4000, 3890, 3893, 3964, 4308, 4198, 4201, 4272
3631, 3904, 3997, 3967, 3954, 4212, 4305, 4275, 4262
3632, 3958, 3966, 3965, 3992, 4266, 4274, 4273, 4300
3633, 3967, 3960, 3961, 3968, 4275, 4268, 4269, 4276
3634, 3999, 3960, 4000, 3964, 4307, 4268, 4308, 4272
3635, 3807, 3762, 3801, 3970, 4115, 4070, 4109, 4278
3636, 3975, 3794, 3971, 3980, 4283, 4102, 4279, 4288
3637, 3837, 3792, 3749, 3972, 4145, 4100, 4057, 4280
3638, 3840, 3793, 3791, 3973, 4148, 4101, 4099, 4281
3639, 3800, 3760, 3780, 3815, 4108, 4068, 4088, 4123
3640, 3978, 3975, 3980, 3979, 4286, 4283, 4288, 4287
3641, 3979, 3906, 3913, 3978, 4287, 4214, 4221, 4286
3642, 3981, 3993, 3877, 3873, 4289, 4301, 4185, 4181
3643, 3994, 4004, 3945, 3986, 4302, 4312, 4253, 4294
3644, 3888, 3885, 3900, 3987, 4196, 4193, 4208, 4295
3645, 3883, 3879, 3986, 3988, 4191, 4187, 4294, 4296
3646, 3995, 3927, 3989, 3990, 4303, 4235, 4297, 4298
3647, 3996, 3995, 3990, 3991, 4304, 4303, 4298, 4299
3648, 3983, 3918, 3991, 3990, 4291, 4226, 4299, 4298
3649, 4003, 3934, 3927, 3995, 4311, 4242, 4235, 4303
3650, 4000, 3997, 3884, 3890, 4308, 4305, 4192, 4198
3651, 3903, 3899, 3946, 4002, 4211, 4207, 4254, 4310
3652, 3934, 4003, 4004, 3994, 4242, 4311, 4312, 4302
3653, 3996, 3943, 3945, 4004, 4304, 4251, 4253, 4312
3654, 4101, 4005, 4020, 4099, 4409, 4313, 4328, 4407
3655, 4099, 4020, 4036, 4100, 4407, 4328, 4344, 4408
3656, 4079, 4037, 4007, 4077, 4387, 4345, 4315, 4385
3657, 4223, 4280, 4057, 4078, 4531, 4588, 4365, 4386
3658, 4223, 4078, 4098, 4102, 4531, 4386, 4406, 4410
3659, 4103, 4135, 4241, 4149, 4411, 4443, 4549, 4457
3660, 4083, 4041, 4011, 4073, 4391, 4349, 4319, 4381
3661, 4137, 4081, 4094, 4113, 4445, 4389, 4402, 4421
3662, 4065, 4043, 4013, 4064, 4373, 4351, 4321, 4372
3663, 4028, 4063, 4093, 4051, 4336, 4371, 4401, 4359
3664, 4066, 4014, 4044, 4086, 4374, 4322, 4352, 4394
3665, 4129, 4065, 4064, 4106, 4437, 4373, 4372, 4414
3666, 4168, 4164, 4129, 4106, 4476, 4472, 4437, 4414
3667, 4129, 4164, 4161, 4107, 4437, 4472, 4469, 4415
3668, 4046, 4088, 4068, 4017, 4354, 4396, 4376, 4325
3669, 4124, 4019, 4018, 4069, 4432, 4327, 4326, 4377
3670, 4108, 4222, 4069, 4068, 4416, 4530, 4377, 4376
3671, 4023, 4109, 4070, 4024, 4331, 4417, 4378, 4332
3672, 4089, 4047, 4024, 4070, 4397, 4355, 4332, 4378
3673, 4240, 4115, 4278, 4147, 4548, 4423, 4586, 4455
3674, 4124, 4069, 4222, 4277, 4432, 4377, 4530, 4585
3675, 4277, 4216, 4230, 4146, 4585, 4524, 4538, 4454
3676, 4140, 4091, 4085, 4139, 4448, 4399, 4393, 4447
3677, 4159, 4143, 4137, 4290, 4467, 4451, 4445, 4598
3678, 4082, 4040, 4039, 4060, 4390, 4348, 4347, 4368
3679, 4010, 4074, 4060, 4039, 4318, 4382, 4368, 4347
3680, 4279, 4132, 4076, 4179, 4587, 4440, 4384, 4487
3681, 4100, 4036, 4035, 4057, 4408, 4344, 4343, 4365
3682, 4075, 4009, 4008, 4058, 4383, 4317, 4316, 4366
3683, 4076, 4032, 4055, 4097, 4384, 4340, 4363, 4405
3684, 4143, 4095, 4081, 4137, 4451, 4403, 4389, 4445
3685, 4041, 4083, 4062, 4012, 4349, 4391, 4370, 4320
3686, 4084, 4042, 4012, 4062, 4392, 4350, 4320, 4370
3687, 4086, 4044, 4043, 4065, 4394, 4352, 4351, 4373
3688, 4025, 4071, 4072, 4026, 4333, 4379, 4380, 4334
3689, 4067, 4015, 4045, 4087, 4375, 4323, 4353, 4395
3690, 4215, 4220, 4216, 4202, 4523, 4528, 4524, 4510
3691, 4070, 4115, 4116, 4089, 4378, 4423, 4424, 4397
3692, 4089, 4116, 4122, 4071, 4397, 4424, 4430, 4379
3693, 4050, 4092, 4063, 4028, 4358, 4400, 4371, 4336
3694, 4051, 4093, 4061, 4029, 4359, 4401, 4369, 4337
3695, 4095, 4053, 4030, 4081, 4403, 4361, 4338, 4389
3696, 4179, 4076, 4097, 4112, 4487, 4384, 4405, 4420
3697, 4132, 4033, 4032, 4076, 4440, 4341, 4340, 4384
3698, 4057, 4035, 4034, 4078, 4365, 4343, 4342, 4386
3699, 4058, 4008, 4037, 4079, 4366, 4316, 4345, 4387
3700, 4080, 4038, 4009, 4075, 4388, 4346, 4317, 4383
3701, 4038, 4080, 4074, 4010, 4346, 4388, 4382, 4318
3702, 4054, 4096, 4059, 4031, 4362, 4404, 4367, 4339
3703, 4097, 4055, 4031, 4059, 4405, 4363, 4339, 4367
3704, 4130, 4082, 4060, 4111, 4438, 4390, 4368, 4419
3705, 4073, 4011, 4040, 4082, 4381, 4319, 4348, 4390
3706, 4094, 4052, 4029, 4061, 4402, 4360, 4337, 4369
3707, 4081, 4030, 4052, 4094, 4389, 4338, 4360, 4402
3708, 4083, 4138, 4105, 4062, 4391, 4446, 4413, 4370
3709, 4064, 4013, 4042, 4084, 4372, 4321, 4350, 4392
3710, 4027, 4085, 4091, 4049, 4335, 4393, 4399, 4357
3711, 4063, 4120, 4142, 4093, 4371, 4428, 4450, 4401
3712, 4107, 4086, 4065, 4129, 4415, 4394, 4373, 4437
3713, 4087, 4045, 4014, 4066, 4395, 4353, 4322, 4374
3714, 4123, 4016, 4015, 4067, 4431, 4324, 4323, 4375
3715, 4285, 4150, 4246, 4259, 4593, 4458, 4554, 4567
3716, 4016, 4123, 4088, 4046, 4324, 4431, 4396, 4354
3717, 4085, 4027, 4048, 4090, 4393, 4335, 4356, 4398
3718, 4069, 4018, 4017, 4068, 4377, 4326, 4325, 4376
3719, 4090, 4048, 4026, 4072, 4398, 4356, 4334, 4380
3720, 4125, 4021, 4019, 4124, 4433, 4329, 4327, 4432
3721, 4126, 4022, 4021, 4125, 4434, 4330, 4329, 4433
3722, 4071, 4025, 4047, 4089, 4379, 4333, 4355, 4397
3723, 4178, 4067, 4087, 4114, 4486, 4375, 4395, 4422
3724, 4165, 4139, 4128, 4162, 4473, 4447, 4436, 4470
3725, 4127, 4066, 4086, 4107, 4435, 4374, 4394, 4415
3726, 4182, 4184, 4206, 4219, 4490, 4492, 4514, 4527
3727, 4074, 4118, 4111, 4060, 4382, 4426, 4419, 4368
3728, 4033, 4132, 4098, 4056, 4341, 4440, 4406, 4364
3729, 4103, 4058, 4079, 4135, 4411, 4366, 4387, 4443
3730, 4231, 4248, 4148, 4281, 4539, 4556, 4456, 4589
3731, 4005, 4101, 4134, 4006, 4313, 4409, 4442, 4314
3732, 4056, 4098, 4078, 4034, 4364, 4406, 4386, 4342
3733, 4217, 4145, 4280, 4223, 4525, 4453, 4588, 4531
3734, 4131, 4075, 4058, 4103, 4439, 4383, 4366, 4411
3735, 4151, 4156, 4136, 4131, 4459, 4464, 4444, 4439
3736, 4096, 4054, 4053, 4095, 4404, 4362, 4361, 4403
3737, 4143, 4159, 4155, 4144, 4451, 4467, 4463, 4452
3738, 4187, 4191, 4163, 4160, 4495, 4499, 4471, 4468
3739, 4092, 4050, 4049, 4091, 4400, 4358, 4357, 4399
3740, 4285, 4153, 4284, 4150, 4593, 4461, 4592, 4458
3741, 4127, 4107, 4161, 4157, 4435, 4415, 4469, 4465
3742, 4093, 4142, 4104, 4061, 4401, 4450, 4412, 4369
3743, 4163, 4166, 4130, 4111, 4471, 4474, 4438, 4419
3744, 4059, 4117, 4112, 4097, 4367, 4425, 4420, 4405
3745, 4281, 4099, 4100, 4145, 4589, 4407, 4408, 4453
3746, 4077, 4007, 4006, 4134, 4385, 4315, 4314, 4442
3747, 4133, 4077, 4134, 4282, 4441, 4385, 4442, 4590
3748, 4077, 4133, 4135, 4079, 4385, 4441, 4443, 4387
3749, 4102, 4098, 4132, 4279, 4410, 4406, 4440, 4587
3750, 4136, 4080, 4075, 4131, 4444, 4388, 4383, 4439
3751, 4073, 4119, 4138, 4083, 4381, 4427, 4446, 4391
3752, 4113, 4094, 4061, 4104, 4421, 4402, 4369, 4412
3753, 4121, 4084, 4062, 4105, 4429, 4392, 4370, 4413
3754, 4106, 4064, 4084, 4121, 4414, 4372, 4392, 4429
3755, 4066, 4127, 4114, 4087, 4374, 4435, 4422, 4395
3756, 4090, 4128, 4139, 4085, 4398, 4436, 4447, 4393
3757, 4284, 4116, 4115, 4150, 4592, 4424, 4423, 4458
3758, 4178, 4108, 4123, 4067, 4486, 4416, 4431, 4375
3759, 4147, 4126, 4125, 4146, 4455, 4434, 4433, 4454
3760, 4022, 4126, 4109, 4023, 4330, 4434, 4417, 4331
3761, 4128, 4090, 4072, 4110, 4436, 4398, 4380, 4418
3762, 4119, 4073, 4082, 4130, 4427, 4381, 4390, 4438
3763, 4281, 4145, 4217, 4231, 4589, 4453, 4525, 4539
3764, 4215, 4202, 4178, 4204, 4523, 4510, 4486, 4512
3765, 4124, 4277, 4146, 4125, 4432, 4585, 4454, 4433
3766, 4110, 4072, 4071, 4122, 4418, 4380, 4379, 4430
3767, 4158, 4110, 4122, 4153, 4466, 4418, 4430, 4461
3768, 4096, 4144, 4117, 4059, 4404, 4452, 4425, 4367
3769, 4112, 4205, 4203, 4179, 4420, 4513, 4511, 4487
3770, 4156, 4160, 4118, 4136, 4464, 4468, 4426, 4444
3771, 4200, 4176, 4170, 4196, 4508, 4484, 4478, 4504
3772, 4092, 4141, 4120, 4063, 4400, 4449, 4428, 4371
3773, 4195, 4169, 4165, 4189, 4503, 4477, 4473, 4497
3774, 4162, 4128, 4110, 4158, 4470, 4436, 4418, 4466
3775, 4109, 4126, 4147, 4278, 4417, 4434, 4455, 4586
3776, 4141, 4092, 4091, 4140, 4449, 4400, 4399, 4448
3777, 4118, 4074, 4080, 4136, 4426, 4382, 4388, 4444
3778, 4237, 4231, 4217, 4221, 4545, 4539, 4525, 4529
3779, 4101, 4148, 4282, 4134, 4409, 4456, 4590, 4442
3780, 4131, 4103, 4149, 4151, 4439, 4411, 4457, 4459
3781, 4144, 4096, 4095, 4143, 4452, 4404, 4403, 4451
3782, 4172, 4168, 4106, 4121, 4480, 4476, 4414, 4429
3783, 4173, 4141, 4140, 4169, 4481, 4449, 4448, 4477
3784, 4189, 4165, 4162, 4185, 4497, 4473, 4470, 4493
3785, 4301, 4258, 4189, 4185, 4609, 4566, 4497, 4493
3786, 4290, 4137, 4113, 4167, 4598, 4445, 4421, 4475
3787, 4221, 4217, 4283, 4286, 4529, 4525, 4591, 4594
3788, 4151, 4149, 4247, 4260, 4459, 4457, 4555, 4568
3789, 4283, 4217, 4223, 4102, 4591, 4525, 4531, 4410
3790, 4236, 4230, 4216, 4220, 4544, 4538, 4524, 4528
3791, 4277, 4222, 4202, 4216, 4585, 4530, 4510, 4524
3792, 4246, 4150, 4115, 4240, 4554, 4458, 4423, 4548
3793, 4135, 4133, 4248, 4241, 4443, 4441, 4556, 4549
3794, 4287, 4205, 4225, 4214, 4595, 4513, 4533, 4522
3795, 4227, 4215, 4204, 4224, 4535, 4523, 4512, 4532
3796, 4153, 4122, 4116, 4284, 4461, 4430, 4424, 4592
3797, 4160, 4163, 4111, 4118, 4468, 4471, 4419, 4426
3798, 4152, 4117, 4144, 4155, 4460, 4425, 4452, 4463
3799, 4205, 4112, 4117, 4152, 4513, 4420, 4425, 4460
3800, 4169, 4140, 4139, 4165, 4477, 4448, 4447, 4473
3801, 4114, 4127, 4157, 4154, 4422, 4435, 4465, 4462
3802, 4260, 4180, 4156, 4151, 4568, 4488, 4464, 4459
3803, 4166, 4170, 4119, 4130, 4474, 4478, 4427, 4438
3804, 4153, 4285, 4181, 4158, 4461, 4593, 4489, 4466
3805, 4175, 4120, 4141, 4173, 4483, 4428, 4449, 4481
3806, 4170, 4176, 4138, 4119, 4478, 4484, 4446, 4427
3807, 4197, 4200, 4210, 4271, 4505, 4508, 4518, 4579
3808, 4174, 4142, 4120, 4175, 4482, 4450, 4428, 4483
3809, 4199, 4173, 4169, 4195, 4507, 4481, 4477, 4503
3810, 4193, 4166, 4163, 4191, 4501, 4474, 4471, 4499
3811, 4104, 4171, 4167, 4113, 4412, 4479, 4475, 4421
3812, 4159, 4290, 4184, 4155, 4467, 4598, 4492, 4463
3813, 4164, 4186, 4183, 4161, 4472, 4494, 4491, 4469
3814, 4212, 4206, 4184, 4188, 4520, 4514, 4492, 4496
3815, 4158, 4181, 4185, 4162, 4466, 4489, 4493, 4470
3816, 4177, 4172, 4121, 4105, 4485, 4480, 4429, 4413
3817, 4200, 4196, 4295, 4210, 4508, 4504, 4603, 4518
3818, 4174, 4198, 4192, 4171, 4482, 4506, 4500, 4479
3819, 4142, 4174, 4171, 4104, 4450, 4482, 4479, 4412
3820, 4184, 4290, 4167, 4188, 4492, 4598, 4475, 4496
3821, 4211, 4195, 4189, 4207, 4519, 4503, 4497, 4515
3822, 4307, 4199, 4195, 4211, 4615, 4507, 4503, 4519
3823, 4171, 4192, 4188, 4167, 4479, 4500, 4496, 4475
3824, 4105, 4138, 4176, 4177, 4413, 4446, 4484, 4485
3825, 4168, 4172, 4194, 4190, 4476, 4480, 4502, 4498
3826, 4222, 4108, 4178, 4202, 4530, 4416, 4486, 4510
3827, 4203, 4288, 4279, 4179, 4511, 4596, 4587, 4487
3828, 4288, 4203, 4205, 4287, 4596, 4511, 4513, 4595
3829, 4187, 4160, 4156, 4180, 4495, 4468, 4464, 4488
3830, 4152, 4155, 4184, 4182, 4460, 4463, 4492, 4490
3831, 4154, 4157, 4161, 4183, 4462, 4465, 4469, 4491
3832, 4208, 4296, 4294, 4253, 4516, 4604, 4602, 4561
3833, 4201, 4175, 4173, 4199, 4509, 4483, 4481, 4507
3834, 4186, 4164, 4168, 4190, 4494, 4472, 4476, 4498
3835, 4252, 4243, 4234, 4238, 4560, 4551, 4542, 4546
3836, 4196, 4170, 4166, 4193, 4504, 4478, 4474, 4501
3837, 4199, 4307, 4272, 4201, 4507, 4615, 4580, 4509
3838, 4276, 4265, 4262, 4275, 4584, 4573, 4570, 4583
3839, 4300, 4256, 4292, 4266, 4608, 4564, 4600, 4574
3840, 4197, 4177, 4176, 4200, 4505, 4485, 4484, 4508
3841, 4263, 4306, 4210, 4295, 4571, 4614, 4518, 4603
3842, 4177, 4197, 4194, 4172, 4485, 4505, 4502, 4480
3843, 4186, 4190, 4194, 4209, 4494, 4498, 4502, 4517
3844, 4265, 4276, 4273, 4309, 4573, 4584, 4581, 4617
3845, 4306, 4267, 4271, 4210, 4614, 4575, 4579, 4518
3846, 4261, 4209, 4194, 4213, 4569, 4517, 4502, 4521
3847, 4175, 4201, 4198, 4174, 4483, 4509, 4506, 4482
3848, 4305, 4212, 4188, 4192, 4613, 4520, 4496, 4500
3849, 4264, 4269, 4268, 4307, 4572, 4577, 4576, 4615
3850, 4220, 4215, 4227, 4228, 4528, 4523, 4535, 4536
3851, 4298, 4297, 4229, 4291, 4606, 4605, 4537, 4599
3852, 4178, 4114, 4154, 4204, 4486, 4422, 4462, 4512
3853, 4226, 4219, 4239, 4299, 4534, 4527, 4547, 4607
3854, 4183, 4186, 4209, 4218, 4491, 4494, 4517, 4526
3855, 4258, 4243, 4207, 4189, 4566, 4551, 4515, 4497
3856, 4208, 4193, 4191, 4296, 4516, 4501, 4499, 4604
3857, 4194, 4197, 4271, 4213, 4502, 4505, 4579, 4521
3858, 4239, 4232, 4255, 4251, 4547, 4540, 4563, 4559
3859, 4268, 4275, 4305, 4308, 4576, 4583, 4613, 4616
3860, 4265, 4255, 4232, 4262, 4573, 4563, 4540, 4570
3861, 4266, 4292, 4233, 4261, 4574, 4600, 4541, 4569
3862, 4225, 4182, 4219, 4226, 4533, 4490, 4527, 4534
3863, 4226, 4291, 4214, 4225, 4534, 4599, 4522, 4533
3864, 4227, 4224, 4183, 4218, 4535, 4532, 4491, 4526
3865, 4228, 4227, 4238, 4234, 4536, 4535, 4546, 4542
3866, 4303, 4304, 4312, 4311, 4611, 4612, 4620, 4619
3867, 4220, 4228, 4244, 4236, 4528, 4536, 4552, 4544
3868, 4221, 4229, 4245, 4237, 4529, 4537, 4553, 4545
3869, 4204, 4154, 4183, 4224, 4512, 4462, 4491, 4532
3870, 4205, 4152, 4182, 4225, 4513, 4460, 4490, 4533
3871, 4291, 4229, 4221, 4214, 4599, 4537, 4529, 4522
3872, 4299, 4239, 4251, 4304, 4607, 4547, 4559, 4612
3873, 4240, 4230, 4236, 4246, 4548, 4538, 4544, 4554
3874, 4149, 4241, 4237, 4247, 4457, 4549, 4545, 4555
3875, 4146, 4230, 4240, 4147, 4454, 4538, 4548, 4455
3876, 4237, 4241, 4248, 4231, 4545, 4549, 4556, 4539
3877, 4263, 4253, 4251, 4255, 4571, 4561, 4559, 4563
3878, 4232, 4239, 4219, 4206, 4540, 4547, 4527, 4514
3879, 4292, 4256, 4254, 4252, 4600, 4564, 4562, 4560
3880, 4261, 4233, 4218, 4209, 4569, 4541, 4526, 4517
3881, 4244, 4250, 4289, 4259, 4552, 4558, 4597, 4567
3882, 4237, 4245, 4249, 4247, 4545, 4553, 4557, 4555
3883, 4227, 4218, 4233, 4238, 4535, 4526, 4541, 4546
3884, 4259, 4246, 4236, 4244, 4567, 4554, 4544, 4552
3885, 4242, 4249, 4245, 4235, 4550, 4557, 4553, 4543
3886, 4228, 4234, 4250, 4244, 4536, 4542, 4558, 4552
3887, 4207, 4243, 4252, 4254, 4515, 4551, 4560, 4562
3888, 4293, 4260, 4247, 4249, 4601, 4568, 4555, 4557
3889, 4229, 4297, 4235, 4245, 4537, 4605, 4543, 4553
3890, 4148, 4248, 4133, 4282, 4456, 4556, 4441, 4590
3891, 4294, 4187, 4180, 4257, 4602, 4495, 4488, 4565
3892, 4258, 4250, 4234, 4243, 4566, 4558, 4542, 4551
3893, 4310, 4254, 4256, 4264, 4618, 4562, 4564, 4572
3894, 4292, 4252, 4238, 4233, 4600, 4560, 4546, 4541
3895, 4302, 4293, 4249, 4242, 4610, 4601, 4557, 4550
3896, 4253, 4263, 4295, 4208, 4561, 4571, 4603, 4516
3897, 4307, 4211, 4310, 4264, 4615, 4519, 4618, 4572
3898, 4267, 4309, 4273, 4274, 4575, 4617, 4581, 4582
3899, 4309, 4270, 4255, 4265, 4617, 4578, 4563, 4573
3900, 4300, 4269, 4264, 4256, 4608, 4577, 4572, 4564
3901, 4294, 4257, 4293, 4302, 4602, 4565, 4601, 4610
3902, 4301, 4289, 4250, 4258, 4609, 4597, 4558, 4566
3903, 4181, 4285, 4259, 4289, 4489, 4593, 4567, 4597
3904, 4257, 4180, 4260, 4293, 4565, 4488, 4568, 4601
3905, 4262, 4232, 4206, 4212, 4570, 4540, 4514, 4520
3906, 4267, 4274, 4213, 4271, 4575, 4582, 4521, 4579
3907, 4306, 4263, 4255, 4270, 4614, 4571, 4563, 4578
3908, 4213, 4274, 4266, 4261, 4521, 4582, 4574, 4569
3909, 4270, 4309, 4267, 4306, 4578, 4617, 4575, 4614
3910, 4276, 4269, 4300, 4273, 4584, 4577, 4608, 4581
3911, 4308, 4198, 4201, 4272, 4616, 4506, 4509, 4580
3912, 4212, 4305, 4275, 4262, 4520, 4613, 4583, 4570
3913, 4266, 4274, 4273, 4300, 4574, 4582, 4581, 4608
3914, 4275, 4268, 4269, 4276, 4583, 4576, 4577, 4584
3915, 4307, 4268, 4308, 4272, 4615, 4576, 4616, 4580
3916, 4115, 4070, 4109, 4278, 4423, 4378, 4417, 4586
3917, 4283, 4102, 4279, 4288, 4591, 4410, 4587, 4596
3918, 4145, 4100, 4057, 4280, 4453, 4408, 4365, 4588
3919, 4148, 4101, 4099, 4281, 4456, 4409, 4407, 4589
3920, 4108, 4068, 4088, 4123, 4416, 4376, 4396, 4431
3921, 4286, 4283, 4288, 4287, 4594, 4591, 4596, 4595
3922, 4287, 4214, 4221, 4286, 4595, 4522, 4529, 4594
3923, 4289, 4301, 4185, 4181, 4597, 4609, 4493, 4489
3924, 4302, 4312, 4253, 4294, 4610, 4620, 4561, 4602
3925, 4196, 4193, 4208, 4295, 4504, 4501, 4516, 4603
3926, 4191, 4187, 4294, 4296, 4499, 4495, 4602, 4604
3927, 4303, 4235, 4297, 4298, 4611, 4543, 4605, 4606
3928, 4304, 4303, 4298, 4299, 4612, 4611, 4606, 4607
3929, 4291, 4226, 4299, 4298, 4599, 4534, 4607, 4606
3930, 4311, 4242, 4235, 4303, 4619, 4550, 4543, 4611
3931, 4308, 4305, 4192, 4198, 4616, 4613, 4500, 4506
3932, 4211, 4207, 4254, 4310, 4519, 4515, 4562, 4618
3933, 4242, 4311, 4312, 4302, 4550, 4619, 4620, 4610
3934, 4304, 4251, 4253, 4312, 4612, 4559, 4561, 4620
3935, 4409, 4313, 4328, 4407, 4717, 4621, 4636, 4715
3936, 4407, 4328, 4344, 4408, 4715, 4636, 4652, 4716
3937, 4387, 4345, 4315, 4385, 4695, 4653, 4623, 4693
3938, 4531, 4588, 4365, 4386, 4839, 4896, 4673, 4694
3939, 4531, 4386, 4406, 4410, 4839, 4694, 4714, 4718
3940, 4411, 4443, 4549, 4457, 4719, 4751, 4857, 4765
3941, 4391, 4349, 4319, 4381, 4699, 4657, 4627, 4689
3942, 4445, 4389, 4402, 4421, 4753, 4697, 4710, 4729
3943, 4373, 4351, 4321, 4372, 4681, 4659, 4629, 4680
3944, 4336, 4371, 4401, 4359, 4644, 4679, 4709, 4667
3945, 4374, 4322, 4352, 4394, 4682, 4630, 4660, 4702
3946, 4437, 4373, 4372, 4414, 4745, 4681, 4680, 4722
3947, 4476, 4472, 4437, 4414, 4784, 4780, 4745, 4722
3948, 4437, 4472, 4469, 4415, 4745, 4780, 4777, 4723
3949, 4354, 4396, 4376, 4325, 4662, 4704, 4684, 4633
3950, 4432, 4327, 4326, 4377, 4740, 4635, 4634, 4685
3951, 4416, 4530, 4377, 4376, 4724, 4838, 4685, 4684
3952, 4331, 4417, 4378, 4332, 4639, 4725, 4686, 4640
3953, 4397, 4355, 4332, 4378, 4705, 4663, 4640, 4686
3954, 4548, 4423, 4586, 4455, 4856, 4731, 4894, 4763
3955, 4432, 4377, 4530, 4585, 4740, 4685, 4838, 4893
3956, 4585, 4524, 4538, 4454, 4893, 4832, 4846, 4762
3957, 4448, 4399, 4393, 4447, 4756, 4707, 4701, 4755
3958, 4467, 4451, 4445, 4598, 4775, 4759, 4753, 4906
3959, 4390, 4348, 4347, 4368, 4698, 4656, 4655, 4676
3960, 4318, 4382, 4368, 4347, 4626, 4690, 4676, 4655
3961, 4587, 4440, 4384, 4487, 4895, 4748, 4692, 4795
3962, 4408, 4344, 4343, 4365, 4716, 4652, 4651, 4673
3963, 4383, 4317, 4316, 4366, 4691, 4625, 4624, 4674
3964, 4384, 4340, 4363, 4405, 4692, 4648, 4671, 4713
3965, 4451, 4403, 4389, 4445, 4759, 4711, 4697, 4753
3966, 4349, 4391, 4370, 4320, 4657, 4699, 4678, 4628
3967, 4392, 4350, 4320, 4370, 4700, 4658, 4628, 4678
3968, 4394, 4352, 4351, 4373, 4702, 4660, 4659, 4681
3969, 4333, 4379, 4380, 4334, 4641, 4687, 4688, 4642
3970, 4375, 4323, 4353, 4395, 4683, 4631, 4661, 4703
3971, 4523, 4528, 4524, 4510, 4831, 4836, 4832, 4818
3972, 4378, 4423, 4424, 4397, 4686, 4731, 4732, 4705
3973, 4397, 4424, 4430, 4379, 4705, 4732, 4738, 4687
3974, 4358, 4400, 4371, 4336, 4666, 4708, 4679, 4644
3975, 4359, 4401, 4369, 4337, 4667, 4709, 4677, 4645
3976, 4403, 4361, 4338, 4389, 4711, 4669, 4646, 4697
3977, 4487, 4384, 4405, 4420, 4795, 4692, 4713, 4728
3978, 4440, 4341, 4340, 4384, 4748, 4649, 4648, 4692
3979, 4365, 4343, 4342, 4386, 4673, 4651, 4650, 4694
3980, 4366, 4316, 4345, 4387, 4674, 4624, 4653, 4695
3981, 4388, 4346, 4317, 4383, 4696, 4654, 4625, 4691
3982, 4346, 4388, 4382, 4318, 4654, 4696, 4690, 4626
3983, 4362, 4404, 4367, 4339, 4670, 4712, 4675, 4647
3984, 4405, 4363, 4339, 4367, 4713, 4671, 4647, 4675
3985, 4438, 4390, 4368, 4419, 4746, 4698, 4676, 4727
3986, 4381, 4319, 4348, 4390, 4689, 4627, 4656, 4698
3987, 4402, 4360, 4337, 4369, 4710, 4668, 4645, 4677
3988, 4389, 4338, 4360, 4402, 4697, 4646, 4668, 4710
3989, 4391, 4446, 4413, 4370, 4699, 4754, 4721, 4678
3990, 4372, 4321, 4350, 4392, 4680, 4629, 4658, 4700
3991, 4335, 4393, 4399, 4357, 4643, 4701, 4707, 4665
3992, 4371, 4428, 4450, 4401, 4679, 4736, 4758, 4709
3993, 4415, 4394, 4373, 4437, 4723, 4702, 4681, 4745
3994, 4395, 4353, 4322, 4374, 4703, 4661, 4630, 4682
3995, 4431, 4324, 4323, 4375, 4739, 4632, 4631, 4683
3996, 4593, 4458, 4554, 4567, 4901, 4766, 4862, 4875
3997, 4324, 4431, 4396, 4354, 4632, 4739, 4704, 4662
3998, 4393, 4335, 4356, 4398, 4701, 4643, 4664, 4706
3999, 4377, 4326, 4325, 4376, 4685, 4634, 4633, 4684
4000, 4398, 4356, 4334, 4380, 4706, 4664, 4642, 4688
4001, 4433, 4329, 4327, 4432, 4741, 4637, 4635, 4740
4002, 4434, 4330, 4329, 4433, 4742, 4638, 4637, 4741
4003, 4379, 4333, 4355, 4397, 4687, 4641, 4663, 4705
4004, 4486, 4375, 4395, 4422, 4794, 4683, 4703, 4730
4005, 4473, 4447, 4436, 4470, 4781, 4755, 4744, 4778
4006, 4435, 4374, 4394, 4415, 4743, 4682, 4702, 4723
4007, 4490, 4492, 4514, 4527, 4798, 4800, 4822, 4835
4008, 4382, 4426, 4419, 4368, 4690, 4734, 4727, 4676
4009, 4341, 4440, 4406, 4364, 4649, 4748, 4714, 4672
4010, 4411, 4366, 4387, 4443, 4719, 4674, 4695, 4751
4011, 4539, 4556, 4456, 4589, 4847, 4864, 4764, 4897
4012, 4313, 4409, 4442, 4314, 4621, 4717, 4750, 4622
4013, 4364, 4406, 4386, 4342, 4672, 4714, 4694, 4650
4014, 4525, 4453, 4588, 4531, 4833, 4761, 4896, 4839
4015, 4439, 4383, 4366, 4411, 4747, 4691, 4674, 4719
4016, 4459, 4464, 4444, 4439, 4767, 4772, 4752, 4747
4017, 4404, 4362, 4361, 4403, 4712, 4670, 4669, 4711
4018, 4451, 4467, 4463, 4452, 4759, 4775, 4771, 4760
4019, 4495, 4499, 4471, 4468, 4803, 4807, 4779, 4776
4020, 4400, 4358, 4357, 4399, 4708, 4666, 4665, 4707
4021, 4593, 4461, 4592, 4458, 4901, 4769, 4900, 4766
4022, 4435, 4415, 4469, 4465, 4743, 4723, 4777, 4773
4023, 4401, 4450, 4412, 4369, 4709, 4758, 4720, 4677
4024, 4471, 4474, 4438, 4419, 4779, 4782, 4746, 4727
4025, 4367, 4425, 4420, 4405, 4675, 4733, 4728, 4713
4026, 4589, 4407, 4408, 4453, 4897, 4715, 4716, 4761
4027, 4385, 4315, 4314, 4442, 4693, 4623, 4622, 4750
4028, 4441, 4385, 4442, 4590, 4749, 4693, 4750, 4898
4029, 4385, 4441, 4443, 4387, 4693, 4749, 4751, 4695
4030, 4410, 4406, 4440, 4587, 4718, 4714, 4748, 4895
4031, 4444, 4388, 4383, 4439, 4752, 4696, 4691, 4747
4032, 4381, 4427, 4446, 4391, 4689, 4735, 4754, 4699
4033, 4421, 4402, 4369, 4412, 4729, 4710, 4677, 4720
4034, 4429, 4392, 4370, 4413, 4737, 4700, 4678, 4721
4035, 4414, 4372, 4392, 4429, 4722, 4680, 4700, 4737
4036, 4374, 4435, 4422, 4395, 4682, 4743, 4730, 4703
4037, 4398, 4436, 4447, 4393, 4706, 4744, 4755, 4701
4038, 4592, 4424, 4423, 4458, 4900, 4732, 4731, 4766
4039, 4486, 4416, 4431, 4375, 4794, 4724, 4739, 4683
4040, 4455, 4434, 4433, 4454, 4763, 4742, 4741, 4762
4041, 4330, 4434, 4417, 4331, 4638, 4742, 4725, 4639
4042, 4436, 4398, 4380, 4418, 4744, 4706, 4688, 4726
4043, 4427, 4381, 4390, 4438, 4735, 4689, 4698, 4746
4044, 4589, 4453, 4525, 4539, 4897, 4761, 4833, 4847
4045, 4523, 4510, 4486, 4512, 4831, 4818, 4794, 4820
4046, 4432, 4585, 4454, 4433, 4740, 4893, 4762, 4741
4047, 4418, 4380, 4379, 4430, 4726, 4688, 4687, 4738
4048, 4466, 4418, 4430, 4461, 4774, 4726, 4738, 4769
4049, 4404, 4452, 4425, 4367, 4712, 4760, 4733, 4675
4050, 4420, 4513, 4511, 4487, 4728, 4821, 4819, 4795
4051, 4464, 4468, 4426, 4444, 4772, 4776, 4734, 4752
4052, 4508, 4484, 4478, 4504, 4816, 4792, 4786, 4812
4053, 4400, 4449, 4428, 4371, 4708, 4757, 4736, 4679
4054, 4503, 4477, 4473, 4497, 4811, 4785, 4781, 4805
4055, 4470, 4436, 4418, 4466, 4778, 4744, 4726, 4774
4056, 4417, 4434, 4455, 4586, 4725, 4742, 4763, 4894
4057, 4449, 4400, 4399, 4448, 4757, 4708, 4707, 4756
4058, 4426, 4382, 4388, 4444, 4734, 4690, 4696, 4752
4059, 4545, 4539, 4525, 4529, 4853, 4847, 4833, 4837
4060, 4409, 4456, 4590, 4442, 4717, 4764, 4898, 4750
4061, 4439, 4411, 4457, 4459, 4747, 4719, 4765, 4767
4062, 4452, 4404, 4403, 4451, 4760, 4712, 4711, 4759
4063, 4480, 4476, 4414, 4429, 4788, 4784, 4722, 4737
4064, 4481, 4449, 4448, 4477, 4789, 4757, 4756, 4785
4065, 4497, 4473, 4470, 4493, 4805, 4781, 4778, 4801
4066, 4609, 4566, 4497, 4493, 4917, 4874, 4805, 4801
4067, 4598, 4445, 4421, 4475, 4906, 4753, 4729, 4783
4068, 4529, 4525, 4591, 4594, 4837, 4833, 4899, 4902
4069, 4459, 4457, 4555, 4568, 4767, 4765, 4863, 4876
4070, 4591, 4525, 4531, 4410, 4899, 4833, 4839, 4718
4071, 4544, 4538, 4524, 4528, 4852, 4846, 4832, 4836
4072, 4585, 4530, 4510, 4524, 4893, 4838, 4818, 4832
4073, 4554, 4458, 4423, 4548, 4862, 4766, 4731, 4856
4074, 4443, 4441, 4556, 4549, 4751, 4749, 4864, 4857
4075, 4595, 4513, 4533, 4522, 4903, 4821, 4841, 4830
4076, 4535, 4523, 4512, 4532, 4843, 4831, 4820, 4840
4077, 4461, 4430, 4424, 4592, 4769, 4738, 4732, 4900
4078, 4468, 4471, 4419, 4426, 4776, 4779, 4727, 4734
4079, 4460, 4425, 4452, 4463, 4768, 4733, 4760, 4771
4080, 4513, 4420, 4425, 4460, 4821, 4728, 4733, 4768
4081, 4477, 4448, 4447, 4473, 4785, 4756, 4755, 4781
4082, 4422, 4435, 4465, 4462, 4730, 4743, 4773, 4770
4083, 4568, 4488, 4464, 4459, 4876, 4796, 4772, 4767
4084, 4474, 4478, 4427, 4438, 4782, 4786, 4735, 4746
4085, 4461, 4593, 4489, 4466, 4769, 4901, 4797, 4774
4086, 4483, 4428, 4449, 4481, 4791, 4736, 4757, 4789
4087, 4478, 4484, 4446, 4427, 4786, 4792, 4754, 4735
4088, 4505, 4508, 4518, 4579, 4813, 4816, 4826, 4887
4089, 4482, 4450, 4428, 4483, 4790, 4758, 4736, 4791
4090, 4507, 4481, 4477, 4503, 4815, 4789, 4785, 4811
4091, 4501, 4474, 4471, 4499, 4809, 4782, 4779, 4807
4092, 4412, 4479, 4475, 4421, 4720, 4787, 4783, 4729
4093, 4467, 4598, 4492, 4463, 4775, 4906, 4800, 4771
4094, 4472, 4494, 4491, 4469, 4780, 4802, 4799, 4777
4095, 4520, 4514, 4492, 4496, 4828, 4822, 4800, 4804
4096, 4466, 4489, 4493, 4470, 4774, 4797, 4801, 4778
4097, 4485, 4480, 4429, 4413, 4793, 4788, 4737, 4721
4098, 4508, 4504, 4603, 4518, 4816, 4812, 4911, 4826
4099, 4482, 4506, 4500, 4479, 4790, 4814, 4808, 4787
4100, 4450, 4482, 4479, 4412, 4758, 4790, 4787, 4720
4101, 4492, 4598, 4475, 4496, 4800, 4906, 4783, 4804
4102, 4519, 4503, 4497, 4515, 4827, 4811, 4805, 4823
4103, 4615, 4507, 4503, 4519, 4923, 4815, 4811, 4827
4104, 4479, 4500, 4496, 4475, 4787, 4808, 4804, 4783
4105, 4413, 4446, 4484, 4485, 4721, 4754, 4792, 4793
4106, 4476, 4480, 4502, 4498, 4784, 4788, 4810, 4806
4107, 4530, 4416, 4486, 4510, 4838, 4724, 4794, 4818
4108, 4511, 4596, 4587, 4487, 4819, 4904, 4895, 4795
4109, 4596, 4511, 4513, 4595, 4904, 4819, 4821, 4903
4110, 4495, 4468, 4464, 4488, 4803, 4776, 4772, 4796
4111, 4460, 4463, 4492, 4490, 4768, 4771, 4800, 4798
4112, 4462, 4465, 4469, 4491, 4770, 4773, 4777, 4799
4113, 4516, 4604, 4602, 4561, 4824, 4912, 4910, 4869
4114, 4509, 4483, 4481, 4507, 4817, 4791, 4789, 4815
4115, 4494, 4472, 4476, 4498, 4802, 4780, 4784, 4806
4116, 4560, 4551, 4542, 4546, 4868, 4859, 4850, 4854
4117, 4504, 4478, 4474, 4501, 4812, 4786, 4782, 4809
4118, 4507, 4615, 4580, 4509, 4815, 4923, 4888, 4817
4119, 4584, 4573, 4570, 4583, 4892, 4881, 4878, 4891
4120, 4608, 4564, 4600, 4574, 4916, 4872, 4908, 4882
4121, 4505, 4485, 4484, 4508, 4813, 4793, 4792, 4816
4122, 4571, 4614, 4518, 4603, 4879, 4922, 4826, 4911
4123, 4485, 4505, 4502, 4480, 4793, 4813, 4810, 4788
4124, 4494, 4498, 4502, 4517, 4802, 4806, 4810, 4825
4125, 4573, 4584, 4581, 4617, 4881, 4892, 4889, 4925
4126, 4614, 4575, 4579, 4518, 4922, 4883, 4887, 4826
4127, 4569, 4517, 4502, 4521, 4877, 4825, 4810, 4829
4128, 4483, 4509, 4506, 4482, 4791, 4817, 4814, 4790
4129, 4613, 4520, 4496, 4500, 4921, 4828, 4804, 4808
4130, 4572, 4577, 4576, 4615, 4880, 4885, 4884, 4923
4131, 4528, 4523, 4535, 4536, 4836, 4831, 4843, 4844
4132, 4606, 4605, 4537, 4599, 4914, 4913, 4845, 4907
4133, 4486, 4422, 4462, 4512, 4794, 4730, 4770, 4820
4134, 4534, 4527, 4547, 4607, 4842, 4835, 4855, 4915
4135, 4491, 4494, 4517, 4526, 4799, 4802, 4825, 4834
4136, 4566, 4551, 4515, 4497, 4874, 4859, 4823, 4805
4137, 4516, 4501, 4499, 4604, 4824, 4809, 4807, 4912
4138, 4502, 4505, 4579, 4521, 4810, 4813, 4887, 4829
4139, 4547, 4540, 4563, 4559, 4855, 4848, 4871, 4867
4140, 4576, 4583, 4613, 4616, 4884, 4891, 4921, 4924
4141, 4573, 4563, 4540, 4570, 4881, 4871, 4848, 4878
4142, 4574, 4600, 4541, 4569, 4882, 4908, 4849, 4877
4143, 4533, 4490, 4527, 4534, 4841, 4798, 4835, 4842
4144, 4534, 4599, 4522, 4533, 4842, 4907, 4830, 4841
4145, 4535, 4532, 4491, 4526, 4843, 4840, 4799, 4834
4146, 4536, 4535, 4546, 4542, 4844, 4843, 4854, 4850
4147, 4611, 4612, 4620, 4619, 4919, 4920, 4928, 4927
4148, 4528, 4536, 4552, 4544, 4836, 4844, 4860, 4852
4149, 4529, 4537, 4553, 4545, 4837, 4845, 4861, 4853
4150, 4512, 4462, 4491, 4532, 4820, 4770, 4799, 4840
4151, 4513, 4460, 4490, 4533, 4821, 4768, 4798, 4841
4152, 4599, 4537, 4529, 4522, 4907, 4845, 4837, 4830
4153, 4607, 4547, 4559, 4612, 4915, 4855, 4867, 4920
4154, 4548, 4538, 4544, 4554, 4856, 4846, 4852, 4862
4155, 4457, 4549, 4545, 4555, 4765, 4857, 4853, 4863
4156, 4454, 4538, 4548, 4455, 4762, 4846, 4856, 4763
4157, 4545, 4549, 4556, 4539, 4853, 4857, 4864, 4847
4158, 4571, 4561, 4559, 4563, 4879, 4869, 4867, 4871
4159, 4540, 4547, 4527, 4514, 4848, 4855, 4835, 4822
4160, 4600, 4564, 4562, 4560, 4908, 4872, 4870, 4868
4161, 4569, 4541, 4526, 4517, 4877, 4849, 4834, 4825
4162, 4552, 4558, 4597, 4567, 4860, 4866, 4905, 4875
4163, 4545, 4553, 4557, 4555, 4853, 4861, 4865, 4863
4164, 4535, 4526, 4541, 4546, 4843, 4834, 4849, 4854
4165, 4567, 4554, 4544, 4552, 4875, 4862, 4852, 4860
4166, 4550, 4557, 4553, 4543, 4858, 4865, 4861, 4851
4167, 4536, 4542, 4558, 4552, 4844, 4850, 4866, 4860
4168, 4515, 4551, 4560, 4562, 4823, 4859, 4868, 4870
4169, 4601, 4568, 4555, 4557, 4909, 4876, 4863, 4865
4170, 4537, 4605, 4543, 4553, 4845, 4913, 4851, 4861
4171, 4456, 4556, 4441, 4590, 4764, 4864, 4749, 4898
4172, 4602, 4495, 4488, 4565, 4910, 4803, 4796, 4873
4173, 4566, 4558, 4542, 4551, 4874, 4866, 4850, 4859
4174, 4618, 4562, 4564, 4572, 4926, 4870, 4872, 4880
4175, 4600, 4560, 4546, 4541, 4908, 4868, 4854, 4849
4176, 4610, 4601, 4557, 4550, 4918, 4909, 4865, 4858
4177, 4561, 4571, 4603, 4516, 4869, 4879, 4911, 4824
4178, 4615, 4519, 4618, 4572, 4923, 4827, 4926, 4880
4179, 4575, 4617, 4581, 4582, 4883, 4925, 4889, 4890
4180, 4617, 4578, 4563, 4573, 4925, 4886, 4871, 4881
4181, 4608, 4577, 4572, 4564, 4916, 4885, 4880, 4872
4182, 4602, 4565, 4601, 4610, 4910, 4873, 4909, 4918
4183, 4609, 4597, 4558, 4566, 4917, 4905, 4866, 4874
4184, 4489, 4593, 4567, 4597, 4797, 4901, 4875, 4905
4185, 4565, 4488, 4568, 4601, 4873, 4796, 4876, 4909
4186, 4570, 4540, 4514, 4520, 4878, 4848, 4822, 4828
4187, 4575, 4582, 4521, 4579, 4883, 4890, 4829, 4887
4188, 4614, 4571, 4563, 4578, 4922, 4879, 4871, 4886
4189, 4521, 4582, 4574, 4569, 4829, 4890, 4882, 4877
4190, 4578, 4617, 4575, 4614, 4886, 4925, 4883, 4922
4191, 4584, 4577, 4608, 4581, 4892, 4885, 4916, 4889
4192, 4616, 4506, 4509, 4580, 4924, 4814, 4817, 4888
4193, 4520, 4613, 4583, 4570, 4828, 4921, 4891, 4878
4194, 4574, 4582, 4581, 4608, 4882, 4890, 4889, 4916
4195, 4583, 4576, 4577, 4584, 4891, 4884, 4885, 4892
4196, 4615, 4576, 4616, 4580, 4923, 4884, 4924, 4888
4197, 4423, 4378, 4417, 4586, 4731, 4686, 4725, 4894
4198, 4591, 4410, 4587, 4596, 4899, 4718, 4895, 4904
4199, 4453, 4408, 4365, 4588, 4761, 4716, 4673, 4896
4200, 4456, 4409, 4407, 4589, 4764, 4717, 4715, 4897
4201, 4416, 4376, 4396, 4431, 4724, 4684, 4704, 4739
4202, 4594, 4591, 4596, 4595, 4902, 4899, 4904, 4903
4203, 4595, 4522, 4529, 4594, 4903, 4830, 4837, 4902
4204, 4597, 4609, 4493, 4489, 4905, 4917, 4801, 4797
4205, 4610, 4620, 4561, 4602, 4918, 4928, 4869, 4910
4206, 4504, 4501, 4516, 4603, 4812, 4809, 4824, 4911
4207, 4499, 4495, 4602, 4604, 4807, 4803, 4910, 4912
4208, 4611, 4543, 4605, 4606, 4919, 4851, 4913, 4914
4209, 4612, 4611, 4606, 4607, 4920, 4919, 4914, 4915
4210, 4599, 4534, 4607, 4606, 4907, 4842, 4915, 4914
4211, 4619, 4550, 4543, 4611, 4927, 4858, 4851, 4919
4212, 4616, 4613, 4500, 4506, 4924, 4921, 4808, 4814
4213, 4519, 4515, 4562, 4618, 4827, 4823, 4870, 4926
4214, 4550, 4619, 4620, 4610, 4858, 4927, 4928, 4918
4215, 4612, 4559, 4561, 4620, 4920, 4867, 4869, 4928
4216, 4717, 4621, 4636, 4715, 5025, 4929, 4944, 5023
4217, 4715, 4636, 4652, 4716, 5023, 4944, 4960, 5024
4218, 4695, 4653, 4623, 4693, 5003, 4961, 4931, 5001
4219, 4839, 4896, 4673, 4694, 5147, 5204, 4981, 5002
4220, 4839, 4694, 4714, 4718, 5147, 5002, 5022, 5026
4221, 4719, 4751, 4857, 4765, 5027, 5059, 5165, 5073
4222, 4699, 4657, 4627, 4689, 5007, 4965, 4935, 4997
4223, 4753, 4697, 4710, 4729, 5061, 5005, 5018, 5037
4224, 4681, 4659, 4629, 4680, 4989, 4967, 4937, 4988
4225, 4644, 4679, 4709, 4667, 4952, 4987, 5017, 4975
4226, 4682, 4630, 4660, 4702, 4990, 4938, 4968, 5010
4227, 4745, 4681, 4680, 4722, 5053, 4989, 4988, 5030
4228, 4784, 4780, 4745, 4722, 5092, 5088, 5053, 5030
4229, 4745, 4780, 4777, 4723, 5053, 5088, 5085, 5031
4230, 4662, 4704, 4684, 4633, 4970, 5012, 4992, 4941
4231, 4740, 4635, 4634, 4685, 5048, 4943, 4942, 4993
4232, 4724, 4838, 4685, 4684, 5032, 5146, 4993, 4992
4233, 4639, 4725, 4686, 4640, 4947, 5033, 4994, 4948
4234, 4705, 4663, 4640, 4686, 5013, 4971, 4948, 4994
4235, 4856, 4731, 4894, 4763, 5164, 5039, 5202, 5071
4236, 4740, 4685, 4838, 4893, 5048, 4993, 5146, 5201
4237, 4893, 4832, 4846, 4762, 5201, 5140, 5154, 5070
4238, 4756, 4707, 4701, 4755, 5064, 5015, 5009, 5063
4239, 4775, 4759, 4753, 4906, 5083, 5067, 5061, 5214
4240, 4698, 4656, 4655, 4676, 5006, 4964, 4963, 4984
4241, 4626, 4690, 4676, 4655, 4934, 4998, 4984, 4963
4242, 4895, 4748, 4692, 4795, 5203, 5056, 5000, 5103
4243, 4716, 4652, 4651, 4673, 5024, 4960, 4959, 4981
4244, 4691, 4625, 4624, 4674, 4999, 4933, 4932, 4982
4245, 4692, 4648, 4671, 4713, 5000, 4956, 4979, 5021
4246, 4759, 4711, 4697, 4753, 5067, 5019, 5005, 5061
4247, 4657, 4699, 4678, 4628, 4965, 5007, 4986, 4936
4248, 4700, 4658, 4628, 4678, 5008, 4966, 4936, 4986
4249, 4702, 4660, 4659, 4681, 5010, 4968, 4967, 4989
4250, 4641, 4687, 4688, 4642, 4949, 4995, 4996, 4950
4251, 4683, 4631, 4661, 4703, 4991, 4939, 4969, 5011
4252, 4831, 4836, 4832, 4818, 5139, 5144, 5140, 5126
4253, 4686, 4731, 4732, 4705, 4994, 5039, 5040, 5013
4254, 4705, 4732, 4738, 4687, 5013, 5040, 5046, 4995
4255, 4666, 4708, 4679, 4644, 4974, 5016, 4987, 4952
4256, 4667, 4709, 4677, 4645, 4975, 5017, 4985, 4953
4257, 4711, 4669, 4646, 4697, 5019, 4977, 4954, 5005
4258, 4795, 4692, 4713, 4728, 5103, 5000, 5021, 5036
4259, 4748, 4649, 4648, 4692, 5056, 4957, 4956, 5000
4260, 4673, 4651, 4650, 4694, 4981, 4959, 4958, 5002
4261, 4674, 4624, 4653, 4695, 4982, 4932, 4961, 5003
4262, 4696, 4654, 4625, 4691, 5004, 4962, 4933, 4999
4263, 4654, 4696, 4690, 4626, 4962, 5004, 4998, 4934
4264, 4670, 4712, 4675, 4647, 4978, 5020, 4983, 4955
4265, 4713, 4671, 4647, 4675, 5021, 4979, 4955, 4983
4266, 4746, 4698, 4676, 4727, 5054, 5006, 4984, 5035
4267, 4689, 4627, 4656, 4698, 4997, 4935, 4964, 5006
4268, 4710, 4668, 4645, 4677, 5018, 4976, 4953, 4985
4269, 4697, 4646, 4668, 4710, 5005, 4954, 4976, 5018
4270, 4699, 4754, 4721, 4678, 5007, 5062, 5029, 4986
4271, 4680, 4629, 4658, 4700, 4988, 4937, 4966, 5008
4272, 4643, 4701, 4707, 4665, 4951, 5009, 5015, 4973
4273, 4679, 4736, 4758, 4709, 4987, 5044, 5066, 5017
4274, 4723, 4702, 4681, 4745, 5031, 5010, 4989, 5053
4275, 4703, 4661, 4630, 4682, 5011, 4969, 4938, 4990
4276, 4739, 4632, 4631, 4683, 5047, 4940, 4939, 4991
4277, 4901, 4766, 4862, 4875, 5209, 5074, 5170, 5183
4278, 4632, 4739, 4704, 4662, 4940, 5047, 5012, 4970
4279, 4701, 4643, 4664, 4706, 5009, 4951, 4972, 5014
4280, 4685, 4634, 4633, 4684, 4993, 4942, 4941, 4992
4281, 4706, 4664, 4642, 4688, 5014, 4972, 4950, 4996
4282, 4741, 4637, 4635, 4740, 5049, 4945, 4943, 5048
4283, 4742, 4638, 4637, 4741, 5050, 4946, 4945, 5049
4284, 4687, 4641, 4663, 4705, 4995, 4949, 4971, 5013
4285, 4794, 4683, 4703, 4730, 5102, 4991, 5011, 5038
4286, 4781, 4755, 4744, 4778, 5089, 5063, 5052, 5086
4287, 4743, 4682, 4702, 4723, 5051, 4990, 5010, 5031
4288, 4798, 4800, 4822, 4835, 5106, 5108, 5130, 5143
4289, 4690, 4734, 4727, 4676, 4998, 5042, 5035, 4984
4290, 4649, 4748, 4714, 4672, 4957, 5056, 5022, 4980
4291, 4719, 4674, 4695, 4751, 5027, 4982, 5003, 5059
4292, 4847, 4864, 4764, 4897, 5155, 5172, 5072, 5205
4293, 4621, 4717, 4750, 4622, 4929, 5025, 5058, 4930
4294, 4672, 4714, 4694, 4650, 4980, 5022, 5002, 4958
4295, 4833, 4761, 4896, 4839, 5141, 5069, 5204, 5147
4296, 4747, 4691, 4674, 4719, 5055, 4999, 4982, 5027
4297, 4767, 4772, 4752, 4747, 5075, 5080, 5060, 5055
4298, 4712, 4670, 4669, 4711, 5020, 4978, 4977, 5019
4299, 4759, 4775, 4771, 4760, 5067, 5083, 5079, 5068
4300, 4803, 4807, 4779, 4776, 5111, 5115, 5087, 5084
4301, 4708, 4666, 4665, 4707, 5016, 4974, 4973, 5015
4302, 4901, 4769, 4900, 4766, 5209, 5077, 5208, 5074
4303, 4743, 4723, 4777, 4773, 5051, 5031, 5085, 5081
4304, 4709, 4758, 4720, 4677, 5017, 5066, 5028, 4985
4305, 4779, 4782, 4746, 4727, 5087, 5090, 5054, 5035
4306, 4675, 4733, 4728, 4713, 4983, 5041, 5036, 5021
4307, 4897, 4715, 4716, 4761, 5205, 5023, 5024, 5069
4308, 4693, 4623, 4622, 4750, 5001, 4931, 4930, 5058
4309, 4749, 4693, 4750, 4898, 5057, 5001, 5058, 5206
4310, 4693, 4749, 4751, 4695, 5001, 5057, 5059, 5003
4311, 4718, 4714, 4748, 4895, 5026, 5022, 5056, 5203
4312, 4752, 4696, 4691, 4747, 5060, 5004, 4999, 5055
4313, 4689, 4735, 4754, 4699, 4997, 5043, 5062, 5007
4314, 4729, 4710, 4677, 4720, 5037, 5018, 4985, 5028
4315, 4737, 4700, 4678, 4721, 5045, 5008, 4986, 5029
4316, 4722, 4680, 4700, 4737, 5030, 4988, 5008, 5045
4317, 4682, 4743, 4730, 4703, 4990, 5051, 5038, 5011
4318, 4706, 4744, 4755, 4701, 5014, 5052, 5063, 5009
4319, 4900, 4732, 4731, 4766, 5208, 5040, 5039, 5074
4320, 4794, 4724, 4739, 4683, 5102, 5032, 5047, 4991
4321, 4763, 4742, 4741, 4762, 5071, 5050, 5049, 5070
4322, 4638, 4742, 4725, 4639, 4946, 5050, 5033, 4947
4323, 4744, 4706, 4688, 4726, 5052, 5014, 4996, 5034
4324, 4735, 4689, 4698, 4746, 5043, 4997, 5006, 5054
4325, 4897, 4761, 4833, 4847, 5205, 5069, 5141, 5155
4326, 4831, 4818, 4794, 4820, 5139, 5126, 5102, 5128
4327, 4740, 4893, 4762, 4741, 5048, 5201, 5070, 5049
4328, 4726, 4688, 4687, 4738, 5034, 4996, 4995, 5046
4329, 4774, 4726, 4738, 4769, 5082, 5034, 5046, 5077
4330, 4712, 4760, 4733, 4675, 5020, 5068, 5041, 4983
4331, 4728, 4821, 4819, 4795, 5036, 5129, 5127, 5103
4332, 4772, 4776, 4734, 4752, 5080, 5084, 5042, 5060
4333, 4816, 4792, 4786, 4812, 5124, 5100, 5094, 5120
4334, 4708, 4757, 4736, 4679, 5016, 5065, 5044, 4987
4335, 4811, 4785, 4781, 4805, 5119, 5093, 5089, 5113
4336, 4778, 4744, 4726, 4774, 5086, 5052, 5034, 5082
4337, 4725, 4742, 4763, 4894, 5033, 5050, 5071, 5202
4338, 4757, 4708, 4707, 4756, 5065, 5016, 5015, 5064
4339, 4734, 4690, 4696, 4752, 5042, 4998, 5004, 5060
4340, 4853, 4847, 4833, 4837, 5161, 5155, 5141, 5145
4341, 4717, 4764, 4898, 4750, 5025, 5072, 5206, 5058
4342, 4747, 4719, 4765, 4767, 5055, 5027, 5073, 5075
4343, 4760, 4712, 4711, 4759, 5068, 5020, 5019, 5067
4344, 4788, 4784, 4722, 4737, 5096, 5092, 5030, 5045
4345, 4789, 4757, 4756, 4785, 5097, 5065, 5064, 5093
4346, 4805, 4781, 4778, 4801, 5113, 5089, 5086, 5109
4347, 4917, 4874, 4805, 4801, 5225, 5182, 5113, 5109
4348, 4906, 4753, 4729, 4783, 5214, 5061, 5037, 5091
4349, 4837, 4833, 4899, 4902, 5145, 5141, 5207, 5210
4350, 4767, 4765, 4863, 4876, 5075, 5073, 5171, 5184
4351, 4899, 4833, 4839, 4718, 5207, 5141, 5147, 5026
4352, 4852, 4846, 4832, 4836, 5160, 5154, 5140, 5144
4353, 4893, 4838, 4818, 4832, 5201, 5146, 5126, 5140
4354, 4862, 4766, 4731, 4856, 5170, 5074, 5039, 5164
4355, 4751, 4749, 4864, 4857, 5059, 5057, 5172, 5165
4356, 4903, 4821, 4841, 4830, 5211, 5129, 5149, 5138
4357, 4843, 4831, 4820, 4840, 5151, 5139, 5128, 5148
4358, 4769, 4738, 4732, 4900, 5077, 5046, 5040, 5208
4359, 4776, 4779, 4727, 4734, 5084, 5087, 5035, 5042
4360, 4768, 4733, 4760, 4771, 5076, 5041, 5068, 5079
4361, 4821, 4728, 4733, 4768, 5129, 5036, 5041, 5076
4362, 4785, 4756, 4755, 4781, 5093, 5064, 5063, 5089
4363, 4730, 4743, 4773, 4770, 5038, 5051, 5081, 5078
4364, 4876, 4796, 4772, 4767, 5184, 5104, 5080, 5075
4365, 4782, 4786, 4735, 4746, 5090, 5094, 5043, 5054
4366, 4769, 4901, 4797, 4774, 5077, 5209, 5105, 5082
4367, 4791, 4736, 4757, 4789, 5099, 5044, 5065, 5097
4368, 4786, 4792, 4754, 4735, 5094, 5100, 5062, 5043
4369, 4813, 4816, 4826, 4887, 5121, 5124, 5134, 5195
4370, 4790, 4758, 4736, 4791, 5098, 5066, 5044, 5099
4371, 4815, 4789, 4785, 4811, 5123, 5097, 5093, 5119
4372, 4809, 4782, 4779, 4807, 5117, 5090, 5087, 5115
4373, 4720, 4787, 4783, 4729, 5028, 5095, 5091, 5037
4374, 4775, 4906, 4800, 4771, 5083, 5214, 5108, 5079
4375, 4780, 4802, 4799, 4777, 5088, 5110, 5107, 5085
4376, 4828, 4822, 4800, 4804, 5136, 5130, 5108, 5112
4377, 4774, 4797, 4801, 4778, 5082, 5105, 5109, 5086
4378, 4793, 4788, 4737, 4721, 5101, 5096, 5045, 5029
4379, 4816, 4812, 4911, 4826, 5124, 5120, 5219, 5134
4380, 4790, 4814, 4808, 4787, 5098, 5122, 5116, 5095
4381, 4758, 4790, 4787, 4720, 5066, 5098, 5095, 5028
4382, 4800, 4906, 4783, 4804, 5108, 5214, 5091, 5112
4383, 4827, 4811, 4805, 4823, 5135, 5119, 5113, 5131
4384, 4923, 4815, 4811, 4827, 5231, 5123, 5119, 5135
4385, 4787, 4808, 4804, 4783, 5095, 5116, 5112, 5091
4386, 4721, 4754, 4792, 4793, 5029, 5062, 5100, 5101
4387, 4784, 4788, 4810, 4806, 5092, 5096, 5118, 5114
4388, 4838, 4724, 4794, 4818, 5146, 5032, 5102, 5126
4389, 4819, 4904, 4895, 4795, 5127, 5212, 5203, 5103
4390, 4904, 4819, 4821, 4903, 5212, 5127, 5129, 5211
4391, 4803, 4776, 4772, 4796, 5111, 5084, 5080, 5104
4392, 4768, 4771, 4800, 4798, 5076, 5079, 5108, 5106
4393, 4770, 4773, 4777, 4799, 5078, 5081, 5085, 5107
4394, 4824, 4912, 4910, 4869, 5132, 5220, 5218, 5177
4395, 4817, 4791, 4789, 4815, 5125, 5099, 5097, 5123
4396, 4802, 4780, 4784, 4806, 5110, 5088, 5092, 5114
4397, 4868, 4859, 4850, 4854, 5176, 5167, 5158, 5162
4398, 4812, 4786, 4782, 4809, 5120, 5094, 5090, 5117
4399, 4815, 4923, 4888, 4817, 5123, 5231, 5196, 5125
4400, 4892, 4881, 4878, 4891, 5200, 5189, 5186, 5199
4401, 4916, 4872, 4908, 4882, 5224, 5180, 5216, 5190
4402, 4813, 4793, 4792, 4816, 5121, 5101, 5100, 5124
4403, 4879, 4922, 4826, 4911, 5187, 5230, 5134, 5219
4404, 4793, 4813, 4810, 4788, 5101, 5121, 5118, 5096
4405, 4802, 4806, 4810, 4825, 5110, 5114, 5118, 5133
4406, 4881, 4892, 4889, 4925, 5189, 5200, 5197, 5233
4407, 4922, 4883, 4887, 4826, 5230, 5191, 5195, 5134
4408, 4877, 4825, 4810, 4829, 5185, 5133, 5118, 5137
4409, 4791, 4817, 4814, 4790, 5099, 5125, 5122, 5098
4410, 4921, 4828, 4804, 4808, 5229, 5136, 5112, 5116
4411, 4880, 4885, 4884, 4923, 5188, 5193, 5192, 5231
4412, 4836, 4831, 4843, 4844, 5144, 5139, 5151, 5152
4413, 4914, 4913, 4845, 4907, 5222, 5221, 5153, 5215
4414, 4794, 4730, 4770, 4820, 5102, 5038, 5078, 5128
4415, 4842, 4835, 4855, 4915, 5150, 5143, 5163, 5223
4416, 4799, 4802, 4825, 4834, 5107, 5110, 5133, 5142
4417, 4874, 4859, 4823, 4805, 5182, 5167, 5131, 5113
4418, 4824, 4809, 4807, 4912, 5132, 5117, 5115, 5220
4419, 4810, 4813, 4887, 4829, 5118, 5121, 5195, 5137
4420, 4855, 4848, 4871, 4867, 5163, 5156, 5179, 5175
4421, 4884, 4891, 4921, 4924, 5192, 5199, 5229, 5232
4422, 4881, 4871, 4848, 4878, 5189, 5179, 5156, 5186
4423, 4882, 4908, 4849, 4877, 5190, 5216, 5157, 5185
4424, 4841, 4798, 4835, 4842, 5149, 5106, 5143, 5150
4425, 4842, 4907, 4830, 4841, 5150, 5215, 5138, 5149
4426, 4843, 4840, 4799, 4834, 5151, 5148, 5107, 5142
4427, 4844, 4843, 4854, 4850, 5152, 5151, 5162, 5158
4428, 4919, 4920, 4928, 4927, 5227, 5228, 5236, 5235
4429, 4836, 4844, 4860, 4852, 5144, 5152, 5168, 5160
4430, 4837, 4845, 4861, 4853, 5145, 5153, 5169, 5161
4431, 4820, 4770, 4799, 4840, 5128, 5078, 5107, 5148
4432, 4821, 4768, 4798, 4841, 5129, 5076, 5106, 5149
4433, 4907, 4845, 4837, 4830, 5215, 5153, 5145, 5138
4434, 4915, 4855, 4867, 4920, 5223, 5163, 5175, 5228
4435, 4856, 4846, 4852, 4862, 5164, 5154, 5160, 5170
4436, 4765, 4857, 4853, 4863, 5073, 5165, 5161, 5171
4437, 4762, 4846, 4856, 4763, 5070, 5154, 5164, 5071
4438, 4853, 4857, 4864, 4847, 5161, 5165, 5172, 5155
4439, 4879, 4869, 4867, 4871, 5187, 5177, 5175, 5179
4440, 4848, 4855, 4835, 4822, 5156, 5163, 5143, 5130
4441, 4908, 4872, 4870, 4868, 5216, 5180, 5178, 5176
4442, 4877, 4849, 4834, 4825, 5185, 5157, 5142, 5133
4443, 4860, 4866, 4905, 4875, 5168, 5174, 5213, 5183
4444, 4853, 4861, 4865, 4863, 5161, 5169, 5173, 5171
4445, 4843, 4834, 4849, 4854, 5151, 5142, 5157, 5162
4446, 4875, 4862, 4852, 4860, 5183, 5170, 5160, 5168
4447, 4858, 4865, 4861, 4851, 5166, 5173, 5169, 5159
4448, 4844, 4850, 4866, 4860, 5152, 5158, 5174, 5168
4449, 4823, 4859, 4868, 4870, 5131, 5167, 5176, 5178
4450, 4909, 4876, 4863, 4865, 5217, 5184, 5171, 5173
4451, 4845, 4913, 4851, 4861, 5153, 5221, 5159, 5169
4452, 4764, 4864, 4749, 4898, 5072, 5172, 5057, 5206
4453, 4910, 4803, 4796, 4873, 5218, 5111, 5104, 5181
4454, 4874, 4866, 4850, 4859, 5182, 5174, 5158, 5167
4455, 4926, 4870, 4872, 4880, 5234, 5178, 5180, 5188
4456, 4908, 4868, 4854, 4849, 5216, 5176, 5162, 5157
4457, 4918, 4909, 4865, 4858, 5226, 5217, 5173, 5166
4458, 4869, 4879, 4911, 4824, 5177, 5187, 5219, 5132
4459, 4923, 4827, 4926, 4880, 5231, 5135, 5234, 5188
4460, 4883, 4925, 4889, 4890, 5191, 5233, 5197, 5198
4461, 4925, 4886, 4871, 4881, 5233, 5194, 5179, 5189
4462, 4916, 4885, 4880, 4872, 5224, 5193, 5188, 5180
4463, 4910, 4873, 4909, 4918, 5218, 5181, 5217, 5226
4464, 4917, 4905, 4866, 4874, 5225, 5213, 5174, 5182
4465, 4797, 4901, 4875, 4905, 5105, 5209, 5183, 5213
4466, 4873, 4796, 4876, 4909, 5181, 5104, 5184, 5217
4467, 4878, 4848, 4822, 4828, 5186, 5156, 5130, 5136
4468, 4883, 4890, 4829, 4887, 5191, 5198, 5137, 5195
4469, 4922, 4879, 4871, 4886, 5230, 5187, 5179, 5194
4470, 4829, 4890, 4882, 4877, 5137, 5198, 5190, 5185
4471, 4886, 4925, 4883, 4922, 5194, 5233, 5191, 5230
4472, 4892, 4885, 4916, 4889, 5200, 5193, 5224, 5197
4473, 4924, 4814, 4817, 4888, 5232, 5122, 5125, 5196
4474, 4828, 4921, 4891, 4878, 5136, 5229, 5199, 5186
4475, 4882, 4890, 4889, 4916, 5190, 5198, 5197, 5224
4476, 4891, 4884, 4885, 4892, 5199, 5192, 5193, 5200
4477, 4923, 4884, 4924, 4888, 5231, 5192, 5232, 5196
4478, 4731, 4686, 4725, 4894, 5039, 4994, 5033, 5202
4479, 4899, 4718, 4895, 4904, 5207, 5026, 5203, 5212
4480, 4761, 4716, 4673, 4896, 5069, 5024, 4981, 5204
4481, 4764, 4717, 4715, 4897, 5072, 5025, 5023, 5205
4482, 4724, 4684, 4704, 4739, 5032, 4992, 5012, 5047
4483, 4902, 4899, 4904, 4903, 5210, 5207, 5212, 5211
4484, 4903, 4830, 4837, 4902, 5211, 5138, 5145, 5210
4485, 4905, 4917, 4801, 4797, 5213, 5225, 5109, 5105
4486, 4918, 4928, 4869, 4910, 5226, 5236, 5177, 5218
4487, 4812, 4809, 4824, 4911, 5120, 5117, 5132, 5219
4488, 4807, 4803, 4910, 4912, 5115, 5111, 5218, 5220
4489, 4919, 4851, 4913, 4914, 5227, 5159, 5221, 5222
4490, 4920, 4919, 4914, 4915, 5228, 5227, 5222, 5223
4491, 4907, 4842, 4915, 4914, 5215, 5150, 5223, 5222
4492, 4927, 4858, 4851, 4919, 5235, 5166, 5159, 5227
4493, 4924, 4921, 4808, 4814, 5232, 5229, 5116, 5122
4494, 4827, 4823, 4870, 4926, 5135, 5131, 5178, 5234
4495, 4858, 4927, 4928, 4918, 5166, 5235, 5236, 5226
4496, 4920, 4867, 4869, 4928, 5228, 5175, 5177, 5236
4497, 5025, 4929, 4944, 5023, 5333, 5237, 5252, 5331
4498, 5023, 4944, 4960, 5024, 5331, 5252, 5268, 5332
4499, 5003, 4961, 4931, 5001, 5311, 5269, 5239, 5309
4500, 5147, 5204, 4981, 5002, 5455, 5512, 5289, 5310
4501, 5147, 5002, 5022, 5026, 5455, 5310, 5330, 5334
4502, 5027, 5059, 5165, 5073, 5335, 5367, 5473, 5381
4503, 5007, 4965, 4935, 4997, 5315, 5273, 5243, 5305
4504, 5061, 5005, 5018, 5037, 5369, 5313, 5326, 5345
4505, 4989, 4967, 4937, 4988, 5297, 5275, 5245, 5296
4506, 4952, 4987, 5017, 4975, 5260, 5295, 5325, 5283
4507, 4990, 4938, 4968, 5010, 5298, 5246, 5276, 5318
4508, 5053, 4989, 4988, 5030, 5361, 5297, 5296, 5338
4509, 5092, 5088, 5053, 5030, 5400, 5396, 5361, 5338
4510, 5053, 5088, 5085, 5031, 5361, 5396, 5393, 5339
4511, 4970, 5012, 4992, 4941, 5278, 5320, 5300, 5249
4512, 5048, 4943, 4942, 4993, 5356, 5251, 5250, 5301
4513, 5032, 5146, 4993, 4992, 5340, 5454, 5301, 5300
4514, 4947, 5033, 4994, 4948, 5255, 5341, 5302, 5256
4515, 5013, 4971, 4948, 4994, 5321, 5279, 5256, 5302
4516, 5164, 5039, 5202, 5071, 5472, 5347, 5510, 5379
4517, 5048, 4993, 5146, 5201, 5356, 5301, 5454, 5509
4518, 5201, 5140, 5154, 5070, 5509, 5448, 5462, 5378
4519, 5064, 5015, 5009, 5063, 5372, 5323, 5317, 5371
4520, 5083, 5067, 5061, 5214, 5391, 5375, 5369, 5522
4521, 5006, 4964, 4963, 4984, 5314, 5272, 5271, 5292
4522, 4934, 4998, 4984, 4963, 5242, 5306, 5292, 5271
4523, 5203, 5056, 5000, 5103, 5511, 5364, 5308, 5411
4524, 5024, 4960, 4959, 4981, 5332, 5268, 5267, 5289
4525, 4999, 4933, 4932, 4982, 5307, 5241, 5240, 5290
4526, 5000, 4956, 4979, 5021, 5308, 5264, 5287, 5329
4527, 5067, 5019, 5005, 5061, 5375, 5327, 5313, 5369
4528, 4965, 5007, 4986, 4936, 5273, 5315, 5294, 5244
4529, 5008, 4966, 4936, 4986, 5316, 5274, 5244, 5294
4530, 5010, 4968, 4967, 4989, 5318, 5276, 5275, 5297
4531, 4949, 4995, 4996, 4950, 5257, 5303, 5304, 5258
4532, 4991, 4939, 4969, 5011, 5299, 5247, 5277, 5319
4533, 5139, 5144, 5140, 5126, 5447, 5452, 5448, 5434
4534, 4994, 5039, 5040, 5013, 5302, 5347, 5348, 5321
4535, 5013, 5040, 5046, 4995, 5321, 5348, 5354, 5303
4536, 4974, 5016, 4987, 4952, 5282, 5324, 5295, 5260
4537, 4975, 5017, 4985, 4953, 5283, 5325, 5293, 5261
4538, 5019, 4977, 4954, 5005, 5327, 5285, 5262, 5313
4539, 5103, 5000, 5021, 5036, 5411, 5308, 5329, 5344
4540, 5056, 4957, 4956, 5000, 5364, 5265, 5264, 5308
4541, 4981, 4959, 4958, 5002, 5289, 5267, 5266, 5310
4542, 4982, 4932, 4961, 5003, 5290, 5240, 5269, 5311
4543, 5004, 4962, 4933, 4999, 5312, 5270, 5241, 5307
4544, 4962, 5004, 4998, 4934, 5270, 5312, 5306, 5242
4545, 4978, 5020, 4983, 4955, 5286, 5328, 5291, 5263
4546, 5021, 4979, 4955, 4983, 5329, 5287, 5263, 5291
4547, 5054, 5006, 4984, 5035, 5362, 5314, 5292, 5343
4548, 4997, 4935, 4964, 5006, 5305, 5243, 5272, 5314
4549, 5018, 4976, 4953, 4985, 5326, 5284, 5261, 5293
4550, 5005, 4954, 4976, 5018, 5313, 5262, 5284, 5326
4551, 5007, 5062, 5029, 4986, 5315, 5370, 5337, 5294
4552, 4988, 4937, 4966, 5008, 5296, 5245, 5274, 5316
4553, 4951, 5009, 5015, 4973, 5259, 5317, 5323, 5281
4554, 4987, 5044, 5066, 5017, 5295, 5352, 5374, 5325
4555, 5031, 5010, 4989, 5053, 5339, 5318, 5297, 5361
4556, 5011, 4969, 4938, 4990, 5319, 5277, 5246, 5298
4557, 5047, 4940, 4939, 4991, 5355, 5248, 5247, 5299
4558, 5209, 5074, 5170, 5183, 5517, 5382, 5478, 5491
4559, 4940, 5047, 5012, 4970, 5248, 5355, 5320, 5278
4560, 5009, 4951, 4972, 5014, 5317, 5259, 5280, 5322
4561, 4993, 4942, 4941, 4992, 5301, 5250, 5249, 5300
4562, 5014, 4972, 4950, 4996, 5322, 5280, 5258, 5304
4563, 5049, 4945, 4943, 5048, 5357, 5253, 5251, 5356
4564, 5050, 4946, 4945, 5049, 5358, 5254, 5253, 5357
4565, 4995, 4949, 4971, 5013, 5303, 5257, 5279, 5321
4566, 5102, 4991, 5011, 5038, 5410, 5299, 5319, 5346
4567, 5089, 5063, 5052, 5086, 5397, 5371, 5360, 5394
4568, 5051, 4990, 5010, 5031, 5359, 5298, 5318, 5339
4569, 5106, 5108, 5130, 5143, 5414, 5416, 5438, 5451
4570, 4998, 5042, 5035, 4984, 5306, 5350, 5343, 5292
4571, 4957, 5056, 5022, 4980, 5265, 5364, 5330, 5288
4572, 5027, 4982, 5003, 5059, 5335, 5290, 5311, 5367
4573, 5155, 5172, 5072, 5205, 5463, 5480, 5380, 5513
4574, 4929, 5025, 5058, 4930, 5237, 5333, 5366, 5238
4575, 4980, 5022, 5002, 4958, 5288, 5330, 5310, 5266
4576, 5141, 5069, 5204, 5147, 5449, 5377, 5512, 5455
4577, 5055, 4999, 4982, 5027, 5363, 5307, 5290, 5335
4578, 5075, 5080, 5060, 5055, 5383, 5388, 5368, 5363
4579, 5020, 4978, 4977, 5019, 5328, 5286, 5285, 5327
4580, 5067, 5083, 5079, 5068, 5375, 5391, 5387, 5376
4581, 5111, 5115, 5087, 5084, 5419, 5423, 5395, 5392
4582, 5016, 4974, 4973, 5015, 5324, 5282, 5281, 5323
4583, 5209, 5077, 5208, 5074, 5517, 5385, 5516, 5382
4584, 5051, 5031, 5085, 5081, 5359, 5339, 5393, 5389
4585, 5017, 5066, 5028, 4985, 5325, 5374, 5336, 5293
4586, 5087, 5090, 5054, 5035, 5395, 5398, 5362, 5343
4587, 4983, 5041, 5036, 5021, 5291, 5349, 5344, 5329
4588, 5205, 5023, 5024, 5069, 5513, 5331, 5332, 5377
4589, 5001, 4931, 4930, 5058, 5309, 5239, 5238, 5366
4590, 5057, 5001, 5058, 5206, 5365, 5309, 5366, 5514
4591, 5001, 5057, 5059, 5003, 5309, 5365, 5367, 5311
4592, 5026, 5022, 5056, 5203, 5334, 5330, 5364, 5511
4593, 5060, 5004, 4999, 5055, 5368, 5312, 5307, 5363
4594, 4997, 5043, 5062, 5007, 5305, 5351, 5370, 5315
4595, 5037, 5018, 4985, 5028, 5345, 5326, 5293, 5336
4596, 5045, 5008, 4986, 5029, 5353, 5316, 5294, 5337
4597, 5030, 4988, 5008, 5045, 5338, 5296, 5316, 5353
4598, 4990, 5051, 5038, 5011, 5298, 5359, 5346, 5319
4599, 5014, 5052, 5063, 5009, 5322, 5360, 5371, 5317
4600, 5208, 5040, 5039, 5074, 5516, 5348, 5347, 5382
4601, 5102, 5032, 5047, 4991, 5410, 5340, 5355, 5299
4602, 5071, 5050, 5049, 5070, 5379, 5358, 5357, 5378
4603, 4946, 5050, 5033, 4947, 5254, 5358, 5341, 5255
4604, 5052, 5014, 4996, 5034, 5360, 5322, 5304, 5342
4605, 5043, 4997, 5006, 5054, 5351, 5305, 5314, 5362
4606, 5205, 5069, 5141, 5155, 5513, 5377, 5449, 5463
4607, 5139, 5126, 5102, 5128, 5447, 5434, 5410, 5436
4608, 5048, 5201, 5070, 5049, 5356, 5509, 5378, 5357
4609, 5034, 4996, 4995, 5046, 5342, 5304, 5303, 5354
4610, 5082, 5034, 5046, 5077, 5390, 5342, 5354, 5385
4611, 5020, 5068, 5041, 4983, 5328, 5376, 5349, 5291
4612, 5036, 5129, 5127, 5103, 5344, 5437, 5435, 5411
4613, 5080, 5084, 5042, 5060, 5388, 5392, 5350, 5368
4614, 5124, 5100, 5094, 5120, 5432, 5408, 5402, 5428
4615, 5016, 5065, 5044, 4987, 5324, 5373, 5352, 5295
4616, 5119, 5093, 5089, 5113, 5427, 5401, 5397, 5421
4617, 5086, 5052, 5034, 5082, 5394, 5360, 5342, 5390
4618, 5033, 5050, 5071, 5202, 5341, 5358, 5379, 5510
4619, 5065, 5016, 5015, 5064, 5373, 5324, 5323, 5372
4620, 5042, 4998, 5004, 5060, 5350, 5306, 5312, 5368
4621, 5161, 5155, 5141, 5145, 5469, 5463, 5449, 5453
4622, 5025, 5072, 5206, 5058, 5333, 5380, 5514, 5366
4623, 5055, 5027, 5073, 5075, 5363, 5335, 5381, 5383
4624, 5068, 5020, 5019, 5067, 5376, 5328, 5327, 5375
4625, 5096, 5092, 5030, 5045, 5404, 5400, 5338, 5353
4626, 5097, 5065, 5064, 5093, 5405, 5373, 5372, 5401
4627, 5113, 5089, 5086, 5109, 5421, 5397, 5394, 5417
4628, 5225, 5182, 5113, 5109, 5533, 5490, 5421, 5417
4629, 5214, 5061, 5037, 5091, 5522, 5369, 5345, 5399
4630, 5145, 5141, 5207, 5210, 5453, 5449, 5515, 5518
4631, 5075, 5073, 5171, 5184, 5383, 5381, 5479, 5492
4632, 5207, 5141, 5147, 5026, 5515, 5449, 5455, 5334
4633, 5160, 5154, 5140, 5144, 5468, 5462, 5448, 5452
4634, 5201, 5146, 5126, 5140, 5509, 5454, 5434, 5448
4635, 5170, 5074, 5039, 5164, 5478, 5382, 5347, 5472
4636, 5059, 5057, 5172, 5165, 5367, 5365, 5480, 5473
4637, 5211, 5129, 5149, 5138, 5519, 5437, 5457, 5446
4638, 5151, 5139, 5128, 5148, 5459, 5447, 5436, 5456
4639, 5077, 5046, 5040, 5208, 5385, 5354, 5348, 5516
4640, 5084, 5087, 5035, 5042, 5392, 5395, 5343, 5350
4641, 5076, 5041, 5068, 5079, 5384, 5349, 5376, 5387
4642, 5129, 5036, 5041, 5076, 5437, 5344, 5349, 5384
4643, 5093, 5064, 5063, 5089, 5401, 5372, 5371, 5397
4644, 5038, 5051, 5081, 5078, 5346, 5359, 5389, 5386
4645, 5184, 5104, 5080, 5075, 5492, 5412, 5388, 5383
4646, 5090, 5094, 5043, 5054, 5398, 5402, 5351, 5362
4647, 5077, 5209, 5105, 5082, 5385, 5517, 5413, 5390
4648, 5099, 5044, 5065, 5097, 5407, 5352, 5373, 5405
4649, 5094, 5100, 5062, 5043, 5402, 5408, 5370, 5351
4650, 5121, 5124, 5134, 5195, 5429, 5432, 5442, 5503
4651, 5098, 5066, 5044, 5099, 5406, 5374, 5352, 5407
4652, 5123, 5097, 5093, 5119, 5431, 5405, 5401, 5427
4653, 5117, 5090, 5087, 5115, 5425, 5398, 5395, 5423
4654, 5028, 5095, 5091, 5037, 5336, 5403, 5399, 5345
4655, 5083, 5214, 5108, 5079, 5391, 5522, 5416, 5387
4656, 5088, 5110, 5107, 5085, 5396, 5418, 5415, 5393
4657, 5136, 5130, 5108, 5112, 5444, 5438, 5416, 5420
4658, 5082, 5105, 5109, 5086, 5390, 5413, 5417, 5394
4659, 5101, 5096, 5045, 5029, 5409, 5404, 5353, 5337
4660, 5124, 5120, 5219, 5134, 5432, 5428, 5527, 5442
4661, 5098, 5122, 5116, 5095, 5406, 5430, 5424, 5403
4662, 5066, 5098, 5095, 5028, 5374, 5406, 5403, 5336
4663, 5108, 5214, 5091, 5112, 5416, 5522, 5399, 5420
4664, 5135, 5119, 5113, 5131, 5443, 5427, 5421, 5439
4665, 5231, 5123, 5119, 5135, 5539, 5431, 5427, 5443
4666, 5095, 5116, 5112, 5091, 5403, 5424, 5420, 5399
4667, 5029, 5062, 5100, 5101, 5337, 5370, 5408, 5409
4668, 5092, 5096, 5118, 5114, 5400, 5404, 5426, 5422
4669, 5146, 5032, 5102, 5126, 5454, 5340, 5410, 5434
4670, 5127, 5212, 5203, 5103, 5435, 5520, 5511, 5411
4671, 5212, 5127, 5129, 5211, 5520, 5435, 5437, 5519
4672, 5111, 5084, 5080, 5104, 5419, 5392, 5388, 5412
4673, 5076, 5079, 5108, 5106, 5384, 5387, 5416, 5414
4674, 5078, 5081, 5085, 5107, 5386, 5389, 5393, 5415
4675, 5132, 5220, 5218, 5177, 5440, 5528, 5526, 5485
4676, 5125, 5099, 5097, 5123, 5433, 5407, 5405, 5431
4677, 5110, 5088, 5092, 5114, 5418, 5396, 5400, 5422
4678, 5176, 5167, 5158, 5162, 5484, 5475, 5466, 5470
4679, 5120, 5094, 5090, 5117, 5428, 5402, 5398, 5425
4680, 5123, 5231, 5196, 5125, 5431, 5539, 5504, 5433
4681, 5200, 5189, 5186, 5199, 5508, 5497, 5494, 5507
4682, 5224, 5180, 5216, 5190, 5532, 5488, 5524, 5498
4683, 5121, 5101, 5100, 5124, 5429, 5409, 5408, 5432
4684, 5187, 5230, 5134, 5219, 5495, 5538, 5442, 5527
4685, 5101, 5121, 5118, 5096, 5409, 5429, 5426, 5404
4686, 5110, 5114, 5118, 5133, 5418, 5422, 5426, 5441
4687, 5189, 5200, 5197, 5233, 5497, 5508, 5505, 5541
4688, 5230, 5191, 5195, 5134, 5538, 5499, 5503, 5442
4689, 5185, 5133, 5118, 5137, 5493, 5441, 5426, 5445
4690, 5099, 5125, 5122, 5098, 5407, 5433, 5430, 5406
4691, 5229, 5136, 5112, 5116, 5537, 5444, 5420, 5424
4692, 5188, 5193, 5192, 5231, 5496, 5501, 5500, 5539
4693, 5144, 5139, 5151, 5152, 5452, 5447, 5459, 5460
4694, 5222, 5221, 5153, 5215, 5530, 5529, 5461, 5523
4695, 5102, 5038, 5078, 5128, 5410, 5346, 5386, 5436
4696, 5150, 5143, 5163, 5223, 5458, 5451, 5471, 5531
4697, 5107, 5110, 5133, 5142, 5415, 5418, 5441, 5450
4698, 5182, 5167, 5131, 5113, 5490, 5475, 5439, 5421
4699, 5132, 5117, 5115, 5220, 5440, 5425, 5423, 5528
4700, 5118, 5121, 5195, 5137, 5426, 5429, 5503, 5445
4701, 5163, 5156, 5179, 5175, 5471, 5464, 5487, 5483
4702, 5192, 5199, 5229, 5232, 5500, 5507, 5537, 5540
4703, 5189, 5179, 5156, 5186, 5497, 5487, 5464, 5494
4704, 5190, 5216, 5157, 5185, 5498, 5524, 5465, 5493
4705, 5149, 5106, 5143, 5150, 5457, 5414, 5451, 5458
4706, 5150, 5215, 5138, 5149, 5458, 5523, 5446, 5457
4707, 5151, 5148, 5107, 5142, 5459, 5456, 5415, 5450
4708, 5152, 5151, 5162, 5158, 5460, 5459, 5470, 5466
4709, 5227, 5228, 5236, 5235, 5535, 5536, 5544, 5543
4710, 5144, 5152, 5168, 5160, 5452, 5460, 5476, 5468
4711, 5145, 5153, 5169, 5161, 5453, 5461, 5477, 5469
4712, 5128, 5078, 5107, 5148, 5436, 5386, 5415, 5456
4713, 5129, 5076, 5106, 5149, 5437, 5384, 5414, 5457
4714, 5215, 5153, 5145, 5138, 5523, 5461, 5453, 5446
4715, 5223, 5163, 5175, 5228, 5531, 5471, 5483, 5536
4716, 5164, 5154, 5160, 5170, 5472, 5462, 5468, 5478
4717, 5073, 5165, 5161, 5171, 5381, 5473, 5469, 5479
4718, 5070, 5154, 5164, 5071, 5378, 5462, 5472, 5379
4719, 5161, 5165, 5172, 5155, 5469, 5473, 5480, 5463
4720, 5187, 5177, 5175, 5179, 5495, 5485, 5483, 5487
4721, 5156, 5163, 5143, 5130, 5464, 5471, 5451, 5438
4722, 5216, 5180, 5178, 5176, 5524, 5488, 5486, 5484
4723, 5185, 5157, 5142, 5133, 5493, 5465, 5450, 5441
4724, 5168, 5174, 5213, 5183, 5476, 5482, 5521, 5491
4725, 5161, 5169, 5173, 5171, 5469, 5477, 5481, 5479
4726, 5151, 5142, 5157, 5162, 5459, 5450, 5465, 5470
4727, 5183, 5170, 5160, 5168, 5491, 5478, 5468, 5476
4728, 5166, 5173, 5169, 5159, 5474, 5481, 5477, 5467
4729, 5152, 5158, 5174, 5168, 5460, 5466, 5482, 5476
4730, 5131, 5167, 5176, 5178, 5439, 5475, 5484, 5486
4731, 5217, 5184, 5171, 5173, 5525, 5492, 5479, 5481
4732, 5153, 5221, 5159, 5169, 5461, 5529, 5467, 5477
4733, 5072, 5172, 5057, 5206, 5380, 5480, 5365, 5514
4734, 5218, 5111, 5104, 5181, 5526, 5419, 5412, 5489
4735, 5182, 5174, 5158, 5167, 5490, 5482, 5466, 5475
4736, 5234, 5178, 5180, 5188, 5542, 5486, 5488, 5496
4737, 5216, 5176, 5162, 5157, 5524, 5484, 5470, 5465
4738, 5226, 5217, 5173, 5166, 5534, 5525, 5481, 5474
4739, 5177, 5187, 5219, 5132, 5485, 5495, 5527, 5440
4740, 5231, 5135, 5234, 5188, 5539, 5443, 5542, 5496
4741, 5191, 5233, 5197, 5198, 5499, 5541, 5505, 5506
4742, 5233, 5194, 5179, 5189, 5541, 5502, 5487, 5497
4743, 5224, 5193, 5188, 5180, 5532, 5501, 5496, 5488
4744, 5218, 5181, 5217, 5226, 5526, 5489, 5525, 5534
4745, 5225, 5213, 5174, 5182, 5533, 5521, 5482, 5490
4746, 5105, 5209, 5183, 5213, 5413, 5517, 5491, 5521
4747, 5181, 5104, 5184, 5217, 5489, 5412, 5492, 5525
4748, 5186, 5156, 5130, 5136, 5494, 5464, 5438, 5444
4749, 5191, 5198, 5137, 5195, 5499, 5506, 5445, 5503
4750, 5230, 5187, 5179, 5194, 5538, 5495, 5487, 5502
4751, 5137, 5198, 5190, 5185, 5445, 5506, 5498, 5493
4752, 5194, 5233, 5191, 5230, 5502, 5541, 5499, 5538
4753, 5200, 5193, 5224, 5197, 5508, 5501, 5532, 5505
4754, 5232, 5122, 5125, 5196, 5540, 5430, 5433, 5504
4755, 5136, 5229, 5199, 5186, 5444, 5537, 5507, 5494
4756, 5190, 5198, 5197, 5224, 5498, 5506, 5505, 5532
4757, 5199, 5192, 5193, 5200, 5507, 5500, 5501, 5508
4758, 5231, 5192, 5232, 5196, 5539, 5500, 5540, 5504
4759, 5039, 4994, 5033, 5202, 5347, 5302, 5341, 5510
4760, 5207, 5026, 5203, 5212, 5515, 5334, 5511, 5520
4761, 5069, 5024, 4981, 5204, 5377, 5332, 5289, 5512
4762, 5072, 5025, 5023, 5205, 5380, 5333, 5331, 5513
4763, 5032, 4992, 5012, 5047, 5340, 5300, 5320, 5355
4764, 5210, 5207, 5212, 5211, 5518, 5515, 5520, 5519
4765, 5211, 5138, 5145, 5210, 5519, 5446, 5453, 5518
4766, 5213, 5225, 5109, 5105, 5521, 5533, 5417, 5413
4767, 5226, 5236, 5177, 5218, 5534, 5544, 5485, 5526
4768, 5120, 5117, 5132, 5219, 5428, 5425, 5440, 5527
4769, 5115, 5111, 5218, 5220, 5423, 5419, 5526, 5528
4770, 5227, 5159, 5221, 5222, 5535, 5467, 5529, 5530
4771, 5228, 5227, 5222, 5223, 5536, 5535, 5530, 5531
4772, 5215, 5150, 5223, 5222, 5523, 5458, 5531, 5530
4773, 5235, 5166, 5159, 5227, 5543, 5474, 5467, 5535
4774, 5232, 5229, 5116, 5122, 5540, 5537, 5424, 5430
4775, 5135, 5131, 5178, 5234, 5443, 5439, 5486, 5542
4776, 5166, 5235, 5236, 5226, 5474, 5543, 5544, 5534
4777, 5228, 5175, 5177, 5236, 5536, 5483, 5485, 5544
4778, 5333, 5237, 5252, 5331, 5641, 5545, 5560, 5639
4779, 5331, 5252, 5268, 5332, 5639, 5560, 5576, 5640
4780, 5311, 5269, 5239, 5309, 5619, 5577, 5547, 5617
4781, 5455, 5512, 5289, 5310, 5763, 5820, 5597, 5618
4782, 5455, 5310, 5330, 5334, 5763, 5618, 5638, 5642
4783, 5335, 5367, 5473, 5381, 5643, 5675, 5781, 5689
4784, 5315, 5273, 5243, 5305, 5623, 5581, 5551, 5613
4785, 5369, 5313, 5326, 5345, 5677, 5621, 5634, 5653
4786, 5297, 5275, 5245, 5296, 5605, 5583, 5553, 5604
4787, 5260, 5295, 5325, 5283, 5568, 5603, 5633, 5591
4788, 5298, 5246, 5276, 5318, 5606, 5554, 5584, 5626
4789, 5361, 5297, 5296, 5338, 5669, 5605, 5604, 5646
4790, 5400, 5396, 5361, 5338, 5708, 5704, 5669, 5646
4791, 5361, 5396, 5393, 5339, 5669, 5704, 5701, 5647
4792, 5278, 5320, 5300, 5249, 5586, 5628, 5608, 5557
4793, 5356, 5251, 5250, 5301, 5664, 5559, 5558, 5609
4794, 5340, 5454, 5301, 5300, 5648, 5762, 5609, 5608
4795, 5255, 5341, 5302, 5256, 5563, 5649, 5610, 5564
4796, 5321, 5279, 5256, 5302, 5629, 5587, 5564, 5610
4797, 5472, 5347, 5510, 5379, 5780, 5655, 5818, 5687
4798, 5356, 5301, 5454, 5509, 5664, 5609, 5762, 5817
4799, 5509, 5448, 5462, 5378, 5817, 5756, 5770, 5686
4800, 5372, 5323, 5317, 5371, 5680, 5631, 5625, 5679
4801, 5391, 5375, 5369, 5522, 5699, 5683, 5677, 5830
4802, 5314, 5272, 5271, 5292, 5622, 5580, 5579, 5600
4803, 5242, 5306, 5292, 5271, 5550, 5614, 5600, 5579
4804, 5511, 5364, 5308, 5411, 5819, 5672, 5616, 5719
4805, 5332, 5268, 5267, 5289, 5640, 5576, 5575, 5597
4806, 5307, 5241, 5240, 5290, 5615, 5549, 5548, 5598
4807, 5308, 5264, 5287, 5329, 5616, 5572, 5595, 5637
4808, 5375, 5327, 5313, 5369, 5683, 5635, 5621, 5677
4809, 5273, 5315, 5294, 5244, 5581, 5623, 5602, 5552
4810, 5316, 5274, 5244, 5294, 5624, 5582, 5552, 5602
4811, 5318, 5276, 5275, 5297, 5626, 5584, 5583, 5605
4812, 5257, 5303, 5304, 5258, 5565, 5611, 5612, 5566
4813, 5299, 5247, 5277, 5319, 5607, 5555, 5585, 5627
4814, 5447, 5452, 5448, 5434, 5755, 5760, 5756, 5742
4815, 5302, 5347, 5348, 5321, 5610, 5655, 5656, 5629
4816, 5321, 5348, 5354, 5303, 5629, 5656, 5662, 5611
4817, 5282, 5324, 5295, 5260, 5590, 5632, 5603, 5568
4818, 5283, 5325, 5293, 5261, 5591, 5633, 5601, 5569
4819, 5327, 5285, 5262, 5313, 5635, 5593, 5570, 5621
4820, 5411, 5308, 5329, 5344, 5719, 5616, 5637, 5652
4821, 5364, 5265, 5264, 5308, 5672, 5573, 5572, 5616
4822, 5289, 5267, 5266, 5310, 5597, 5575, 5574, 5618
4823, 5290, 5240, 5269, 5311, 5598, 5548, 5577, 5619
4824, 5312, 5270, 5241, 5307, 5620, 5578, 5549, 5615
4825, 5270, 5312, 5306, 5242, 5578, 5620, 5614, 5550
4826, 5286, 5328, 5291, 5263, 5594, 5636, 5599, 5571
4827, 5329, 5287, 5263, 5291, 5637, 5595, 5571, 5599
4828, 5362, 5314, 5292, 5343, 5670, 5622, 5600, 5651
4829, 5305, 5243, 5272, 5314, 5613, 5551, 5580, 5622
4830, 5326, 5284, 5261, 5293, 5634, 5592, 5569, 5601
4831, 5313, 5262, 5284, 5326, 5621, 5570, 5592, 5634
4832, 5315, 5370, 5337, 5294, 5623, 5678, 5645, 5602
4833, 5296, 5245, 5274, 5316, 5604, 5553, 5582, 5624
4834, 5259, 5317, 5323, 5281, 5567, 5625, 5631, 5589
4835, 5295, 5352, 5374, 5325, 5603, 5660, 5682, 5633
4836, 5339, 5318, 5297, 5361, 5647, 5626, 5605, 5669
4837, 5319, 5277, 5246, 5298, 5627, 5585, 5554, 5606
4838, 5355, 5248, 5247, 5299, 5663, 5556, 5555, 5607
4839, 5517, 5382, 5478, 5491, 5825, 5690, 5786, 5799
4840, 5248, 5355, 5320, 5278, 5556, 5663, 5628, 5586
4841, 5317, 5259, 5280, 5322, 5625, 5567, 5588, 5630
4842, 5301, 5250, 5249, 5300, 5609, 5558, 5557, 5608
4843, 5322, 5280, 5258, 5304, 5630, 5588, 5566, 5612
4844, 5357, 5253, 5251, 5356, 5665, 5561, 5559, 5664
4845, 5358, 5254, 5253, 5357, 5666, 5562, 5561, 5665
4846, 5303, 5257, 5279, 5321, 5611, 5565, 5587, 5629
4847, 5410, 5299, 5319, 5346, 5718, 5607, 5627, 5654
4848, 5397, 5371, 5360, 5394, 5705, 5679, 5668, 5702
4849, 5359, 5298, 5318, 5339, 5667, 5606, 5626, 5647
4850, 5414, 5416, 5438, 5451, 5722, 5724, 5746, 5759
4851, 5306, 5350, 5343, 5292, 5614, 5658, 5651, 5600
4852, 5265, 5364, 5330, 5288, 5573, 5672, 5638, 5596
4853, 5335, 5290, 5311, 5367, 5643, 5598, 5619, 5675
4854, 5463, 5480, 5380, 5513, 5771, 5788, 5688, 5821
4855, 5237, 5333, 5366, 5238, 5545, 5641, 5674, 5546
4856, 5288, 5330, 5310, 5266, 5596, 5638, 5618, 5574
4857, 5449, 5377, 5512, 5455, 5757, 5685, 5820, 5763
4858, 5363, 5307, 5290, 5335, 5671, 5615, 5598, 5643
4859, 5383, 5388, 5368, 5363, 5691, 5696, 5676, 5671
4860, 5328, 5286, 5285, 5327, 5636, 5594, 5593, 5635
4861, 5375, 5391, 5387, 5376, 5683, 5699, 5695, 5684
4862, 5419, 5423, 5395, 5392, 5727, 5731, 5703, 5700
4863, 5324, 5282, 5281, 5323, 5632, 5590, 5589, 5631
4864, 5517, 5385, 5516, 5382, 5825, 5693, 5824, 5690
4865, 5359, 5339, 5393, 5389, 5667, 5647, 5701, 5697
4866, 5325, 5374, 5336, 5293, 5633, 5682, 5644, 5601
4867, 5395, 5398, 5362, 5343, 5703, 5706, 5670, 5651
4868, 5291, 5349, 5344, 5329, 5599, 5657, 5652, 5637
4869, 5513, 5331, 5332, 5377, 5821, 5639, 5640, 5685
4870, 5309, 5239, 5238, 5366, 5617, 5547, 5546, 5674
4871, 5365, 5309, 5366, 5514, 5673, 5617, 5674, 5822
4872, 5309, 5365, 5367, 5311, 5617, 5673, 5675, 5619
4873, 5334, 5330, 5364, 5511, 5642, 5638, 5672, 5819
4874, 5368, 5312, 5307, 5363, 5676, 5620, 5615, 5671
4875, 5305, 5351, 5370, 5315, 5613, 5659, 5678, 5623
4876, 5345, 5326, 5293, 5336, 5653, 5634, 5601, 5644
4877, 5353, 5316, 5294, 5337, 5661, 5624, 5602, 5645
4878, 5338, 5296, 5316, 5353, 5646, 5604, 5624, 5661
4879, 5298, 5359, 5346, 5319, 5606, 5667, 5654, 5627
4880, 5322, 5360, 5371, 5317, 5630, 5668, 5679, 5625
4881, 5516, 5348, 5347, 5382, 5824, 5656, 5655, 5690
4882, 5410, 5340, 5355, 5299, 5718, 5648, 5663, 5607
4883, 5379, 5358, 5357, 5378, 5687, 5666, 5665, 5686
4884, 5254, 5358, 5341, 5255, 5562, 5666, 5649, 5563
4885, 5360, 5322, 5304, 5342, 5668, 5630, 5612, 5650
4886, 5351, 5305, 5314, 5362, 5659, 5613, 5622, 5670
4887, 5513, 5377, 5449, 5463, 5821, 5685, 5757, 5771
4888, 5447, 5434, 5410, 5436, 5755, 5742, 5718, 5744
4889, 5356, 5509, 5378, 5357, 5664, 5817, 5686, 5665
4890, 5342, 5304, 5303, 5354, 5650, 5612, 5611, 5662
4891, 5390, 5342, 5354, 5385, 5698, 5650, 5662, 5693
4892, 5328, 5376, 5349, 5291, 5636, 5684, 5657, 5599
4893, 5344, 5437, 5435, 5411, 5652, 5745, 5743, 5719
4894, 5388, 5392, 5350, 5368, 5696, 5700, 5658, 5676
4895, 5432, 5408, 5402, 5428, 5740, 5716, 5710, 5736
4896, 5324, 5373, 5352, 5295, 5632, 5681, 5660, 5603
4897, 5427, 5401, 5397, 5421, 5735, 5709, 5705, 5729
4898, 5394, 5360, 5342, 5390, 5702, 5668, 5650, 5698
4899, 5341, 5358, 5379, 5510, 5649, 5666, 5687, 5818
4900, 5373, 5324, 5323, 5372, 5681, 5632, 5631, 5680
4901, 5350, 5306, 5312, 5368, 5658, 5614, 5620, 5676
4902, 5469, 5463, 5449, 5453, 5777, 5771, 5757, 5761
4903, 5333, 5380, 5514, 5366, 5641, 5688, 5822, 5674
4904, 5363, 5335, 5381, 5383, 5671, 5643, 5689, 5691
4905, 5376, 5328, 5327, 5375, 5684, 5636, 5635, 5683
4906, 5404, 5400, 5338, 5353, 5712, 5708, 5646, 5661
4907, 5405, 5373, 5372, 5401, 5713, 5681, 5680, 5709
4908, 5421, 5397, 5394, 5417, 5729, 5705, 5702, 5725
4909, 5533, 5490, 5421, 5417, 5841, 5798, 5729, 5725
4910, 5522, 5369, 5345, 5399, 5830, 5677, 5653, 5707
4911, 5453, 5449, 5515, 5518, 5761, 5757, 5823, 5826
4912, 5383, 5381, 5479, 5492, 5691, 5689, 5787, 5800
4913, 5515, 5449, 5455, 5334, 5823, 5757, 5763, 5642
4914, 5468, 5462, 5448, 5452, 5776, 5770, 5756, 5760
4915, 5509, 5454, 5434, 5448, 5817, 5762, 5742, 5756
4916, 5478, 5382, 5347, 5472, 5786, 5690, 5655, 5780
4917, 5367, 5365, 5480, 5473, 5675, 5673, 5788, 5781
4918, 5519, 5437, 5457, 5446, 5827, 5745, 5765, 5754
4919, 5459, 5447, 5436, 5456, 5767, 5755, 5744, 5764
4920, 5385, 5354, 5348, 5516, 5693, 5662, 5656, 5824
4921, 5392, 5395, 5343, 5350, 5700, 5703, 5651, 5658
4922, 5384, 5349, 5376, 5387, 5692, 5657, 5684, 5695
4923, 5437, 5344, 5349, 5384, 5745, 5652, 5657, 5692
4924, 5401, 5372, 5371, 5397, 5709, 5680, 5679, 5705
4925, 5346, 5359, 5389, 5386, 5654, 5667, 5697, 5694
4926, 5492, 5412, 5388, 5383, 5800, 5720, 5696, 5691
4927, 5398, 5402, 5351, 5362, 5706, 5710, 5659, 5670
4928, 5385, 5517, 5413, 5390, 5693, 5825, 5721, 5698
4929, 5407, 5352, 5373, 5405, 5715, 5660, 5681, 5713
4930, 5402, 5408, 5370, 5351, 5710, 5716, 5678, 5659
4931, 5429, 5432, 5442, 5503, 5737, 5740, 5750, 5811
4932, 5406, 5374, 5352, 5407, 5714, 5682, 5660, 5715
4933, 5431, 5405, 5401, 5427, 5739, 5713, 5709, 5735
4934, 5425, 5398, 5395, 5423, 5733, 5706, 5703, 5731
4935, 5336, 5403, 5399, 5345, 5644, 5711, 5707, 5653
4936, 5391, 5522, 5416, 5387, 5699, 5830, 5724, 5695
4937, 5396, 5418, 5415, 5393, 5704, 5726, 5723, 5701
4938, 5444, 5438, 5416, 5420, 5752, 5746, 5724, 5728
4939, 5390, 5413, 5417, 5394, 5698, 5721, 5725, 5702
4940, 5409, 5404, 5353, 5337, 5717, 5712, 5661, 5645
4941, 5432, 5428, 5527, 5442, 5740, 5736, 5835, 5750
4942, 5406, 5430, 5424, 5403, 5714, 5738, 5732, 5711
4943, 5374, 5406, 5403, 5336, 5682, 5714, 5711, 5644
4944, 5416, 5522, 5399, 5420, 5724, 5830, 5707, 5728
4945, 5443, 5427, 5421, 5439, 5751, 5735, 5729, 5747
4946, 5539, 5431, 5427, 5443, 5847, 5739, 5735, 5751
4947, 5403, 5424, 5420, 5399, 5711, 5732, 5728, 5707
4948, 5337, 5370, 5408, 5409, 5645, 5678, 5716, 5717
4949, 5400, 5404, 5426, 5422, 5708, 5712, 5734, 5730
4950, 5454, 5340, 5410, 5434, 5762, 5648, 5718, 5742
4951, 5435, 5520, 5511, 5411, 5743, 5828, 5819, 5719
4952, 5520, 5435, 5437, 5519, 5828, 5743, 5745, 5827
4953, 5419, 5392, 5388, 5412, 5727, 5700, 5696, 5720
4954, 5384, 5387, 5416, 5414, 5692, 5695, 5724, 5722
4955, 5386, 5389, 5393, 5415, 5694, 5697, 5701, 5723
4956, 5440, 5528, 5526, 5485, 5748, 5836, 5834, 5793
4957, 5433, 5407, 5405, 5431, 5741, 5715, 5713, 5739
4958, 5418, 5396, 5400, 5422, 5726, 5704, 5708, 5730
4959, 5484, 5475, 5466, 5470, 5792, 5783, 5774, 5778
4960, 5428, 5402, 5398, 5425, 5736, 5710, 5706, 5733
4961, 5431, 5539, 5504, 5433, 5739, 5847, 5812, 5741
4962, 5508, 5497, 5494, 5507, 5816, 5805, 5802, 5815
4963, 5532, 5488, 5524, 5498, 5840, 5796, 5832, 5806
4964, 5429, 5409, 5408, 5432, 5737, 5717, 5716, 5740
4965, 5495, 5538, 5442, 5527, 5803, 5846, 5750, 5835
4966, 5409, 5429, 5426, 5404, 5717, 5737, 5734, 5712
4967, 5418, 5422, 5426, 5441, 5726, 5730, 5734, 5749
4968, 5497, 5508, 5505, 5541, 5805, 5816, 5813, 5849
4969, 5538, 5499, 5503, 5442, 5846, 5807, 5811, 5750
4970, 5493, 5441, 5426, 5445, 5801, 5749, 5734, 5753
4971, 5407, 5433, 5430, 5406, 5715, 5741, 5738, 5714
4972, 5537, 5444, 5420, 5424, 5845, 5752, 5728, 5732
4973, 5496, 5501, 5500, 5539, 5804, 5809, 5808, 5847
4974, 5452, 5447, 5459, 5460, 5760, 5755, 5767, 5768
4975, 5530, 5529, 5461, 5523, 5838, 5837, 5769, 5831
4976, 5410, 5346, 5386, 5436, 5718, 5654, 5694, 5744
4977, 5458, 5451, 5471, 5531, 5766, 5759, 5779, 5839
4978, 5415, 5418, 5441, 5450, 5723, 5726, 5749, 5758
4979, 5490, 5475, 5439, 5421, 5798, 5783, 5747, 5729
4980, 5440, 5425, 5423, 5528, 5748, 5733, 5731, 5836
4981, 5426, 5429, 5503, 5445, 5734, 5737, 5811, 5753
4982, 5471, 5464, 5487, 5483, 5779, 5772, 5795, 5791
4983, 5500, 5507, 5537, 5540, 5808, 5815, 5845, 5848
4984, 5497, 5487, 5464, 5494, 5805, 5795, 5772, 5802
4985, 5498, 5524, 5465, 5493, 5806, 5832, 5773, 5801
4986, 5457, 5414, 5451, 5458, 5765, 5722, 5759, 5766
4987, 5458, 5523, 5446, 5457, 5766, 5831, 5754, 5765
4988, 5459, 5456, 5415, 5450, 5767, 5764, 5723, 5758
4989, 5460, 5459, 5470, 5466, 5768, 5767, 5778, 5774
4990, 5535, 5536, 5544, 5543, 5843, 5844, 5852, 5851
4991, 5452, 5460, 5476, 5468, 5760, 5768, 5784, 5776
4992, 5453, 5461, 5477, 5469, 5761, 5769, 5785, 5777
4993, 5436, 5386, 5415, 5456, 5744, 5694, 5723, 5764
4994, 5437, 5384, 5414, 5457, 5745, 5692, 5722, 5765
4995, 5523, 5461, 5453, 5446, 5831, 5769, 5761, 5754
4996, 5531, 5471, 5483, 5536, 5839, 5779, 5791, 5844
4997, 5472, 5462, 5468, 5478, 5780, 5770, 5776, 5786
4998, 5381, 5473, 5469, 5479, 5689, 5781, 5777, 5787
4999, 5378, 5462, 5472, 5379, 5686, 5770, 5780, 5687
5000, 5469, 5473, 5480, 5463, 5777, 5781, 5788, 5771
5001, 5495, 5485, 5483, 5487, 5803, 5793, 5791, 5795
5002, 5464, 5471, 5451, 5438, 5772, 5779, 5759, 5746
5003, 5524, 5488, 5486, 5484, 5832, 5796, 5794, 5792
5004, 5493, 5465, 5450, 5441, 5801, 5773, 5758, 5749
5005, 5476, 5482, 5521, 5491, 5784, 5790, 5829, 5799
5006, 5469, 5477, 5481, 5479, 5777, 5785, 5789, 5787
5007, 5459, 5450, 5465, 5470, 5767, 5758, 5773, 5778
5008, 5491, 5478, 5468, 5476, 5799, 5786, 5776, 5784
5009, 5474, 5481, 5477, 5467, 5782, 5789, 5785, 5775
5010, 5460, 5466, 5482, 5476, 5768, 5774, 5790, 5784
5011, 5439, 5475, 5484, 5486, 5747, 5783, 5792, 5794
5012, 5525, 5492, 5479, 5481, 5833, 5800, 5787, 5789
5013, 5461, 5529, 5467, 5477, 5769, 5837, 5775, 5785
5014, 5380, 5480, 5365, 5514, 5688, 5788, 5673, 5822
5015, 5526, 5419, 5412, 5489, 5834, 5727, 5720, 5797
5016, 5490, 5482, 5466, 5475, 5798, 5790, 5774, 5783
5017, 5542, 5486, 5488, 5496, 5850, 5794, 5796, 5804
5018, 5524, 5484, 5470, 5465, 5832, 5792, 5778, 5773
5019, 5534, 5525, 5481, 5474, 5842, 5833, 5789, 5782
5020, 5485, 5495, 5527, 5440, 5793, 5803, 5835, 5748
5021, 5539, 5443, 5542, 5496, 5847, 5751, 5850, 5804
5022, 5499, 5541, 5505, 5506, 5807, 5849, 5813, 5814
5023, 5541, 5502, 5487, 5497, 5849, 5810, 5795, 5805
5024, 5532, 5501, 5496, 5488, 5840, 5809, 5804, 5796
5025, 5526, 5489, 5525, 5534, 5834, 5797, 5833, 5842
5026, 5533, 5521, 5482, 5490, 5841, 5829, 5790, 5798
5027, 5413, 5517, 5491, 5521, 5721, 5825, 5799, 5829
5028, 5489, 5412, 5492, 5525, 5797, 5720, 5800, 5833
5029, 5494, 5464, 5438, 5444, 5802, 5772, 5746, 5752
5030, 5499, 5506, 5445, 5503, 5807, 5814, 5753, 5811
5031, 5538, 5495, 5487, 5502, 5846, 5803, 5795, 5810
5032, 5445, 5506, 5498, 5493, 5753, 5814, 5806, 5801
5033, 5502, 5541, 5499, 5538, 5810, 5849, 5807, 5846
5034, 5508, 5501, 5532, 5505, 5816, 5809, 5840, 5813
5035, 5540, 5430, 5433, 5504, 5848, 5738, 5741, 5812
5036, 5444, 5537, 5507, 5494, 5752, 5845, 5815, 5802
5037, 5498, 5506, 5505, 5532, 5806, 5814, 5813, 5840
5038, 5507, 5500, 5501, 5508, 5815, 5808, 5809, 5816
5039, 5539, 5500, 5540, 5504, 5847, 5808, 5848, 5812
5040, 5347, 5302, 5341, 5510, 5655, 5610, 5649, 5818
5041, 5515, 5334, 5511, 5520, 5823, 5642, 5819, 5828
5042, 5377, 5332, 5289, 5512, 5685, 5640, 5597, 5820
5043, 5380, 5333, 5331, 5513, 5688, 5641, 5639, 5821
5044, 5340, 5300, 5320, 5355, 5648, 5608, 5628, 5663
5045, 5518, 5515, 5520, 5519, 5826, 5823, 5828, 5827
5046, 5519, 5446, 5453, 5518, 5827, 5754, 5761, 5826
5047, 5521, 5533, 5417, 5413, 5829, 5841, 5725, 5721
5048, 5534, 5544, 5485, 5526, 5842, 5852, 5793, 5834
5049, 5428, 5425, 5440, 5527, 5736, 5733, 5748, 5835
5050, 5423, 5419, 5526, 5528, 5731, 5727, 5834, 5836
5051, 5535, 5467, 5529, 5530, 5843, 5775, 5837, 5838
5052, 5536, 5535, 5530, 5531, 5844, 5843, 5838, 5839
5053, 5523, 5458, 5531, 5530, 5831, 5766, 5839, 5838
5054, 5543, 5474, 5467, 5535, 5851, 5782, 5775, 5843
5055, 5540, 5537, 5424, 5430, 5848, 5845, 5732, 5738
5056, 5443, 5439, 5486, 5542, 5751, 5747, 5794, 5850
5057, 5474, 5543, 5544, 5534, 5782, 5851, 5852, 5842
5058, 5536, 5483, 5485, 5544, 5844, 5791, 5793, 5852
5059, 5641, 5545, 5560, 5639, 5949, 5853, 5868, 5947
5060, 5639, 5560, 5576, 5640, 5947, 5868, 5884, 5948
5061, 5619, 5577, 5547, 5617, 5927, 5885, 5855, 5925
5062, 5763, 5820, 5597, 5618, 6071, 6128, 5905, 5926
5063, 5763, 5618, 5638, 5642, 6071, 5926, 5946, 5950
5064, 5643, 5675, 5781, 5689, 5951, 5983, 6089, 5997
5065, 5623, 5581, 5551, 5613, 5931, 5889, 5859, 5921
5066, 5677, 5621, 5634, 5653, 5985, 5929, 5942, 5961
5067, 5605, 5583, 5553, 5604, 5913, 5891, 5861, 5912
5068, 5568, 5603, 5633, 5591, 5876, 5911, 5941, 5899
5069, 5606, 5554, 5584, 5626, 5914, 5862, 5892, 5934
5070, 5669, 5605, 5604, 5646, 5977, 5913, 5912, 5954
5071, 5708, 5704, 5669, 5646, 6016, 6012, 5977, 5954
5072, 5669, 5704, 5701, 5647, 5977, 6012, 6009, 5955
5073, 5586, 5628, 5608, 5557, 5894, 5936, 5916, 5865
5074, 5664, 5559, 5558, 5609, 5972, 5867, 5866, 5917
5075, 5648, 5762, 5609, 5608, 5956, 6070, 5917, 5916
5076, 5563, 5649, 5610, 5564, 5871, 5957, 5918, 5872
5077, 5629, 5587, 5564, 5610, 5937, 5895, 5872, 5918
5078, 5780, 5655, 5818, 5687, 6088, 5963, 6126, 5995
5079, 5664, 5609, 5762, 5817, 5972, 5917, 6070, 6125
5080, 5817, 5756, 5770, 5686, 6125, 6064, 6078, 5994
5081, 5680, 5631, 5625, 5679, 5988, 5939, 5933, 5987
5082, 5699, 5683, 5677, 5830, 6007, 5991, 5985, 6138
5083, 5622, 5580, 5579, 5600, 5930, 5888, 5887, 5908
5084, 5550, 5614, 5600, 5579, 5858, 5922, 5908, 5887
5085, 5819, 5672, 5616, 5719, 6127, 5980, 5924, 6027
5086, 5640, 5576, 5575, 5597, 5948, 5884, 5883, 5905
5087, 5615, 5549, 5548, 5598, 5923, 5857, 5856, 5906
5088, 5616, 5572, 5595, 5637, 5924, 5880, 5903, 5945
5089, 5683, 5635, 5621, 5677, 5991, 5943, 5929, 5985
5090, 5581, 5623, 5602, 5552, 5889, 5931, 5910, 5860
5091, 5624, 5582, 5552, 5602, 5932, 5890, 5860, 5910
5092, 5626, 5584, 5583, 5605, 5934, 5892, 5891, 5913
5093, 5565, 5611, 5612, 5566, 5873, 5919, 5920, 5874
5094, 5607, 5555, 5585, 5627, 5915, 5863, 5893, 5935
5095, 5755, 5760, 5756, 5742, 6063, 6068, 6064, 6050
5096, 5610, 5655, 5656, 5629, 5918, 5963, 5964, 5937
5097, 5629, 5656, 5662, 5611, 5937, 5964, 5970, 5919
5098, 5590, 5632, 5603, 5568, 5898, 5940, 5911, 5876
5099, 5591, 5633, 5601, 5569, 5899, 5941, 5909, 5877
5100, 5635, 5593, 5570, 5621, 5943, 5901, 5878, 5929
5101, 5719, 5616, 5637, 5652, 6027, 5924, 5945, 5960
5102, 5672, 5573, 5572, 5616, 5980, 5881, 5880, 5924
5103, 5597, 5575, 5574, 5618, 5905, 5883, 5882, 5926
5104, 5598, 5548, 5577, 5619, 5906, 5856, 5885, 5927
5105, 5620, 5578, 5549, 5615, 5928, 5886, 5857, 5923
5106, 5578, 5620, 5614, 5550, 5886, 5928, 5922, 5858
5107, 5594, 5636, 5599, 5571, 5902, 5944, 5907, 5879
5108, 5637, 5595, 5571, 5599, 5945, 5903, 5879, 5907
5109, 5670, 5622, 5600, 5651, 5978, 5930, 5908, 5959
5110, 5613, 5551, 5580, 5622, 5921, 5859, 5888, 5930
5111, 5634, 5592, 5569, 5601, 5942, 5900, 5877, 5909
5112, 5621, 5570, 5592, 5634, 5929, 5878, 5900, 5942
5113, 5623, 5678, 5645, 5602, 5931, 5986, 5953, 5910
5114, 5604, 5553, 5582, 5624, 5912, 5861, 5890, 5932
5115, 5567, 5625, 5631, 5589, 5875, 5933, 5939, 5897
5116, 5603, 5660, 5682, 5633, 5911, 5968, 5990, 5941
5117, 5647, 5626, 5605, 5669, 5955, 5934, 5913, 5977
5118, 5627, 5585, 5554, 5606, 5935, 5893, 5862, 5914
5119, 5663, 5556, 5555, 5607, 5971, 5864, 5863, 5915
5120, 5825, 5690, 5786, 5799, 6133, 5998, 6094, 6107
5121, 5556, 5663, 5628, 5586, 5864, 5971, 5936, 5894
5122, 5625, 5567, 5588, 5630, 5933, 5875, 5896, 5938
5123, 5609, 5558, 5557, 5608, 5917, 5866, 5865, 5916
5124, 5630, 5588, 5566, 5612, 5938, 5896, 5874, 5920
5125, 5665, 5561, 5559, 5664, 5973, 5869, 5867, 5972
5126, 5666, 5562, 5561, 5665, 5974, 5870, 5869, 5973
5127, 5611, 5565, 5587, 5629, 5919, 5873, 5895, 5937
5128, 5718, 5607, 5627, 5654, 6026, 5915, 5935, 5962
5129, 5705, 5679, 5668, 5702, 6013, 5987, 5976, 6010
5130, 5667, 5606, 5626, 5647, 5975, 5914, 5934, 5955
5131, 5722, 5724, 5746, 5759, 6030, 6032, 6054, 6067
5132, 5614, 5658, 5651, 5600, 5922, 5966, 5959, 5908
5133, 5573, 5672, 5638, 5596, 5881, 5980, 5946, 5904
5134, 5643, 5598, 5619, 5675, 5951, 5906, 5927, 5983
5135, 5771, 5788, 5688, 5821, 6079, 6096, 5996, 6129
5136, 5545, 5641, 5674, 5546, 5853, 5949, 5982, 5854
5137, 5596, 5638, 5618, 5574, 5904, 5946, 5926, 5882
5138, 5757, 5685, 5820, 5763, 6065, 5993, 6128, 6071
5139, 5671, 5615, 5598, 5643, 5979, 5923, 5906, 5951
5140, 5691, 5696, 5676, 5671, 5999, 6004, 5984, 5979
5141, 5636, 5594, 5593, 5635, 5944, 5902, 5901, 5943
5142, 5683, 5699, 5695, 5684, 5991, 6007, 6003, 5992
5143, 5727, 5731, 5703, 5700, 6035, 6039, 6011, 6008
5144, 5632, 5590, 5589, 5631, 5940, 5898, 5897, 5939
5145, 5825, 5693, 5824, 5690, 6133, 6001, 6132, 5998
5146, 5667, 5647, 5701, 5697, 5975, 5955, 6009, 6005
5147, 5633, 5682, 5644, 5601, 5941, 5990, 5952, 5909
5148, 5703, 5706, 5670, 5651, 6011, 6014, 5978, 5959
5149, 5599, 5657, 5652, 5637, 5907, 5965, 5960, 5945
5150, 5821, 5639, 5640, 5685, 6129, 5947, 5948, 5993
5151, 5617, 5547, 5546, 5674, 5925, 5855, 5854, 5982
5152, 5673, 5617, 5674, 5822, 5981, 5925, 5982, 6130
5153, 5617, 5673, 5675, 5619, 5925, 5981, 5983, 5927
5154, 5642, 5638, 5672, 5819, 5950, 5946, 5980, 6127
5155, 5676, 5620, 5615, 5671, 5984, 5928, 5923, 5979
5156, 5613, 5659, 5678, 5623, 5921, 5967, 5986, 5931
5157, 5653, 5634, 5601, 5644, 5961, 5942, 5909, 5952
5158, 5661, 5624, 5602, 5645, 5969, 5932, 5910, 5953
5159, 5646, 5604, 5624, 5661, 5954, 5912, 5932, 5969
5160, 5606, 5667, 5654, 5627, 5914, 5975, 5962, 5935
5161, 5630, 5668, 5679, 5625, 5938, 5976, 5987, 5933
5162, 5824, 5656, 5655, 5690, 6132, 5964, 5963, 5998
5163, 5718, 5648, 5663, 5607, 6026, 5956, 5971, 5915
5164, 5687, 5666, 5665, 5686, 5995, 5974, 5973, 5994
5165, 5562, 5666, 5649, 5563, 5870, 5974, 5957, 5871
5166, 5668, 5630, 5612, 5650, 5976, 5938, 5920, 5958
5167, 5659, 5613, 5622, 5670, 5967, 5921, 5930, 5978
5168, 5821, 5685, 5757, 5771, 6129, 5993, 6065, 6079
5169, 5755, 5742, 5718, 5744, 6063, 6050, 6026, 6052
5170, 5664, 5817, 5686, 5665, 5972, 6125, 5994, 5973
5171, 5650, 5612, 5611, 5662, 5958, 5920, 5919, 5970
5172, 5698, 5650, 5662, 5693, 6006, 5958, 5970, 6001
5173, 5636, 5684, 5657, 5599, 5944, 5992, 5965, 5907
5174, 5652, 5745, 5743, 5719, 5960, 6053, 6051, 6027
5175, 5696, 5700, 5658, 5676, 6004, 6008, 5966, 5984
5176, 5740, 5716, 5710, 5736, 6048, 6024, 6018, 6044
5177, 5632, 5681, 5660, 5603, 5940, 5989, 5968, 5911
5178, 5735, 5709, 5705, 5729, 6043, 6017, 6013, 6037
5179, 5702, 5668, 5650, 5698, 6010, 5976, 5958, 6006
5180, 5649, 5666, 5687, 5818, 5957, 5974, 5995, 6126
5181, 5681, 5632, 5631, 5680, 5989, 5940, 5939, 5988
5182, 5658, 5614, 5620, 5676, 5966, 5922, 5928, 5984
5183, 5777, 5771, 5757, 5761, 6085, 6079, 6065, 6069
5184, 5641, 5688, 5822, 5674, 5949, 5996, 6130, 5982
5185, 5671, 5643, 5689, 5691, 5979, 5951, 5997, 5999
5186, 5684, 5636, 5635, 5683, 5992, 5944, 5943, 5991
5187, 5712, 5708, 5646, 5661, 6020, 6016, 5954, 5969
5188, 5713, 5681, 5680, 5709, 6021, 5989, 5988, 6017
5189, 5729, 5705, 5702, 5725, 6037, 6013, 6010, 6033
5190, 5841, 5798, 5729, 5725, 6149, 6106, 6037, 6033
5191, 5830, 5677, 5653, 5707, 6138, 5985, 5961, 6015
5192, 5761, 5757, 5823, 5826, 6069, 6065, 6131, 6134
5193, 5691, 5689, 5787, 5800, 5999, 5997, 6095, 6108
5194, 5823, 5757, 5763, 5642, 6131, 6065, 6071, 5950
5195, 5776, 5770, 5756, 5760, 6084, 6078, 6064, 6068
5196, 5817, 5762, 5742, 5756, 6125, 6070, 6050, 6064
5197, 5786, 5690, 5655, 5780, 6094, 5998, 5963, 6088
5198, 5675, 5673, 5788, 5781, 5983, 5981, 6096, 6089
5199, 5827, 5745, 5765, 5754, 6135, 6053, 6073, 6062
5200, 5767, 5755, 5744, 5764, 6075, 6063, 6052, 6072
5201, 5693, 5662, 5656, 5824, 6001, 5970, 5964, 6132
5202, 5700, 5703, 5651, 5658, 6008, 6011, 5959, 5966
5203, 5692, 5657, 5684, 5695, 6000, 5965, 5992, 6003
5204, 5745, 5652, 5657, 5692, 6053, 5960, 5965, 6000
5205, 5709, 5680, 5679, 5705, 6017, 5988, 5987, 6013
5206, 5654, 5667, 5697, 5694, 5962, 5975, 6005, 6002
5207, 5800, 5720, 5696, 5691, 6108, 6028, 6004, 5999
5208, 5706, 5710, 5659, 5670, 6014, 6018, 5967, 5978
5209, 5693, 5825, 5721, 5698, 6001, 6133, 6029, 6006
5210, 5715, 5660, 5681, 5713, 6023, 5968, 5989, 6021
5211, 5710, 5716, 5678, 5659, 6018, 6024, 5986, 5967
5212, 5737, 5740, 5750, 5811, 6045, 6048, 6058, 6119
5213, 5714, 5682, 5660, 5715, 6022, 5990, 5968, 6023
5214, 5739, 5713, 5709, 5735, 6047, 6021, 6017, 6043
5215, 5733, 5706, 5703, 5731, 6041, 6014, 6011, 6039
5216, 5644, 5711, 5707, 5653, 5952, 6019, 6015, 5961
5217, 5699, 5830, 5724, 5695, 6007, 6138, 6032, 6003
5218, 5704, 5726, 5723, 5701, 6012, 6034, 6031, 6009
5219, 5752, 5746, 5724, 5728, 6060, 6054, 6032, 6036
5220, 5698, 5721, 5725, 5702, 6006, 6029, 6033, 6010
5221, 5717, 5712, 5661, 5645, 6025, 6020, 5969, 5953
5222, 5740, 5736, 5835, 5750, 6048, 6044, 6143, 6058
5223, 5714, 5738, 5732, 5711, 6022, 6046, 6040, 6019
5224, 5682, 5714, 5711, 5644, 5990, 6022, 6019, 5952
5225, 5724, 5830, 5707, 5728, 6032, 6138, 6015, 6036
5226, 5751, 5735, 5729, 5747, 6059, 6043, 6037, 6055
5227, 5847, 5739, 5735, 5751, 6155, 6047, 6043, 6059
5228, 5711, 5732, 5728, 5707, 6019, 6040, 6036, 6015
5229, 5645, 5678, 5716, 5717, 5953, 5986, 6024, 6025
5230, 5708, 5712, 5734, 5730, 6016, 6020, 6042, 6038
5231, 5762, 5648, 5718, 5742, 6070, 5956, 6026, 6050
5232, 5743, 5828, 5819, 5719, 6051, 6136, 6127, 6027
5233, 5828, 5743, 5745, 5827, 6136, 6051, 6053, 6135
5234, 5727, 5700, 5696, 5720, 6035, 6008, 6004, 6028
5235, 5692, 5695, 5724, 5722, 6000, 6003, 6032, 6030
5236, 5694, 5697, 5701, 5723, 6002, 6005, 6009, 6031
5237, 5748, 5836, 5834, 5793, 6056, 6144, 6142, 6101
5238, 5741, 5715, 5713, 5739, 6049, 6023, 6021, 6047
5239, 5726, 5704, 5708, 5730, 6034, 6012, 6016, 6038
5240, 5792, 5783, 5774, 5778, 6100, 6091, 6082, 6086
5241, 5736, 5710, 5706, 5733, 6044, 6018, 6014, 6041
5242, 5739, 5847, 5812, 5741, 6047, 6155, 6120, 6049
5243, 5816, 5805, 5802, 5815, 6124, 6113, 6110, 6123
5244, 5840, 5796, 5832, 5806, 6148, 6104, 6140, 6114
5245, 5737, 5717, 5716, 5740, 6045, 6025, 6024, 6048
5246, 5803, 5846, 5750, 5835, 6111, 6154, 6058, 6143
5247, 5717, 5737, 5734, 5712, 6025, 6045, 6042, 6020
5248, 5726, 5730, 5734, 5749, 6034, 6038, 6042, 6057
5249, 5805, 5816, 5813, 5849, 6113, 6124, 6121, 6157
5250, 5846, 5807, 5811, 5750, 6154, 6115, 6119, 6058
5251, 5801, 5749, 5734, 5753, 6109, 6057, 6042, 6061
5252, 5715, 5741, 5738, 5714, 6023, 6049, 6046, 6022
5253, 5845, 5752, 5728, 5732, 6153, 6060, 6036, 6040
5254, 5804, 5809, 5808, 5847, 6112, 6117, 6116, 6155
5255, 5760, 5755, 5767, 5768, 6068, 6063, 6075, 6076
5256, 5838, 5837, 5769, 5831, 6146, 6145, 6077, 6139
5257, 5718, 5654, 5694, 5744, 6026, 5962, 6002, 6052
5258, 5766, 5759, 5779, 5839, 6074, 6067, 6087, 6147
5259, 5723, 5726, 5749, 5758, 6031, 6034, 6057, 6066
5260, 5798, 5783, 5747, 5729, 6106, 6091, 6055, 6037
5261, 5748, 5733, 5731, 5836, 6056, 6041, 6039, 6144
5262, 5734, 5737, 5811, 5753, 6042, 6045, 6119, 6061
5263, 5779, 5772, 5795, 5791, 6087, 6080, 6103, 6099
5264, 5808, 5815, 5845, 5848, 6116, 6123, 6153, 6156
5265, 5805, 5795, 5772, 5802, 6113, 6103, 6080, 6110
5266, 5806, 5832, 5773, 5801, 6114, 6140, 6081, 6109
5267, 5765, 5722, 5759, 5766, 6073, 6030, 6067, 6074
5268, 5766, 5831, 5754, 5765, 6074, 6139, 6062, 6073
5269, 5767, 5764, 5723, 5758, 6075, 6072, 6031, 6066
5270, 5768, 5767, 5778, 5774, 6076, 6075, 6086, 6082
5271, 5843, 5844, 5852, 5851, 6151, 6152, 6160, 6159
5272, 5760, 5768, 5784, 5776, 6068, 6076, 6092, 6084
5273, 5761, 5769, 5785, 5777, 6069, 6077, 6093, 6085
5274, 5744, 5694, 5723, 5764, 6052, 6002, 6031, 6072
5275, 5745, 5692, 5722, 5765, 6053, 6000, 6030, 6073
5276, 5831, 5769, 5761, 5754, 6139, 6077, 6069, 6062
5277, 5839, 5779, 5791, 5844, 6147, 6087, 6099, 6152
5278, 5780, 5770, 5776, 5786, 6088, 6078, 6084, 6094
5279, 5689, 5781, 5777, 5787, 5997, 6089, 6085, 6095
5280, 5686, 5770, 5780, 5687, 5994, 6078, 6088, 5995
5281, 5777, 5781, 5788, 5771, 6085, 6089, 6096, 6079
5282, 5803, 5793, 5791, 5795, 6111, 6101, 6099, 6103
5283, 5772, 5779, 5759, 5746, 6080, 6087, 6067, 6054
5284, 5832, 5796, 5794, 5792, 6140, 6104, 6102, 6100
5285, 5801, 5773, 5758, 5749, 6109, 6081, 6066, 6057
5286, 5784, 5790, 5829, 5799, 6092, 6098, 6137, 6107
5287, 5777, 5785, 5789, 5787, 6085, 6093, 6097, 6095
5288, 5767, 5758, 5773, 5778, 6075, 6066, 6081, 6086
5289, 5799, 5786, 5776, 5784, 6107, 6094, 6084, 6092
5290, 5782, 5789, 5785, 5775, 6090, 6097, 6093, 6083
5291, 5768, 5774, 5790, 5784, 6076, 6082, 6098, 6092
5292, 5747, 5783, 5792, 5794, 6055, 6091, 6100, 6102
5293, 5833, 5800, 5787, 5789, 6141, 6108, 6095, 6097
5294, 5769, 5837, 5775, 5785, 6077, 6145, 6083, 6093
5295, 5688, 5788, 5673, 5822, 5996, 6096, 5981, 6130
5296, 5834, 5727, 5720, 5797, 6142, 6035, 6028, 6105
5297, 5798, 5790, 5774, 5783, 6106, 6098, 6082, 6091
5298, 5850, 5794, 5796, 5804, 6158, 6102, 6104, 6112
5299, 5832, 5792, 5778, 5773, 6140, 6100, 6086, 6081
5300, 5842, 5833, 5789, 5782, 6150, 6141, 6097, 6090
5301, 5793, 5803, 5835, 5748, 6101, 6111, 6143, 6056
5302, 5847, 5751, 5850, 5804, 6155, 6059, 6158, 6112
5303, 5807, 5849, 5813, 5814, 6115, 6157, 6121, 6122
5304, 5849, 5810, 5795, 5805, 6157, 6118, 6103, 6113
5305, 5840, 5809, 5804, 5796, 6148, 6117, 6112, 6104
5306, 5834, 5797, 5833, 5842, 6142, 6105, 6141, 6150
5307, 5841, 5829, 5790, 5798, 6149, 6137, 6098, 6106
5308, 5721, 5825, 5799, 5829, 6029, 6133, 6107, 6137
5309, 5797, 5720, 5800, 5833, 6105, 6028, 6108, 6141
5310, 5802, 5772, 5746, 5752, 6110, 6080, 6054, 6060
5311, 5807, 5814, 5753, 5811, 6115, 6122, 6061, 6119
5312, 5846, 5803, 5795, 5810, 6154, 6111, 6103, 6118
5313, 5753, 5814, 5806, 5801, 6061, 6122, 6114, 6109
5314, 5810, 5849, 5807, 5846, 6118, 6157, 6115, 6154
5315, 5816, 5809, 5840, 5813, 6124, 6117, 6148, 6121
5316, 5848, 5738, 5741, 5812, 6156, 6046, 6049, 6120
5317, 5752, 5845, 5815, 5802, 6060, 6153, 6123, 6110
5318, 5806, 5814, 5813, 5840, 6114, 6122, 6121, 6148
5319, 5815, 5808, 5809, 5816, 6123, 6116, 6117, 6124
5320, 5847, 5808, 5848, 5812, 6155, 6116, 6156, 6120
5321, 5655, 5610, 5649, 5818, 5963, 5918, 5957, 6126
5322, 5823, 5642, 5819, 5828, 6131, 5950, 6127, 6136
5323, 5685, 5640, 5597, 5820, 5993, 5948, 5905, 6128
5324, 5688, 5641, 5639, 5821, 5996, 5949, 5947, 6129
5325, 5648, 5608, 5628, 5663, 5956, 5916, 5936, 5971
5326, 5826, 5823, 5828, 5827, 6134, 6131, 6136, 6135
5327, 5827, 5754, 5761, 5826, 6135, 6062, 6069, 6134
5328, 5829, 5841, 5725, 5721, 6137, 6149, 6033, 6029
5329, 5842, 5852, 5793, 5834, 6150, 6160, 6101, 6142
5330, 5736, 5733, 5748, 5835, 6044, 6041, 6056, 6143
5331, 5731, 5727, 5834, 5836, 6039, 6035, 6142, 6144
5332, 5843, 5775, 5837, 5838, 6151, 6083, 6145, 6146
5333, 5844, 5843, 5838, 5839, 6152, 6151, 6146, 6147
5334, 5831, 5766, 5839, 5838, 6139, 6074, 6147, 6146
5335, 5851, 5782, 5775, 5843, 6159, 6090, 6083, 6151
5336, 5848, 5845, 5732, 5738, 6156, 6153, 6040, 6046
5337, 5751, 5747, 5794, 5850, 6059, 6055, 6102, 6158
5338, 5782, 5851, 5852, 5842, 6090, 6159, 6160, 6150
5339, 5844, 5791, 5793, 5852, 6152, 6099, 6101, 6160
5340, 5949, 5853, 5868, 5947, 6257, 6161, 6176, 6255
5341, 5947, 5868, 5884, 5948, 6255, 6176, 6192, 6256
5342, 5927, 5885, 5855, 5925, 6235, 6193, 6163, 6233
5343, 6071, 6128, 5905, 5926, 6379, 6436, 6213, 6234
5344, 6071, 5926, 5946, 5950, 6379, 6234, 6254, 6258
5345, 5951, 5983, 6089, 5997, 6259, 6291, 6397, 6305
5346, 5931, 5889, 5859, 5921, 6239, 6197, 6167, 6229
5347, 5985, 5929, 5942, 5961, 6293, 6237, 6250, 6269
5348, 5913, 5891, 5861, 5912, 6221, 6199, 6169, 6220
5349, 5876, 5911, 5941, 5899, 6184, 6219, 6249, 6207
5350, 5914, 5862, 5892, 5934, 6222, 6170, 6200, 6242
5351, 5977, 5913, 5912, 5954, 6285, 6221, 6220, 6262
5352, 6016, 6012, 5977, 5954, 6324, 6320, 6285, 6262
5353, 5977, 6012, 6009, 5955, 6285, 6320, 6317, 6263
5354, 5894, 5936, 5916, 5865, 6202, 6244, 6224, 6173
5355, 5972, 5867, 5866, 5917, 6280, 6175, 6174, 6225
5356, 5956, 6070, 5917, 5916, 6264, 6378, 6225, 6224
5357, 5871, 5957, 5918, 5872, 6179, 6265, 6226, 6180
5358, 5937, 5895, 5872, 5918, 6245, 6203, 6180, 6226
5359, 6088, 5963, 6126, 5995, 6396, 6271, 6434, 6303
5360, 5972, 5917, 6070, 6125, 6280, 6225, 6378, 6433
5361, 6125, 6064, 6078, 5994, 6433, 6372, 6386, 6302
5362, 5988, 5939, 5933, 5987, 6296, 6247, 6241, 6295
5363, 6007, 5991, 5985, 6138, 6315, 6299, 6293, 6446
5364, 5930, 5888, 5887, 5908, 6238, 6196, 6195, 6216
5365, 5858, 5922, 5908, 5887, 6166, 6230, 6216, 6195
5366, 6127, 5980, 5924, 6027, 6435, 6288, 6232, 6335
5367, 5948, 5884, 5883, 5905, 6256, 6192, 6191, 6213
5368, 5923, 5857, 5856, 5906, 6231, 6165, 6164, 6214
5369, 5924, 5880, 5903, 5945, 6232, 6188, 6211, 6253
5370, 5991, 5943, 5929, 5985, 6299, 6251, 6237, 6293
5371, 5889, 5931, 5910, 5860, 6197, 6239, 6218, 6168
5372, 5932, 5890, 5860, 5910, 6240, 6198, 6168, 6218
5373, 5934, 5892, 5891, 5913, 6242, 6200, 6199, 6221
5374, 5873, 5919, 5920, 5874, 6181, 6227, 6228, 6182
5375, 5915, 5863, 5893, 5935, 6223, 6171, 6201, 6243
5376, 6063, 6068, 6064, 6050, 6371, 6376, 6372, 6358
5377, 5918, 5963, 5964, 5937, 6226, 6271, 6272, 6245
5378, 5937, 5964, 5970, 5919, 6245, 6272, 6278, 6227
5379, 5898, 5940, 5911, 5876, 6206, 6248, 6219, 6184
5380, 5899, 5941, 5909, 5877, 6207, 6249, 6217, 6185
5381, 5943, 5901, 5878, 5929, 6251, 6209, 6186, 6237
5382, 6027, 5924, 5945, 5960, 6335, 6232, 6253, 6268
5383, 5980, 5881, 5880, 5924, 6288, 6189, 6188, 6232
5384, 5905, 5883, 5882, 5926, 6213, 6191, 6190, 6234
5385, 5906, 5856, 5885, 5927, 6214, 6164, 6193, 6235
5386, 5928, 5886, 5857, 5923, 6236, 6194, 6165, 6231
5387, 5886, 5928, 5922, 5858, 6194, 6236, 6230, 6166
5388, 5902, 5944, 5907, 5879, 6210, 6252, 6215, 6187
5389, 5945, 5903, 5879, 5907, 6253, 6211, 6187, 6215
5390, 5978, 5930, 5908, 5959, 6286, 6238, 6216, 6267
5391, 5921, 5859, 5888, 5930, 6229, 6167, 6196, 6238
5392, 5942, 5900, 5877, 5909, 6250, 6208, 6185, 6217
5393, 5929, 5878, 5900, 5942, 6237, 6186, 6208, 6250
5394, 5931, 5986, 5953, 5910, 6239, 6294, 6261, 6218
5395, 5912, 5861, 5890, 5932, 6220, 6169, 6198, 6240
5396, 5875, 5933, 5939, 5897, 6183, 6241, 6247, 6205
5397, 5911, 5968, 5990, 5941, 6219, 6276, 6298, 6249
5398, 5955, 5934, 5913, 5977, 6263, 6242, 6221, 6285
5399, 5935, 5893, 5862, 5914, 6243, 6201, 6170, 6222
5400, 5971, 5864, 5863, 5915, 6279, 6172, 6171, 6223
5401, 6133, 5998, 6094, 6107, 6441, 6306, 6402, 6415
5402, 5864, 5971, 5936, 5894, 6172, 6279, 6244, 6202
5403, 5933, 5875, 5896, 5938, 6241, 6183, 6204, 6246
5404, 5917, 5866, 5865, 5916, 6225, 6174, 6173, 6224
5405, 5938, 5896, 5874, 5920, 6246, 6204, 6182, 6228
5406, 5973, 5869, 5867, 5972, 6281, 6177, 6175, 6280
5407, 5974, 5870, 5869, 5973, 6282, 6178, 6177, 6281
5408, 5919, 5873, 5895, 5937, 6227, 6181, 6203, 6245
5409, 6026, 5915, 5935, 5962, 6334, 6223, 6243, 6270
5410, 6013, 5987, 5976, 6010, 6321, 6295, 6284, 6318
5411, 5975, 5914, 5934, 5955, 6283, 6222, 6242, 6263
5412, 6030, 6032, 6054, 6067, 6338, 6340, 6362, 6375
5413, 5922, 5966, 5959, 5908, 6230, 6274, 6267, 6216
5414, 5881, 5980, 5946, 5904, 6189, 6288, 6254, 6212
5415, 5951, 5906, 5927, 5983, 6259, 6214, 6235, 6291
5416, 6079, 6096, 5996, 6129, 6387, 6404, 6304, 6437
5417, 5853, 5949, 5982, 5854, 6161, 6257, 6290, 6162
5418, 5904, 5946, 5926, 5882, 6212, 6254, 6234, 6190
5419, 6065, 5993, 6128, 6071, 6373, 6301, 6436, 6379
5420, 5979, 5923, 5906, 5951, 6287, 6231, 6214, 6259
5421, 5999, 6004, 5984, 5979, 6307, 6312, 6292, 6287
5422, 5944, 5902, 5901, 5943, 6252, 6210, 6209, 6251
5423, 5991, 6007, 6003, 5992, 6299, 6315, 6311, 6300
5424, 6035, 6039, 6011, 6008, 6343, 6347, 6319, 6316
5425, 5940, 5898, 5897, 5939, 6248, 6206, 6205, 6247
5426, 6133, 6001, 6132, 5998, 6441, 6309, 6440, 6306
5427, 5975, 5955, 6009, 6005, 6283, 6263, 6317, 6313
5428, 5941, 5990, 5952, 5909, 6249, 6298, 6260, 6217
5429, 6011, 6014, 5978, 5959, 6319, 6322, 6286, 6267
5430, 5907, 5965, 5960, 5945, 6215, 6273, 6268, 6253
5431, 6129, 5947, 5948, 5993, 6437, 6255, 6256, 6301
5432, 5925, 5855, 5854, 5982, 6233, 6163, 6162, 6290
5433, 5981, 5925, 5982, 6130, 6289, 6233, 6290, 6438
5434, 5925, 5981, 5983, 5927, 6233, 6289, 6291, 6235
5435, 5950, 5946, 5980, 6127, 6258, 6254, 6288, 6435
5436, 5984, 5928, 5923, 5979, 6292, 6236, 6231, 6287
5437, 5921, 5967, 5986, 5931, 6229, 6275, 6294, 6239
5438, 5961, 5942, 5909, 5952, 6269, 6250, 6217, 6260
5439, 5969, 5932, 5910, 5953, 6277, 6240, 6218, 6261
5440, 5954, 5912, 5932, 5969, 6262, 6220, 6240, 6277
5441, 5914, 5975, 5962, 5935, 6222, 6283, 6270, 6243
5442, 5938, 5976, 5987, 5933, 6246, 6284, 6295, 6241
5443, 6132, 5964, 5963, 5998, 6440, 6272, 6271, 6306
5444, 6026, 5956, 5971, 5915, 6334, 6264, 6279, 6223
5445, 5995, 5974, 5973, 5994, 6303, 6282, 6281, 6302
5446, 5870, 5974, 5957, 5871, 6178, 6282, 6265, 6179
5447, 5976, 5938, 5920, 5958, 6284, 6246, 6228, 6266
5448, 5967, 5921, 5930, 5978, 6275, 6229, 6238, 6286
5449, 6129, 5993, 6065, 6079, 6437, 6301, 6373, 6387
5450, 6063, 6050, 6026, 6052, 6371, 6358, 6334, 6360
5451, 5972, 6125, 5994, 5973, 6280, 6433, 6302, 6281
5452, 5958, 5920, 5919, 5970, 6266, 6228, 6227, 6278
5453, 6006, 5958, 5970, 6001, 6314, 6266, 6278, 6309
5454, 5944, 5992, 5965, 5907, 6252, 6300, 6273, 6215
5455, 5960, 6053, 6051, 6027, 6268, 6361, 6359, 6335
5456, 6004, 6008, 5966, 5984, 6312, 6316, 6274, 6292
5457, 6048, 6024, 6018, 6044, 6356, 6332, 6326, 6352
5458, 5940, 5989, 5968, 5911, 6248, 6297, 6276, 6219
5459, 6043, 6017, 6013, 6037, 6351, 6325, 6321, 6345
5460, 6010, 5976, 5958, 6006, 6318, 6284, 6266, 6314
5461, 5957, 5974, 5995, 6126, 6265, 6282, 6303, 6434
5462, 5989, 5940, 5939, 5988, 6297, 6248, 6247, 6296
5463, 5966, 5922, 5928, 5984, 6274, 6230, 6236, 6292
5464, 6085, 6079, 6065, 6069, 6393, 6387, 6373, 6377
5465, 5949, 5996, 6130, 5982, 6257, 6304, 6438, 6290
5466, 5979, 5951, 5997, 5999, 6287, 6259, 6305, 6307
5467, 5992, 5944, 5943, 5991, 6300, 6252, 6251, 6299
5468, 6020, 6016, 5954, 5969, 6328, 6324, 6262, 6277
5469, 6021, 5989, 5988, 6017, 6329, 6297, 6296, 6325
5470, 6037, 6013, 6010, 6033, 6345, 6321, 6318, 6341
5471, 6149, 6106, 6037, 6033, 6457, 6414, 6345, 6341
5472, 6138, 5985, 5961, 6015, 6446, 6293, 6269, 6323
5473, 6069, 6065, 6131, 6134, 6377, 6373, 6439, 6442
5474, 5999, 5997, 6095, 6108, 6307, 6305, 6403, 6416
5475, 6131, 6065, 6071, 5950, 6439, 6373, 6379, 6258
5476, 6084, 6078, 6064, 6068, 6392, 6386, 6372, 6376
5477, 6125, 6070, 6050, 6064, 6433, 6378, 6358, 6372
5478, 6094, 5998, 5963, 6088, 6402, 6306, 6271, 6396
5479, 5983, 5981, 6096, 6089, 6291, 6289, 6404, 6397
5480, 6135, 6053, 6073, 6062, 6443, 6361, 6381, 6370
5481, 6075, 6063, 6052, 6072, 6383, 6371, 6360, 6380
5482, 6001, 5970, 5964, 6132, 6309, 6278, 6272, 6440
5483, 6008, 6011, 5959, 5966, 6316, 6319, 6267, 6274
5484, 6000, 5965, 5992, 6003, 6308, 6273, 6300, 6311
5485, 6053, 5960, 5965, 6000, 6361, 6268, 6273, 6308
5486, 6017, 5988, 5987, 6013, 6325, 6296, 6295, 6321
5487, 5962, 5975, 6005, 6002, 6270, 6283, 6313, 6310
5488, 6108, 6028, 6004, 5999, 6416, 6336, 6312, 6307
5489, 6014, 6018, 5967, 5978, 6322, 6326, 6275, 6286
5490, 6001, 6133, 6029, 6006, 6309, 6441, 6337, 6314
5491, 6023, 5968, 5989, 6021, 6331, 6276, 6297, 6329
5492, 6018, 6024, 5986, 5967, 6326, 6332, 6294, 6275
5493, 6045, 6048, 6058, 6119, 6353, 6356, 6366, 6427
5494, 6022, 5990, 5968, 6023, 6330, 6298, 6276, 6331
5495, 6047, 6021, 6017, 6043, 6355, 6329, 6325, 6351
5496, 6041, 6014, 6011, 6039, 6349, 6322, 6319, 6347
5497, 5952, 6019, 6015, 5961, 6260, 6327, 6323, 6269
5498, 6007, 6138, 6032, 6003, 6315, 6446, 6340, 6311
5499, 6012, 6034, 6031, 6009, 6320, 6342, 6339, 6317
5500, 6060, 6054, 6032, 6036, 6368, 6362, 6340, 6344
5501, 6006, 6029, 6033, 6010, 6314, 6337, 6341, 6318
5502, 6025, 6020, 5969, 5953, 6333, 6328, 6277, 6261
5503, 6048, 6044, 6143, 6058, 6356, 6352, 6451, 6366
5504, 6022, 6046, 6040, 6019, 6330, 6354, 6348, 6327
5505, 5990, 6022, 6019, 5952, 6298, 6330, 6327, 6260
5506, 6032, 6138, 6015, 6036, 6340, 6446, 6323, 6344
5507, 6059, 6043, 6037, 6055, 6367, 6351, 6345, 6363
5508, 6155, 6047, 6043, 6059, 6463, 6355, 6351, 6367
5509, 6019, 6040, 6036, 6015, 6327, 6348, 6344, 6323
5510, 5953, 5986, 6024, 6025, 6261, 6294, 6332, 6333
5511, 6016, 6020, 6042, 6038, 6324, 6328, 6350, 6346
5512, 6070, 5956, 6026, 6050, 6378, 6264, 6334, 6358
5513, 6051, 6136, 6127, 6027, 6359, 6444, 6435, 6335
5514, 6136, 6051, 6053, 6135, 6444, 6359, 6361, 6443
5515, 6035, 6008, 6004, 6028, 6343, 6316, 6312, 6336
5516, 6000, 6003, 6032, 6030, 6308, 6311, 6340, 6338
5517, 6002, 6005, 6009, 6031, 6310, 6313, 6317, 6339
5518, 6056, 6144, 6142, 6101, 6364, 6452, 6450, 6409
5519, 6049, 6023, 6021, 6047, 6357, 6331, 6329, 6355
5520, 6034, 6012, 6016, 6038, 6342, 6320, 6324, 6346
5521, 6100, 6091, 6082, 6086, 6408, 6399, 6390, 6394
5522, 6044, 6018, 6014, 6041, 6352, 6326, 6322, 6349
5523, 6047, 6155, 6120, 6049, 6355, 6463, 6428, 6357
5524, 6124, 6113, 6110, 6123, 6432, 6421, 6418, 6431
5525, 6148, 6104, 6140, 6114, 6456, 6412, 6448, 6422
5526, 6045, 6025, 6024, 6048, 6353, 6333, 6332, 6356
5527, 6111, 6154, 6058, 6143, 6419, 6462, 6366, 6451
5528, 6025, 6045, 6042, 6020, 6333, 6353, 6350, 6328
5529, 6034, 6038, 6042, 6057, 6342, 6346, 6350, 6365
5530, 6113, 6124, 6121, 6157, 6421, 6432, 6429, 6465
5531, 6154, 6115, 6119, 6058, 6462, 6423, 6427, 6366
5532, 6109, 6057, 6042, 6061, 6417, 6365, 6350, 6369
5533, 6023, 6049, 6046, 6022, 6331, 6357, 6354, 6330
5534, 6153, 6060, 6036, 6040, 6461, 6368, 6344, 6348
5535, 6112, 6117, 6116, 6155, 6420, 6425, 6424, 6463
5536, 6068, 6063, 6075, 6076, 6376, 6371, 6383, 6384
5537, 6146, 6145, 6077, 6139, 6454, 6453, 6385, 6447
5538, 6026, 5962, 6002, 6052, 6334, 6270, 6310, 6360
5539, 6074, 6067, 6087, 6147, 6382, 6375, 6395, 6455
5540, 6031, 6034, 6057, 6066, 6339, 6342, 6365, 6374
5541, 6106, 6091, 6055, 6037, 6414, 6399, 6363, 6345
5542, 6056, 6041, 6039, 6144, 6364, 6349, 6347, 6452
5543, 6042, 6045, 6119, 6061, 6350, 6353, 6427, 6369
5544, 6087, 6080, 6103, 6099, 6395, 6388, 6411, 6407
5545, 6116, 6123, 6153, 6156, 6424, 6431, 6461, 6464
5546, 6113, 6103, 6080, 6110, 6421, 6411, 6388, 6418
5547, 6114, 6140, 6081, 6109, 6422, 6448, 6389, 6417
5548, 6073, 6030, 6067, 6074, 6381, 6338, 6375, 6382
5549, 6074, 6139, 6062, 6073, 6382, 6447, 6370, 6381
5550, 6075, 6072, 6031, 6066, 6383, 6380, 6339, 6374
5551, 6076, 6075, 6086, 6082, 6384, 6383, 6394, 6390
5552, 6151, 6152, 6160, 6159, 6459, 6460, 6468, 6467
5553, 6068, 6076, 6092, 6084, 6376, 6384, 6400, 6392
5554, 6069, 6077, 6093, 6085, 6377, 6385, 6401, 6393
5555, 6052, 6002, 6031, 6072, 6360, 6310, 6339, 6380
5556, 6053, 6000, 6030, 6073, 6361, 6308, 6338, 6381
5557, 6139, 6077, 6069, 6062, 6447, 6385, 6377, 6370
5558, 6147, 6087, 6099, 6152, 6455, 6395, 6407, 6460
5559, 6088, 6078, 6084, 6094, 6396, 6386, 6392, 6402
5560, 5997, 6089, 6085, 6095, 6305, 6397, 6393, 6403
5561, 5994, 6078, 6088, 5995, 6302, 6386, 6396, 6303
5562, 6085, 6089, 6096, 6079, 6393, 6397, 6404, 6387
5563, 6111, 6101, 6099, 6103, 6419, 6409, 6407, 6411
5564, 6080, 6087, 6067, 6054, 6388, 6395, 6375, 6362
5565, 6140, 6104, 6102, 6100, 6448, 6412, 6410, 6408
5566, 6109, 6081, 6066, 6057, 6417, 6389, 6374, 6365
5567, 6092, 6098, 6137, 6107, 6400, 6406, 6445, 6415
5568, 6085, 6093, 6097, 6095, 6393, 6401, 6405, 6403
5569, 6075, 6066, 6081, 6086, 6383, 6374, 6389, 6394
5570, 6107, 6094, 6084, 6092, 6415, 6402, 6392, 6400
5571, 6090, 6097, 6093, 6083, 6398, 6405, 6401, 6391
5572, 6076, 6082, 6098, 6092, 6384, 6390, 6406, 6400
5573, 6055, 6091, 6100, 6102, 6363, 6399, 6408, 6410
5574, 6141, 6108, 6095, 6097, 6449, 6416, 6403, 6405
5575, 6077, 6145, 6083, 6093, 6385, 6453, 6391, 6401
5576, 5996, 6096, 5981, 6130, 6304, 6404, 6289, 6438
5577, 6142, 6035, 6028, 6105, 6450, 6343, 6336, 6413
5578, 6106, 6098, 6082, 6091, 6414, 6406, 6390, 6399
5579, 6158, 6102, 6104, 6112, 6466, 6410, 6412, 6420
5580, 6140, 6100, 6086, 6081, 6448, 6408, 6394, 6389
5581, 6150, 6141, 6097, 6090, 6458, 6449, 6405, 6398
5582, 6101, 6111, 6143, 6056, 6409, 6419, 6451, 6364
5583, 6155, 6059, 6158, 6112, 6463, 6367, 6466, 6420
5584, 6115, 6157, 6121, 6122, 6423, 6465, 6429, 6430
5585, 6157, 6118, 6103, 6113, 6465, 6426, 6411, 6421
5586, 6148, 6117, 6112, 6104, 6456, 6425, 6420, 6412
5587, 6142, 6105, 6141, 6150, 6450, 6413, 6449, 6458
5588, 6149, 6137, 6098, 6106, 6457, 6445, 6406, 6414
5589, 6029, 6133, 6107, 6137, 6337, 6441, 6415, 6445
5590, 6105, 6028, 6108, 6141, 6413, 6336, 6416, 6449
5591, 6110, 6080, 6054, 6060, 6418, 6388, 6362, 6368
5592, 6115, 6122, 6061, 6119, 6423, 6430, 6369, 6427
5593, 6154, 6111, 6103, 6118, 6462, 6419, 6411, 6426
5594, 6061, 6122, 6114, 6109, 6369, 6430, 6422, 6417
5595, 6118, 6157, 6115, 6154, 6426, 6465, 6423, 6462
5596, 6124, 6117, 6148, 6121, 6432, 6425, 6456, 6429
5597, 6156, 6046, 6049, 6120, 6464, 6354, 6357, 6428
5598, 6060, 6153, 6123, 6110, 6368, 6461, 6431, 6418
5599, 6114, 6122, 6121, 6148, 6422, 6430, 6429, 6456
5600, 6123, 6116, 6117, 6124, 6431, 6424, 6425, 6432
5601, 6155, 6116, 6156, 6120, 6463, 6424, 6464, 6428
5602, 5963, 5918, 5957, 6126, 6271, 6226, 6265, 6434
5603, 6131, 5950, 6127, 6136, 6439, 6258, 6435, 6444
5604, 5993, 5948, 5905, 6128, 6301, 6256, 6213, 6436
5605, 5996, 5949, 5947, 6129, 6304, 6257, 6255, 6437
5606, 5956, 5916, 5936, 5971, 6264, 6224, 6244, 6279
5607, 6134, 6131, 6136, 6135, 6442, 6439, 6444, 6443
5608, 6135, 6062, 6069, 6134, 6443, 6370, 6377, 6442
5609, 6137, 6149, 6033, 6029, 6445, 6457, 6341, 6337
5610, 6150, 6160, 6101, 6142, 6458, 6468, 6409, 6450
5611, 6044, 6041, 6056, 6143, 6352, 6349, 6364, 6451
5612, 6039, 6035, 6142, 6144, 6347, 6343, 6450, 6452
5613, 6151, 6083, 6145, 6146, 6459, 6391, 6453, 6454
5614, 6152, 6151, 6146, 6147, 6460, 6459, 6454, 6455
5615, 6139, 6074, 6147, 6146, 6447, 6382, 6455, 6454
5616, 6159, 6090, 6083, 6151, 6467, 6398, 6391, 6459
5617, 6156, 6153, 6040, 6046, 6464, 6461, 6348, 6354
5618, 6059, 6055, 6102, 6158, 6367, 6363, 6410, 6466
5619, 6090, 6159, 6160, 6150, 6398, 6467, 6468, 6458
5620, 6152, 6099, 6101, 6160, 6460, 6407, 6409, 6468
*Nset, nset=contact
    1,    2,    3,    4,    5,    6,    7,    8,    9,   10,   11,   12,   13,   14,   15,   16
   17,   18,   19,   20,   21,   22,   23,   24,   25,   26,   27,   28,   29,   30,   31,   32
   33,   34,   35,   36,   37,   38,   39,   40,   41,   42,   43,   44,   45,   46,   47,   48
   49,   50,   51,   52,  309,  310,  311,  312,  313,  314,  315,  316,  317,  318,  319,  320
  321,  322,  323,  324,  325,  326,  327,  328,  329,  330,  331,  332,  333,  334,  335,  336
  337,  338,  339,  340,  341,  342,  343,  344,  345,  346,  347,  348,  349,  350,  351,  352
  353,  354,  355,  356,  357,  358,  359,  360,  617,  618,  619,  620,  621,  622,  623,  624
  625,  626,  627,  628,  629,  630,  631,  632,  633,  634,  635,  636,  637,  638,  639,  640
  641,  642,  643,  644,  645,  646,  647,  648,  649,  650,  651,  652,  653,  654,  655,  656
  657,  658,  659,  660,  661,  662,  663,  664,  665,  666,  667,  668,  925,  926,  927,  928
  929,  930,  931,  932,  933,  934,  935,  936,  937,  938,  939,  940,  941,  942,  943,  944
  945,  946,  947,  948,  949,  950,  951,  952,  953,  954,  955,  956,  957,  958,  959,  960
  961,  962,  963,  964,  965,  966,  967,  968,  969,  970,  971,  972,  973,  974,  975,  976
 1233, 1234, 1235, 1236, 1237, 1238, 1239, 1240, 1241, 1242, 1243, 1244, 1245, 1246, 1247, 1248
 1249, 1250, 1251, 1252, 1253, 1254, 1255, 1256, 1257, 1258, 1259, 1260, 1261, 1262, 1263, 1264
 1265, 1266, 1267, 1268, 1269, 1270, 1271, 1272, 1273, 1274, 1275, 1276, 1277, 1278, 1279, 1280
 1281, 1282, 1283, 1284, 1541, 1542, 1543, 1544, 1545, 1546, 1547, 1548, 1549, 1550, 1551, 1552
 1553, 1554, 1555, 1556, 1557, 1558, 1559, 1560, 1561, 1562, 1563, 1564, 1565, 1566, 1567, 1568
 1569, 1570, 1571, 1572, 1573, 1574, 1575, 1576, 1577, 1578, 1579, 1580, 1581, 1582, 1583, 1584
 1585, 1586, 1587, 1588, 1589, 1590, 1591, 1592, 1849, 1850, 1851, 1852, 1853, 1854, 1855, 1856
 1857, 1858, 1859, 1860, 1861, 1862, 1863, 1864, 1865, 1866, 1867, 1868, 1869, 1870, 1871, 1872
 1873, 1874, 1875, 1876, 1877, 1878, 1879, 1880, 1881, 1882, 1883, 1884, 1885, 1886, 1887, 1888
 1889, 1890, 1891, 1892, 1893, 1894, 1895, 1896, 1897, 1898, 1899, 1900, 2157, 2158, 2159, 2160
 2161, 2162, 2163, 2164, 2165, 2166, 2167, 2168, 2169, 2170, 2171, 2172, 2173, 2174, 2175, 2176
 2177, 2178, 2179, 2180, 2181, 2182, 2183, 2184, 2185, 2186, 2187, 2188, 2189, 2190, 2191, 2192
 2193, 2194, 2195, 2196, 2197, 2198, 2199, 2200, 2201, 2202, 2203, 2204, 2205, 2206, 2207, 2208
 2465, 2466, 2467, 2468, 2469, 2470, 2471, 2472, 2473, 2474, 2475, 2476, 2477, 2478, 2479, 2480
 2481, 2482, 2483, 2484, 2485, 2486, 2487, 2488, 2489, 2490, 2491, 2492, 2493, 2494, 2495, 2496
 2497, 2498, 2499, 2500, 2501, 2502, 2503, 2504, 2505, 2506, 2507, 2508, 2509, 2510, 2511, 2512
 2513, 2514, 2515, 2516, 2773, 2774, 2775, 2776, 2777, 2778, 2779, 2780, 2781, 2782, 2783, 2784
 2785, 2786, 2787, 2788, 2789, 2790, 2791, 2792, 2793, 2794, 2795, 2796, 2797, 2798, 2799, 2800
 2801, 2802, 2803, 2804, 2805, 2806, 2807, 2808, 2809, 2810, 2811, 2812, 2813, 2814, 2815, 2816
 2817, 2818, 2819, 2820, 2821, 2822, 2823, 2824, 3081, 3082, 3083, 3084, 3085, 3086, 3087, 3088
 3089, 3090, 3091, 3092, 3093, 3094, 3095, 3096, 3097, 3098, 3099, 3100, 3101, 3102, 3103, 3104
 3105, 3106, 3107, 3108, 3109, 3110, 3111, 3112, 3113, 3114, 3115, 3116, 3117, 3118, 3119, 3120
 3121, 3122, 3123, 3124, 3125, 3126, 3127, 3128, 3129, 3130, 3131, 3132, 3389, 3390, 3391, 3392
 3393, 3394, 3395, 3396, 3397, 3398, 3399, 3400, 3401, 3402, 3403, 3404, 3405, 3406, 3407, 3408
 3409, 3410, 3411, 3412, 3413, 3414, 3415, 3416, 3417, 3418, 3419, 3420, 3421, 3422, 3423, 3424
 3425, 3426, 3427, 3428, 3429, 3430, 3431, 3432, 3433, 3434, 3435, 3436, 3437, 3438, 3439, 3440
 3697, 3698, 3699, 3700, 3701, 3702, 3703, 3704, 3705, 3706, 3707, 3708, 3709, 3710, 3711, 3712
 3713, 3714, 3715, 3716, 3717, 3718, 3719, 3720, 3721, 3722, 3723, 3724, 3725, 3726, 3727, 3728
 3729, 3730, 3731, 3732, 3733, 3734, 3735, 3736, 3737, 3738, 3739, 3740, 3741, 3742, 3743, 3744
 3745, 3746, 3747, 3748, 4005, 4006, 4007, 4008, 4009, 4010, 4011, 4012, 4013, 4014, 4015, 4016
 4017, 4018, 4019, 4020, 4021, 4022, 4023, 4024, 4025, 4026, 4027, 4028, 4029, 4030, 4031, 4032
 4033, 4034, 4035, 4036, 4037, 4038, 4039, 4040, 4041, 4042, 4043, 4044, 4045, 4046, 4047, 4048
 4049, 4050, 4051, 4052, 4053, 4054, 4055, 4056, 4313, 4314, 4315, 4316, 4317, 4318, 4319, 4320
 4321, 4322, 4323, 4324, 4325, 4326, 4327, 4328, 4329, 4330, 4331, 4332, 4333, 4334, 4335, 4336
 4337, 4338, 4339, 4340, 4341, 4342, 4343, 4344, 4345, 4346, 4347, 4348, 4349, 4350, 4351, 4352
 4353, 4354, 4355, 4356, 4357, 4358, 4359, 4360, 4361, 4362, 4363, 4364, 4621, 4622, 4623, 4624
 4625, 4626, 4627, 4628, 4629, 4630, 4631, 4632, 4633, 4634, 4635, 4636, 4637, 4638, 4639, 4640
 4641, 4642, 4643, 4644, 4645, 4646, 4647, 4648, 4649, 4650, 4651, 4652, 4653, 4654, 4655, 4656
 4657, 4658, 4659, 4660, 4661, 4662, 4663, 4664, 4665, 4666, 4667, 4668, 4669, 4670, 4671, 4672
 4929, 4930, 4931, 4932, 4933, 4934, 4935, 4936, 4937, 4938, 4939, 4940, 4941, 4942, 4943, 4944
 4945, 4946, 4947, 4948, 4949, 4950, 4951, 4952, 4953, 4954, 4955, 4956, 4957, 4958, 4959, 4960
 4961, 4962, 4963, 4964, 4965, 4966, 4967, 4968, 4969, 4970, 4971, 4972, 4973, 4974, 4975, 4976
 4977, 4978, 4979, 4980, 5237, 5238, 5239, 5240, 5241, 5242, 5243, 5244, 5245, 5246, 5247, 5248
 5249, 5250, 5251, 5252, 5253, 5254, 5255, 5256, 5257, 5258, 5259, 5260, 5261, 5262, 5263, 5264
 5265, 5266, 5267, 5268, 5269, 5270, 5271, 5272, 5273, 5274, 5275, 5276, 5277, 5278, 5279, 5280
 5281, 5282, 5283, 5284, 5285, 5286, 5287, 5288, 5545, 5546, 5547, 5548, 5549, 5550, 5551, 5552
 5553, 5554, 5555, 5556, 5557, 5558, 5559, 5560, 5561, 5562, 5563, 5564, 5565, 5566, 5567, 5568
 5569, 5570, 5571, 5572, 5573, 5574, 5575, 5576, 5577, 5578, 5579, 5580, 5581, 5582, 5583, 5584
 5585, 5586, 5587, 5588, 5589, 5590, 5591, 5592, 5593, 5594, 5595, 5596, 5853, 5854, 5855, 5856
 5857, 5858, 5859, 5860, 5861, 5862, 5863, 5864, 5865, 5866, 5867, 5868, 5869, 5870, 5871, 5872
 5873, 5874, 5875, 5876, 5877, 5878, 5879, 5880, 5881, 5882, 5883, 5884, 5885, 5886, 5887, 5888
 5889, 5890, 5891, 5892, 5893, 5894, 5895, 5896, 5897, 5898, 5899, 5900, 5901, 5902, 5903, 5904
 6161, 6162, 6163, 6164, 6165, 6166, 6167, 6168, 6169, 6170, 6171, 6172, 6173, 6174, 6175, 6176
 6177, 6178, 6179, 6180, 6181, 6182, 6183, 6184, 6185, 6186, 6187, 6188, 6189, 6190, 6191, 6192
 6193, 6194, 6195, 6196, 6197, 6198, 6199, 6200, 6201, 6202, 6203, 6204, 6205, 6206, 6207, 6208
 6209, 6210, 6211, 6212
*Elset, elset=contact
    1,    2,    3,    7,    9,   10,   11,   15,   16,   18,   19,   25,   26,   28,   29,   30
   32,   33,   34,   35,   36,   40,   41,   42,   44,   45,   46,   47,   48,   49,   50,   52
   53,   54,   56,   57,   60,   61,   63,   64,   65,   66,   67,   68,   69,   75,   78,   79
   83,   86,   93,  107,  282,  283,  284,  288,  290,  291,  292,  296,  297,  299,  300,  306
  307,  309,  310,  311,  313,  314,  315,  316,  317,  321,  322,  323,  325,  326,  327,  328
  329,  330,  331,  333,  334,  335,  337,  338,  341,  342,  344,  345,  346,  347,  348,  349
  350,  356,  359,  360,  364,  367,  374,  388,  563,  564,  565,  569,  571,  572,  573,  577
  578,  580,  581,  587,  588,  590,  591,  592,  594,  595,  596,  597,  598,  602,  603,  604
  606,  607,  608,  609,  610,  611,  612,  614,  615,  616,  618,  619,  622,  623,  625,  626
  627,  628,  629,  630,  631,  637,  640,  641,  645,  648,  655,  669,  844,  845,  846,  850
  852,  853,  854,  858,  859,  861,  862,  868,  869,  871,  872,  873,  875,  876,  877,  878
  879,  883,  884,  885,  887,  888,  889,  890,  891,  892,  893,  895,  896,  897,  899,  900
  903,  904,  906,  907,  908,  909,  910,  911,  912,  918,  921,  922,  926,  929,  936,  950
 1125, 1126, 1127, 1131, 1133, 1134, 1135, 1139, 1140, 1142, 1143, 1149, 1150, 1152, 1153, 1154
 1156, 1157, 1158, 1159, 1160, 1164, 1165, 1166, 1168, 1169, 1170, 1171, 1172, 1173, 1174, 1176
 1177, 1178, 1180, 1181, 1184, 1185, 1187, 1188, 1189, 1190, 1191, 1192, 1193, 1199, 1202, 1203
 1207, 1210, 1217, 1231, 1406, 1407, 1408, 1412, 1414, 1415, 1416, 1420, 1421, 1423, 1424, 1430
 1431, 1433, 1434, 1435, 1437, 1438, 1439, 1440, 1441, 1445, 1446, 1447, 1449, 1450, 1451, 1452
 1453, 1454, 1455, 1457, 1458, 1459, 1461, 1462, 1465, 1466, 1468, 1469, 1470, 1471, 1472, 1473
 1474, 1480, 1483, 1484, 1488, 1491, 1498, 1512, 1687, 1688, 1689, 1693, 1695, 1696, 1697, 1701
 1702, 1704, 1705, 1711, 1712, 1714, 1715, 1716, 1718, 1719, 1720, 1721, 1722, 1726, 1727, 1728
 1730, 1731, 1732, 1733, 1734, 1735, 1736, 1738, 1739, 1740, 1742, 1743, 1746, 1747, 1749, 1750
 1751, 1752, 1753, 1754, 1755, 1761, 1764, 1765, 1769, 1772, 1779, 1793, 1968, 1969, 1970, 1974
 1976, 1977, 1978, 1982, 1983, 1985, 1986, 1992, 1993, 1995, 1996, 1997, 1999, 2000, 2001, 2002
 2003, 2007, 2008, 2009, 2011, 2012, 2013, 2014, 2015, 2016, 2017, 2019, 2020, 2021, 2023, 2024
 2027, 2028, 2030, 2031, 2032, 2033, 2034, 2035, 2036, 2042, 2045, 2046, 2050, 2053, 2060, 2074
 2249, 2250, 2251, 2255, 2257, 2258, 2259, 2263, 2264, 2266, 2267, 2273, 2274, 2276, 2277, 2278
 2280, 2281, 2282, 2283, 2284, 2288, 2289, 2290, 2292, 2293, 2294, 2295, 2296, 2297, 2298, 2300
 2301, 2302, 2304, 2305, 2308, 2309, 2311, 2312, 2313, 2314, 2315, 2316, 2317, 2323, 2326, 2327
 2331, 2334, 2341, 2355, 2530, 2531, 2532, 2536, 2538, 2539, 2540, 2544, 2545, 2547, 2548, 2554
 2555, 2557, 2558, 2559, 2561, 2562, 2563, 2564, 2565, 2569, 2570, 2571, 2573, 2574, 2575, 2576
 2577, 2578, 2579, 2581, 2582, 2583, 2585, 2586, 2589, 2590, 2592, 2593, 2594, 2595, 2596, 2597
 2598, 2604, 2607, 2608, 2612, 2615, 2622, 2636, 2811, 2812, 2813, 2817, 2819, 2820, 2821, 2825
 2826, 2828, 2829, 2835, 2836, 2838, 2839, 2840, 2842, 2843, 2844, 2845, 2846, 2850, 2851, 2852
 2854, 2855, 2856, 2857, 2858, 2859, 2860, 2862, 2863, 2864, 2866, 2867, 2870, 2871, 2873, 2874
 2875, 2876, 2877, 2878, 2879, 2885, 2888, 2889, 2893, 2896, 2903, 2917, 3092, 3093, 3094, 3098
 3100, 3101, 3102, 3106, 3107, 3109, 3110, 3116, 3117, 3119, 3120, 3121, 3123, 3124, 3125, 3126
 3127, 3131, 3132, 3133, 3135, 3136, 3137, 3138, 3139, 3140, 3141, 3143, 3144, 3145, 3147, 3148
 3151, 3152, 3154, 3155, 3156, 3157, 3158, 3159, 3160, 3166, 3169, 3170, 3174, 3177, 3184, 3198
 3373, 3374, 3375, 3379, 3381, 3382, 3383, 3387, 3388, 3390, 3391, 3397, 3398, 3400, 3401, 3402
 3404, 3405, 3406, 3407, 3408, 3412, 3413, 3414, 3416, 3417, 3418, 3419, 3420, 3421, 3422, 3424
 3425, 3426, 3428, 3429, 3432, 3433, 3435, 3436, 3437, 3438, 3439, 3440, 3441, 3447, 3450, 3451
 3455, 3458, 3465, 3479, 3654, 3655, 3656, 3660, 3662, 3663, 3664, 3668, 3669, 3671, 3672, 3678
 3679, 3681, 3682, 3683, 3685, 3686, 3687, 3688, 3689, 3693, 3694, 3695, 3697, 3698, 3699, 3700
 3701, 3702, 3703, 3705, 3706, 3707, 3709, 3710, 3713, 3714, 3716, 3717, 3718, 3719, 3720, 3721
 3722, 3728, 3731, 3732, 3736, 3739, 3746, 3760, 3935, 3936, 3937, 3941, 3943, 3944, 3945, 3949
 3950, 3952, 3953, 3959, 3960, 3962, 3963, 3964, 3966, 3967, 3968, 3969, 3970, 3974, 3975, 3976
 3978, 3979, 3980, 3981, 3982, 3983, 3984, 3986, 3987, 3988, 3990, 3991, 3994, 3995, 3997, 3998
 3999, 4000, 4001, 4002, 4003, 4009, 4012, 4013, 4017, 4020, 4027, 4041, 4216, 4217, 4218, 4222
 4224, 4225, 4226, 4230, 4231, 4233, 4234, 4240, 4241, 4243, 4244, 4245, 4247, 4248, 4249, 4250
 4251, 4255, 4256, 4257, 4259, 4260, 4261, 4262, 4263, 4264, 4265, 4267, 4268, 4269, 4271, 4272
 4275, 4276, 4278, 4279, 4280, 4281, 4282, 4283, 4284, 4290, 4293, 4294, 4298, 4301, 4308, 4322
 4497, 4498, 4499, 4503, 4505, 4506, 4507, 4511, 4512, 4514, 4515, 4521, 4522, 4524, 4525, 4526
 4528, 4529, 4530, 4531, 4532, 4536, 4537, 4538, 4540, 4541, 4542, 4543, 4544, 4545, 4546, 4548
 4549, 4550, 4552, 4553, 4556, 4557, 4559, 4560, 4561, 4562, 4563, 4564, 4565, 4571, 4574, 4575
 4579, 4582, 4589, 4603, 4778, 4779, 4780, 4784, 4786, 4787, 4788, 4792, 4793, 4795, 4796, 4802
 4803, 4805, 4806, 4807, 4809, 4810, 4811, 4812, 4813, 4817, 4818, 4819, 4821, 4822, 4823, 4824
 4825, 4826, 4827, 4829, 4830, 4831, 4833, 4834, 4837, 4838, 4840, 4841, 4842, 4843, 4844, 4845
 4846, 4852, 4855, 4856, 4860, 4863, 4870, 4884, 5059, 5060, 5061, 5065, 5067, 5068, 5069, 5073
 5074, 5076, 5077, 5083, 5084, 5086, 5087, 5088, 5090, 5091, 5092, 5093, 5094, 5098, 5099, 5100
 5102, 5103, 5104, 5105, 5106, 5107, 5108, 5110, 5111, 5112, 5114, 5115, 5118, 5119, 5121, 5122
 5123, 5124, 5125, 5126, 5127, 5133, 5136, 5137, 5141, 5144, 5151, 5165, 5340, 5341, 5342, 5346
 5348, 5349, 5350, 5354, 5355, 5357, 5358, 5364, 5365, 5367, 5368, 5369, 5371, 5372, 5373, 5374
 5375, 5379, 5380, 5381, 5383, 5384, 5385, 5386, 5387, 5388, 5389, 5391, 5392, 5393, 5395, 5396
 5399, 5400, 5402, 5403, 5404, 5405, 5406, 5407, 5408, 5414, 5417, 5418, 5422, 5425, 5432, 5446
*Nset, nset=cylinder, generate
    1,  6468,     1
*Elset, elset=cylinder, generate
    1,  5620,     1
*Elset, elset=_contact_S4, internal
    1,    2,    3,    7,    9,   11,   16,   19,   25,   28,   29,   30,   33,   34,   36,   42
   44,   45,   46,   47,   50,   52,   53,   54,   56,   60,   61,   64,   65,   66,   67,   68
   69,   83,   86,   93,  282,  283,  284,  288,  290,  292,  297,  300,  306,  309,  310,  311
  314,  315,  317,  323,  325,  326,  327,  328,  331,  333,  334,  335,  337,  341,  342,  345
  346,  347,  348,  349,  350,  364,  367,  374,  563,  564,  565,  569,  571,  573,  578,  581
  587,  590,  591,  592,  595,  596,  598,  604,  606,  607,  608,  609,  612,  614,  615,  616
  618,  622,  623,  626,  627,  628,  629,  630,  631,  645,  648,  655,  844,  845,  846,  850
  852,  854,  859,  862,  868,  871,  872,  873,  876,  877,  879,  885,  887,  888,  889,  890
  893,  895,  896,  897,  899,  903,  904,  907,  908,  909,  910,  911,  912,  926,  929,  936
 1125, 1126, 1127, 1131, 1133, 1135, 1140, 1143, 1149, 1152, 1153, 1154, 1157, 1158, 1160, 1166
 1168, 1169, 1170, 1171, 1174, 1176, 1177, 1178, 1180, 1184, 1185, 1188, 1189, 1190, 1191, 1192
 1193, 1207, 1210, 1217, 1406, 1407, 1408, 1412, 1414, 1416, 1421, 1424, 1430, 1433, 1434, 1435
 1438, 1439, 1441, 1447, 1449, 1450, 1451, 1452, 1455, 1457, 1458, 1459, 1461, 1465, 1466, 1469
 1470, 1471, 1472, 1473, 1474, 1488, 1491, 1498, 1687, 1688, 1689, 1693, 1695, 1697, 1702, 1705
 1711, 1714, 1715, 1716, 1719, 1720, 1722, 1728, 1730, 1731, 1732, 1733, 1736, 1738, 1739, 1740
 1742, 1746, 1747, 1750, 1751, 1752, 1753, 1754, 1755, 1769, 1772, 1779, 1968, 1969, 1970, 1974
 1976, 1978, 1983, 1986, 1992, 1995, 1996, 1997, 2000, 2001, 2003, 2009, 2011, 2012, 2013, 2014
 2017, 2019, 2020, 2021, 2023, 2027, 2028, 2031, 2032, 2033, 2034, 2035, 2036, 2050, 2053, 2060
 2249, 2250, 2251, 2255, 2257, 2259, 2264, 2267, 2273, 2276, 2277, 2278, 2281, 2282, 2284, 2290
 2292, 2293, 2294, 2295, 2298, 2300, 2301, 2302, 2304, 2308, 2309, 2312, 2313, 2314, 2315, 2316
 2317, 2331, 2334, 2341, 2530, 2531, 2532, 2536, 2538, 2540, 2545, 2548, 2554, 2557, 2558, 2559
 2562, 2563, 2565, 2571, 2573, 2574, 2575, 2576, 2579, 2581, 2582, 2583, 2585, 2589, 2590, 2593
 2594, 2595, 2596, 2597, 2598, 2612, 2615, 2622, 2811, 2812, 2813, 2817, 2819, 2821, 2826, 2829
 2835, 2838, 2839, 2840, 2843, 2844, 2846, 2852, 2854, 2855, 2856, 2857, 2860, 2862, 2863, 2864
 2866, 2870, 2871, 2874, 2875, 2876, 2877, 2878, 2879, 2893, 2896, 2903, 3092, 3093, 3094, 3098
 3100, 3102, 3107, 3110, 3116, 3119, 3120, 3121, 3124, 3125, 3127, 3133, 3135, 3136, 3137, 3138
 3141, 3143, 3144, 3145, 3147, 3151, 3152, 3155, 3156, 3157, 3158, 3159, 3160, 3174, 3177, 3184
 3373, 3374, 3375, 3379, 3381, 3383, 3388, 3391, 3397, 3400, 3401, 3402, 3405, 3406, 3408, 3414
 3416, 3417, 3418, 3419, 3422, 3424, 3425, 3426, 3428, 3432, 3433, 3436, 3437, 3438, 3439, 3440
 3441, 3455, 3458, 3465, 3654, 3655, 3656, 3660, 3662, 3664, 3669, 3672, 3678, 3681, 3682, 3683
 3686, 3687, 3689, 3695, 3697, 3698, 3699, 3700, 3703, 3705, 3706, 3707, 3709, 3713, 3714, 3717
 3718, 3719, 3720, 3721, 3722, 3736, 3739, 3746, 3935, 3936, 3937, 3941, 3943, 3945, 3950, 3953
 3959, 3962, 3963, 3964, 3967, 3968, 3970, 3976, 3978, 3979, 3980, 3981, 3984, 3986, 3987, 3988
 3990, 3994, 3995, 3998, 3999, 4000, 4001, 4002, 4003, 4017, 4020, 4027, 4216, 4217, 4218, 4222
 4224, 4226, 4231, 4234, 4240, 4243, 4244, 4245, 4248, 4249, 4251, 4257, 4259, 4260, 4261, 4262
 4265, 4267, 4268, 4269, 4271, 4275, 4276, 4279, 4280, 4281, 4282, 4283, 4284, 4298, 4301, 4308
 4497, 4498, 4499, 4503, 4505, 4507, 4512, 4515, 4521, 4524, 4525, 4526, 4529, 4530, 4532, 4538
 4540, 4541, 4542, 4543, 4546, 4548, 4549, 4550, 4552, 4556, 4557, 4560, 4561, 4562, 4563, 4564
 4565, 4579, 4582, 4589, 4778, 4779, 4780, 4784, 4786, 4788, 4793, 4796, 4802, 4805, 4806, 4807
 4810, 4811, 4813, 4819, 4821, 4822, 4823, 4824, 4827, 4829, 4830, 4831, 4833, 4837, 4838, 4841
 4842, 4843, 4844, 4845, 4846, 4860, 4863, 4870, 5059, 5060, 5061, 5065, 5067, 5069, 5074, 5077
 5083, 5086, 5087, 5088, 5091, 5092, 5094, 5100, 5102, 5103, 5104, 5105, 5108, 5110, 5111, 5112
 5114, 5118, 5119, 5122, 5123, 5124, 5125, 5126, 5127, 5141, 5144, 5151, 5340, 5341, 5342, 5346
 5348, 5350, 5355, 5358, 5364, 5367, 5368, 5369, 5372, 5373, 5375, 5381, 5383, 5384, 5385, 5386
 5389, 5391, 5392, 5393, 5395, 5399, 5400, 5403, 5404, 5405, 5406, 5407, 5408, 5422, 5425, 5432
*Elset, elset=_contact_S6, internal
   10,   15,   18,   26,   32,   35,   40,   41,   48,   49,   57,   63,   75,   78,   79,  107
  291,  296,  299,  307,  313,  316,  321,  322,  329,  330,  338,  344,  356,  359,  360,  388
  572,  577,  580,  588,  594,  597,  602,  603,  610,  611,  619,  625,  637,  640,  641,  669
  853,  858,  861,  869,  875,  878,  883,  884,  891,  892,  900,  906,  918,  921,  922,  950
 1134, 1139, 1142, 1150, 1156, 1159, 1164, 1165, 1172, 1173, 1181, 1187, 1199, 1202, 1203, 1231
 1415, 1420, 1423, 1431, 1437, 1440, 1445, 1446, 1453, 1454, 1462, 1468, 1480, 1483, 1484, 1512
 1696, 1701, 1704, 1712, 1718, 1721, 1726, 1727, 1734, 1735, 1743, 1749, 1761, 1764, 1765, 1793
 1977, 1982, 1985, 1993, 1999, 2002, 2007, 2008, 2015, 2016, 2024, 2030, 2042, 2045, 2046, 2074
 2258, 2263, 2266, 2274, 2280, 2283, 2288, 2289, 2296, 2297, 2305, 2311, 2323, 2326, 2327, 2355
 2539, 2544, 2547, 2555, 2561, 2564, 2569, 2570, 2577, 2578, 2586, 2592, 2604, 2607, 2608, 2636
 2820, 2825, 2828, 2836, 2842, 2845, 2850, 2851, 2858, 2859, 2867, 2873, 2885, 2888, 2889, 2917
 3101, 3106, 3109, 3117, 3123, 3126, 3131, 3132, 3139, 3140, 3148, 3154, 3166, 3169, 3170, 3198
 3382, 3387, 3390, 3398, 3404, 3407, 3412, 3413, 3420, 3421, 3429, 3435, 3447, 3450, 3451, 3479
 3663, 3668, 3671, 3679, 3685, 3688, 3693, 3694, 3701, 3702, 3710, 3716, 3728, 3731, 3732, 3760
 3944, 3949, 3952, 3960, 3966, 3969, 3974, 3975, 3982, 3983, 3991, 3997, 4009, 4012, 4013, 4041
 4225, 4230, 4233, 4241, 4247, 4250, 4255, 4256, 4263, 4264, 4272, 4278, 4290, 4293, 4294, 4322
 4506, 4511, 4514, 4522, 4528, 4531, 4536, 4537, 4544, 4545, 4553, 4559, 4571, 4574, 4575, 4603
 4787, 4792, 4795, 4803, 4809, 4812, 4817, 4818, 4825, 4826, 4834, 4840, 4852, 4855, 4856, 4884
 5068, 5073, 5076, 5084, 5090, 5093, 5098, 5099, 5106, 5107, 5115, 5121, 5133, 5136, 5137, 5165
 5349, 5354, 5357, 5365, 5371, 5374, 5379, 5380, 5387, 5388, 5396, 5402, 5414, 5417, 5418, 5446
*Surface, type=ELEMENT, name=contact
_contact_S4, S4
_contact_S6, S6
** Section: Section-1
*Solid Section, elset=cylinder, material=Material-1
,
*End Part
**  
**
** ASSEMBLY
**
*Assembly, name=Assembly
**  
*Instance, name=cylinder-1, part=cylinder
*End Instance
**  
*End Assembly
** 
** MATERIALS
** 
*Material, name=Material-1
*Hyperelastic, neo hooke
 0.24, 0.4
