*Heading
** Job name: ellipsebian Model name: ellipsebian
** Generated by: Abaqus/CAE 2021
*Preprint, echo=NO, model=NO, history=NO, contact=NO
**
** PARTS
**
*Part, name=cylinder
*Node
      1,   33.9376984,          30.,   64.7288361
      2,   36.7789841,          30.,    63.933609
      3,   39.4425545,          30.,   62.6634102
      4,   44.0270042,          30.,   58.9694328
      5,   45.8951683,          30.,   56.6833572
      6,   48.7484741,          30.,   51.5238647
      7,   50.4402733,          30.,   45.8731003
      8,          51.,          30.,   39.9999886
      9,   50.4402695,          30.,   34.1268806
     10,   48.7484703,          30.,   28.4761238
     11,   45.8951645,          30.,   23.3166409
     12,   44.0270004,          30.,   21.0305672
     13,   39.4425507,          30.,   17.3365898
     14,   36.7789841,          30.,   16.0663891
     15,   33.9377022,          30.,   15.2711611
     16,          31.,          30.,          65.
     17,          31.,          30.,          15.
     18,   28.0622997,          30.,   15.2711611
     19,   25.2210159,          30.,   16.0663891
     20,   22.5574474,          30.,   17.3365898
     21,   17.9729958,          30.,   21.0305691
     22,   16.1048317,          30.,   23.3166447
     23,   13.2515259,          30.,   28.4761353
     24,   11.5597258,          30.,   34.1268997
     25,          11.,          30.,   40.0000114
     26,   11.5597286,          30.,   45.8731194
     27,   13.2515297,          30.,   51.5238762
     28,   16.1048336,          30.,   56.6833572
     29,   17.9729977,          30.,   58.9694328
     30,   22.5574493,          30.,   62.6634102
     31,   25.2210159,          30.,    63.933609
     32,   28.0622978,          30.,   64.7288361
     33,   41.8702965,          30.,   60.9849892
     34,   47.4688263,          30.,   54.1850395
     35,   49.7375603,          30.,   48.7414093
     36,   50.8602791,          30.,   42.9499207
     37,   50.8602791,          30.,   37.0500603
     38,   49.7375565,          30.,   31.2585735
     39,   47.4688225,          30.,   25.8149586
     40,   41.8702965,          30.,   19.0150108
     41,   20.1297016,          30.,   19.0150127
     42,   14.5311747,          30.,   25.8149624
     43,   12.2624388,          30.,   31.2585926
     44,     11.13972,          30.,   37.0500793
     45,   11.1397219,          30.,   42.9499397
     46,   12.2624445,          30.,   48.7414246
     47,   14.5311766,          30.,   54.1850395
     48,   20.1297035,          30.,   60.9849892
     49,   35.8506927,          30.,   61.3840866
     50,   20.1137028,          30.,   56.9514732
     51,   14.0589342,          30.,   45.3280487
     52,   14.2330503,          30.,   34.6853294
     53,   18.4136066,          30.,    25.135313
     54,    43.654007,          30.,   25.2684174
     55,    30.376503,          30.,   17.4907131
     56,   28.3944874,          30.,   16.9384403
     57,   26.7967663,          30.,    18.281271
     58,   41.9787254,          30.,   23.2325726
     59,   20.2512589,          30.,   23.2181435
     60,   47.6804771,          30.,   35.0948792
     61,    47.709938,          30.,   45.8206329
     62,   46.4044838,          30.,   50.8802338
     63,     43.96521,          30.,   55.4129105
     64,   18.3931103,          30.,   54.9371758
     65,   38.2421875,          30.,   60.3938789
     66,   24.2130451,          30.,   60.1130714
     67,   40.4269257,          30.,   59.0532265
     68,    45.350647,          30.,   53.2467499
     69,   47.1681824,          30.,   48.3968887
     70,   48.0449257,          30.,   43.1612473
     71,   48.0384789,          30.,   37.7708664
     72,   47.0660248,          30.,   32.4690781
     73,   45.0503731,          30.,   27.5126762
     74,    37.823597,          30.,   20.0284119
     75,   22.3990707,          30.,   21.5301189
     76,   16.9380283,          30.,   27.2958775
     77,    14.914031,          30.,   32.1125793
     78,   13.7777681,          30.,   37.3135948
     79,   13.6770897,          30.,    42.650547
     80,   14.7319555,          30.,   47.9198799
     81,   16.9113045,          30.,   52.7339096
     82,    22.008379,          30.,    58.673275
     83,   25.1309128,          30.,   57.9968758
     84,    39.164917,          30.,   57.2873764
     85,   23.9053497,          30.,   56.4820251
     86,   38.4122009,          30.,   23.6598701
     87,   40.6916237,          30.,   55.8211136
     88,   22.2300701,          30.,   54.9191971
     89,   40.1156197,          30.,   25.2361946
     90,   22.0712624,          30.,   25.2693825
     91,   20.3188229,          30.,    26.728138
     92,     20.59869,          30.,   53.1271019
     93,   41.5349731,          30.,   27.0620575
     94,   44.0336494,          30.,   50.3471947
     95,    19.168766,          30.,   28.5945034
     96,   44.5310135,          30.,   48.1669731
     97,   17.1278324,          30.,   47.0113411
     98,   43.7292252,          30.,    31.295742
     99,   44.9610138,          30.,   45.8239937
    100,   44.4750328,          30.,   33.5904922
    101,   16.4605904,          30.,    44.710144
    102,   45.2611351,          30.,   43.3849335
    103,   16.8440762,          30.,   35.2332458
    104,   16.3088894,          30.,   37.5874176
    105,   45.3765984,          30.,   40.9177017
    106,   30.8139629,          30.,   62.4362259
    107,   28.6142521,          30.,   62.7278328
    108,   32.8744011,          30.,   18.1324444
    109,   33.3486557,          30.,   62.0417557
    110,   27.0511417,          30.,   60.8572235
    111,   24.7342777,          30.,   19.9571056
    112,   35.4192162,          30.,   18.9348793
    113,   42.3347626,          30.,   57.3661957
    114,     46.18507,          30.,   29.9156284
    115,   15.6940012,          30.,   50.3850098
    116,   15.8044987,          30.,   29.6351147
    117,   48.1602898,          30.,   40.4500542
    118,   13.5868387,          30.,   39.9720306
    119,   36.6611862,          30.,   56.1189041
    120,   24.2208557,          30.,   52.9407768
    121,   38.3359375,          30.,   26.9777622
    122,   21.4455433,          30.,   49.5551338
    123,   23.2750568,          30.,   27.3199577
    124,   35.1216774,          30.,   58.9908066
    125,   27.2803497,          30.,   57.5437584
    126,    42.085495,          30.,   54.1679611
    127,   41.7923203,          30.,   48.1166687
    128,   42.2060394,          30.,    45.854126
    129,    41.296936,          30.,   32.4966278
    130,   18.3183212,          30.,   41.9948616
    131,   42.5049973,          30.,   43.5582008
    132,    42.626873,          30.,   41.2700729
    133,   19.3637943,          30.,   35.8571243
    134,   32.7821159,          30.,   59.4940033
    135,   27.2446766,          30.,   22.5592175
    136,   17.5510845,          30.,   32.9234543
    137,   34.1535606,          30.,   21.4838181
    138,   18.0586586,          30.,   49.1545219
    139,   42.7298393,          30.,   29.0804558
    140,   16.0619202,          30.,   39.9515533
    141,   45.2960587,          30.,    38.428627
    142,   30.0240574,          30.,   56.9995918
    143,   39.5665016,          30.,   45.8720093
    144,   39.9431801,          30.,   41.5316696
    145,   41.6478653,          30.,   51.7092361
    146,   20.2647018,          30.,   33.7511215
    147,   38.8946495,          30.,   54.4429703
    148,   26.6381111,          30.,   54.3008232
    149,   35.2360458,          30.,   24.5623112
    150,   25.3021259,          30.,   26.4573956
    151,   20.3886414,          30.,   47.7576981
    152,   19.4467392,          30.,    45.928093
    153,   18.4310341,          30.,   39.9533958
    154,   42.3614578,          30.,   36.7779274
    155,   40.4175301,          30.,   30.5028172
    156,   18.6384201,          30.,   37.9219398
    157,   42.5809326,          30.,   38.9799614
    158,    24.251873,          30.,   23.9265919
    159,   31.6336575,          30.,   20.7074661
    160,   18.3259888,          30.,   30.6974602
    161,   38.5882263,          30.,   50.8829918
    162,   21.6896973,          30.,   36.8436432
    163,   39.4129448,          30.,   28.6734772
    164,   38.0190811,          30.,   31.8150158
    165,   22.6797657,          30.,   46.1203918
    166,   21.0524826,          30.,   40.0544167
    167,   34.4004326,          30.,   26.6138744
    168,   34.7173729,          30.,   56.7128143
    169,   39.8928375,          30.,   39.4223747
    170,   24.6112556,          30.,   49.6536942
    171,    33.114994,          30.,   23.8423576
    172,   25.7848186,          30.,   28.8157082
    173,   39.4416504,          30.,   35.4520683
    174,   29.0234013,          30.,   19.8313503
    175,   19.2207165,          30.,   51.1720695
    176,   20.7411098,          30.,   43.0665627
    177,   39.7117348,          30.,   37.3734665
    178,   16.0851936,          30.,   42.3188591
    179,   44.9959717,          30.,   35.9589806
    180,   32.9440346,          30.,   54.3063126
    181,   30.5561295,          30.,   23.2213154
    182,   37.2250748,          30.,   39.7688637
    183,    23.457798,          30.,   38.5438499
    184,   21.0173435,          30.,   31.5930691
    185,   37.0821991,          30.,   30.1235905
    186,   36.4120445,          30.,   28.2987118
    187,   23.6959667,          30.,   29.4766159
    188,   37.0460434,          30.,   34.3682327
    189,   23.6906319,          30.,   47.8316803
    190,   25.3729115,          30.,   51.2028389
    191,   21.6898441,          30.,    27.874918
    192,    33.700882,          30.,   35.8084259
    193,   27.6412849,          30.,   25.8088379
    194,    22.459877,          30.,   41.7454948
    195,   23.0583363,          30.,   34.7927742
    196,   32.0913773,          30.,   28.5445156
    197,   28.1216354,          30.,   31.1247272
    198,   34.0762215,          30.,   31.5197182
    199,    26.758112,          30.,   48.6181526
    200,    36.616848,          30.,   53.6079063
    201,   32.7417946,          30.,   51.1080208
    202,   28.9708576,          30.,   47.9528656
    203,   36.6401215,          30.,   47.9853821
    204,   29.4342346,          30.,   50.5949821
    205,   31.8972225,          30.,   33.9840126
    206,   24.6360207,          30.,   40.7450409
    207,   29.9786987,          30.,   28.2318897
    208,    27.863039,          30.,   28.4355125
    209,   24.1607113,          30.,   32.1828766
    210,   25.9998379,          30.,   36.4857674
    211,   24.9751968,          30.,   43.8064461
    212,   30.1250343,          30.,   25.8118172
    213,    30.487751,          30.,   37.4079857
    214,    31.549942,          30.,     30.72999
    215,   30.3088684,          30.,   53.4915237
    216,   27.6231098,          30.,   39.4395218
    217,   32.4344177,          30.,   26.1753578
    218,   26.6951866,          30.,   33.4985199
    219,   26.0616112,          30.,    46.257122
    220,   34.2076454,          30.,   38.1687813
    221,   30.1376209,          30.,   32.5049324
    222,   27.8019104,          30.,   42.6107407
    223,   29.3253269,          30.,   35.5853043
    224,   31.7547493,          30.,   49.4026489
    225,   31.5970364,          30.,   39.0636826
    226,   36.9948463,          30.,   37.8067436
    227,   34.0874748,          30.,   47.9485397
    228,   31.0933552,          30.,   47.5320969
    229,   32.7889824,          30.,    42.442028
    230,   34.6634254,          30.,   40.1502228
    231,   35.0707092,          30.,   43.8224716
    232,   37.3663597,          30.,   41.7274704
    233,   28.8057709,          30.,   45.1335449
    234,   32.9790192,          30.,   45.5736122
    235,   29.9219513,          30.,   30.0071621
    236,   40.0245514,          30.,   21.4620895
    237,   36.3994789,          30.,   22.4168568
    238,   43.3260994,          30.,   52.3860054
    239,   37.2923622,          30.,   58.2860184
    240,   30.2276917,          30.,   59.9167747
    241,   37.0102768,          30.,   25.5184689
    242,   32.5280609,          30.,   56.9018707
    243,    41.931778,          30.,   34.5723343
    244,   41.5280533,          30.,   50.1894951
    245,   38.2148285,          30.,   55.9376831
    246,   21.4039345,          30.,   29.4642048
    247,   18.7029305,          30.,   43.9977837
    248,   22.6641254,          30.,    51.295826
    249,   35.9104881,          30.,   26.8536263
    250,   38.9417572,          30.,   33.5216064
    251,   39.8456841,          30.,   43.6602364
    252,    39.132328,          30.,   48.1976166
    253,   40.2337265,          30.,   52.8141937
    254,   34.1568298,          30.,   28.7974796
    255,   35.6276207,          30.,    33.285965
    256,   37.3415375,          30.,   43.7332268
    257,   37.0937805,          30.,   45.8339767
    258,   36.0610237,          30.,   50.1656151
    259,   34.5701637,          30.,   52.2902756
    260,   34.6558571,          30.,   54.9091721
    261,   26.0785313,          30.,   30.6707191
    262,    36.847599,          30.,   35.9541016
    263,   21.5575619,          30.,   44.6630936
    264,   20.0434723,          30.,   41.7723618
    265,   20.4942055,          30.,   38.2921906
    266,   34.9749336,          30.,   41.9913177
    267,    34.858799,          30.,   45.7603683
    268,   34.3687477,          30.,   49.6646118
    269,   23.0653572,          30.,   43.3450699
    270,    27.110178,          30.,   51.2019768
    271,   28.7252502,          30.,   33.9481201
    272,   32.7763634,          30.,   47.0093422
    273,   33.1065483,          30.,   43.9973755
    274,   31.0755863,          30.,   45.6767426
    275,   29.6995735,          30.,   40.1781197
    276,   30.0708847,          30.,   41.7780838
    277,   32.2932472,          30.,   40.8355827
    278,   30.7825565,          30.,   43.3141975
    279,   31.5710831,          30.,   44.2993355
    280,   33.9376984,          27.,   64.7288361
    281,   36.7789841,          27.,    63.933609
    282,   39.4425545,          27.,   62.6634102
    283,   44.0270042,          27.,   58.9694328
    284,   45.8951683,          27.,   56.6833572
    285,   48.7484741,          27.,   51.5238647
    286,   50.4402733,          27.,   45.8731003
    287,          51.,          27.,   39.9999886
    288,   50.4402695,          27.,   34.1268806
    289,   48.7484703,          27.,   28.4761238
    290,   45.8951645,          27.,   23.3166409
    291,   44.0270004,          27.,   21.0305672
    292,   39.4425507,          27.,   17.3365898
    293,   36.7789841,          27.,   16.0663891
    294,   33.9377022,          27.,   15.2711611
    295,          31.,          27.,          65.
    296,          31.,          27.,          15.
    297,   28.0622997,          27.,   15.2711611
    298,   25.2210159,          27.,   16.0663891
    299,   22.5574474,          27.,   17.3365898
    300,   17.9729958,          27.,   21.0305691
    301,   16.1048317,          27.,   23.3166447
    302,   13.2515259,          27.,   28.4761353
    303,   11.5597258,          27.,   34.1268997
    304,          11.,          27.,   40.0000114
    305,   11.5597286,          27.,   45.8731194
    306,   13.2515297,          27.,   51.5238762
    307,   16.1048336,          27.,   56.6833572
    308,   17.9729977,          27.,   58.9694328
    309,   22.5574493,          27.,   62.6634102
    310,   25.2210159,          27.,    63.933609
    311,   28.0622978,          27.,   64.7288361
    312,   41.8702965,          27.,   60.9849892
    313,   47.4688263,          27.,   54.1850395
    314,   49.7375603,          27.,   48.7414093
    315,   50.8602791,          27.,   42.9499207
    316,   50.8602791,          27.,   37.0500603
    317,   49.7375565,          27.,   31.2585735
    318,   47.4688225,          27.,   25.8149586
    319,   41.8702965,          27.,   19.0150108
    320,   20.1297016,          27.,   19.0150127
    321,   14.5311747,          27.,   25.8149624
    322,   12.2624388,          27.,   31.2585926
    323,     11.13972,          27.,   37.0500793
    324,   11.1397219,          27.,   42.9499397
    325,   12.2624445,          27.,   48.7414246
    326,   14.5311766,          27.,   54.1850395
    327,   20.1297035,          27.,   60.9849892
    328,   35.8506927,          27.,   61.3840866
    329,   20.1137028,          27.,   56.9514732
    330,   14.0589342,          27.,   45.3280487
    331,   14.2330503,          27.,   34.6853294
    332,   18.4136066,          27.,    25.135313
    333,    43.654007,          27.,   25.2684174
    334,    30.376503,          27.,   17.4907131
    335,   28.3944874,          27.,   16.9384403
    336,   26.7967663,          27.,    18.281271
    337,   41.9787254,          27.,   23.2325726
    338,   20.2512589,          27.,   23.2181435
    339,   47.6804771,          27.,   35.0948792
    340,    47.709938,          27.,   45.8206329
    341,   46.4044838,          27.,   50.8802338
    342,     43.96521,          27.,   55.4129105
    343,   18.3931103,          27.,   54.9371758
    344,   38.2421875,          27.,   60.3938789
    345,   24.2130451,          27.,   60.1130714
    346,   40.4269257,          27.,   59.0532265
    347,    45.350647,          27.,   53.2467499
    348,   47.1681824,          27.,   48.3968887
    349,   48.0449257,          27.,   43.1612473
    350,   48.0384789,          27.,   37.7708664
    351,   47.0660248,          27.,   32.4690781
    352,   45.0503731,          27.,   27.5126762
    353,    37.823597,          27.,   20.0284119
    354,   22.3990707,          27.,   21.5301189
    355,   16.9380283,          27.,   27.2958775
    356,    14.914031,          27.,   32.1125793
    357,   13.7777681,          27.,   37.3135948
    358,   13.6770897,          27.,    42.650547
    359,   14.7319555,          27.,   47.9198799
    360,   16.9113045,          27.,   52.7339096
    361,    22.008379,          27.,    58.673275
    362,   25.1309128,          27.,   57.9968758
    363,    39.164917,          27.,   57.2873764
    364,   23.9053497,          27.,   56.4820251
    365,   38.4122009,          27.,   23.6598701
    366,   40.6916237,          27.,   55.8211136
    367,   22.2300701,          27.,   54.9191971
    368,   40.1156197,          27.,   25.2361946
    369,   22.0712624,          27.,   25.2693825
    370,   20.3188229,          27.,    26.728138
    371,     20.59869,          27.,   53.1271019
    372,   41.5349731,          27.,   27.0620575
    373,   44.0336494,          27.,   50.3471947
    374,    19.168766,          27.,   28.5945034
    375,   44.5310135,          27.,   48.1669731
    376,   17.1278324,          27.,   47.0113411
    377,   43.7292252,          27.,    31.295742
    378,   44.9610138,          27.,   45.8239937
    379,   44.4750328,          27.,   33.5904922
    380,   16.4605904,          27.,    44.710144
    381,   45.2611351,          27.,   43.3849335
    382,   16.8440762,          27.,   35.2332458
    383,   16.3088894,          27.,   37.5874176
    384,   45.3765984,          27.,   40.9177017
    385,   30.8139629,          27.,   62.4362259
    386,   28.6142521,          27.,   62.7278328
    387,   32.8744011,          27.,   18.1324444
    388,   33.3486557,          27.,   62.0417557
    389,   27.0511417,          27.,   60.8572235
    390,   24.7342777,          27.,   19.9571056
    391,   35.4192162,          27.,   18.9348793
    392,   42.3347626,          27.,   57.3661957
    393,     46.18507,          27.,   29.9156284
    394,   15.6940012,          27.,   50.3850098
    395,   15.8044987,          27.,   29.6351147
    396,   48.1602898,          27.,   40.4500542
    397,   13.5868387,          27.,   39.9720306
    398,   36.6611862,          27.,   56.1189041
    399,   24.2208557,          27.,   52.9407768
    400,   38.3359375,          27.,   26.9777622
    401,   21.4455433,          27.,   49.5551338
    402,   23.2750568,          27.,   27.3199577
    403,   35.1216774,          27.,   58.9908066
    404,   27.2803497,          27.,   57.5437584
    405,    42.085495,          27.,   54.1679611
    406,   41.7923203,          27.,   48.1166687
    407,   42.2060394,          27.,    45.854126
    408,    41.296936,          27.,   32.4966278
    409,   18.3183212,          27.,   41.9948616
    410,   42.5049973,          27.,   43.5582008
    411,    42.626873,          27.,   41.2700729
    412,   19.3637943,          27.,   35.8571243
    413,   32.7821159,          27.,   59.4940033
    414,   27.2446766,          27.,   22.5592175
    415,   17.5510845,          27.,   32.9234543
    416,   34.1535606,          27.,   21.4838181
    417,   18.0586586,          27.,   49.1545219
    418,   42.7298393,          27.,   29.0804558
    419,   16.0619202,          27.,   39.9515533
    420,   45.2960587,          27.,    38.428627
    421,   30.0240574,          27.,   56.9995918
    422,   39.5665016,          27.,   45.8720093
    423,   39.9431801,          27.,   41.5316696
    424,   41.6478653,          27.,   51.7092361
    425,   20.2647018,          27.,   33.7511215
    426,   38.8946495,          27.,   54.4429703
    427,   26.6381111,          27.,   54.3008232
    428,   35.2360458,          27.,   24.5623112
    429,   25.3021259,          27.,   26.4573956
    430,   20.3886414,          27.,   47.7576981
    431,   19.4467392,          27.,    45.928093
    432,   18.4310341,          27.,   39.9533958
    433,   42.3614578,          27.,   36.7779274
    434,   40.4175301,          27.,   30.5028172
    435,   18.6384201,          27.,   37.9219398
    436,   42.5809326,          27.,   38.9799614
    437,    24.251873,          27.,   23.9265919
    438,   31.6336575,          27.,   20.7074661
    439,   18.3259888,          27.,   30.6974602
    440,   38.5882263,          27.,   50.8829918
    441,   21.6896973,          27.,   36.8436432
    442,   39.4129448,          27.,   28.6734772
    443,   38.0190811,          27.,   31.8150158
    444,   22.6797657,          27.,   46.1203918
    445,   21.0524826,          27.,   40.0544167
    446,   34.4004326,          27.,   26.6138744
    447,   34.7173729,          27.,   56.7128143
    448,   39.8928375,          27.,   39.4223747
    449,   24.6112556,          27.,   49.6536942
    450,    33.114994,          27.,   23.8423576
    451,   25.7848186,          27.,   28.8157082
    452,   39.4416504,          27.,   35.4520683
    453,   29.0234013,          27.,   19.8313503
    454,   19.2207165,          27.,   51.1720695
    455,   20.7411098,          27.,   43.0665627
    456,   39.7117348,          27.,   37.3734665
    457,   16.0851936,          27.,   42.3188591
    458,   44.9959717,          27.,   35.9589806
    459,   32.9440346,          27.,   54.3063126
    460,   30.5561295,          27.,   23.2213154
    461,   37.2250748,          27.,   39.7688637
    462,    23.457798,          27.,   38.5438499
    463,   21.0173435,          27.,   31.5930691
    464,   37.0821991,          27.,   30.1235905
    465,   36.4120445,          27.,   28.2987118
    466,   23.6959667,          27.,   29.4766159
    467,   37.0460434,          27.,   34.3682327
    468,   23.6906319,          27.,   47.8316803
    469,   25.3729115,          27.,   51.2028389
    470,   21.6898441,          27.,    27.874918
    471,    33.700882,          27.,   35.8084259
    472,   27.6412849,          27.,   25.8088379
    473,    22.459877,          27.,   41.7454948
    474,   23.0583363,          27.,   34.7927742
    475,   32.0913773,          27.,   28.5445156
    476,   28.1216354,          27.,   31.1247272
    477,   34.0762215,          27.,   31.5197182
    478,    26.758112,          27.,   48.6181526
    479,    36.616848,          27.,   53.6079063
    480,   32.7417946,          27.,   51.1080208
    481,   28.9708576,          27.,   47.9528656
    482,   36.6401215,          27.,   47.9853821
    483,   29.4342346,          27.,   50.5949821
    484,   31.8972225,          27.,   33.9840126
    485,   24.6360207,          27.,   40.7450409
    486,   29.9786987,          27.,   28.2318897
    487,    27.863039,          27.,   28.4355125
    488,   24.1607113,          27.,   32.1828766
    489,   25.9998379,          27.,   36.4857674
    490,   24.9751968,          27.,   43.8064461
    491,   30.1250343,          27.,   25.8118172
    492,    30.487751,          27.,   37.4079857
    493,    31.549942,          27.,     30.72999
    494,   30.3088684,          27.,   53.4915237
    495,   27.6231098,          27.,   39.4395218
    496,   32.4344177,          27.,   26.1753578
    497,   26.6951866,          27.,   33.4985199
    498,   26.0616112,          27.,    46.257122
    499,   34.2076454,          27.,   38.1687813
    500,   30.1376209,          27.,   32.5049324
    501,   27.8019104,          27.,   42.6107407
    502,   29.3253269,          27.,   35.5853043
    503,   31.7547493,          27.,   49.4026489
    504,   31.5970364,          27.,   39.0636826
    505,   36.9948463,          27.,   37.8067436
    506,   34.0874748,          27.,   47.9485397
    507,   31.0933552,          27.,   47.5320969
    508,   32.7889824,          27.,    42.442028
    509,   34.6634254,          27.,   40.1502228
    510,   35.0707092,          27.,   43.8224716
    511,   37.3663597,          27.,   41.7274704
    512,   28.8057709,          27.,   45.1335449
    513,   32.9790192,          27.,   45.5736122
    514,   29.9219513,          27.,   30.0071621
    515,   40.0245514,          27.,   21.4620895
    516,   36.3994789,          27.,   22.4168568
    517,   43.3260994,          27.,   52.3860054
    518,   37.2923622,          27.,   58.2860184
    519,   30.2276917,          27.,   59.9167747
    520,   37.0102768,          27.,   25.5184689
    521,   32.5280609,          27.,   56.9018707
    522,    41.931778,          27.,   34.5723343
    523,   41.5280533,          27.,   50.1894951
    524,   38.2148285,          27.,   55.9376831
    525,   21.4039345,          27.,   29.4642048
    526,   18.7029305,          27.,   43.9977837
    527,   22.6641254,          27.,    51.295826
    528,   35.9104881,          27.,   26.8536263
    529,   38.9417572,          27.,   33.5216064
    530,   39.8456841,          27.,   43.6602364
    531,    39.132328,          27.,   48.1976166
    532,   40.2337265,          27.,   52.8141937
    533,   34.1568298,          27.,   28.7974796
    534,   35.6276207,          27.,    33.285965
    535,   37.3415375,          27.,   43.7332268
    536,   37.0937805,          27.,   45.8339767
    537,   36.0610237,          27.,   50.1656151
    538,   34.5701637,          27.,   52.2902756
    539,   34.6558571,          27.,   54.9091721
    540,   26.0785313,          27.,   30.6707191
    541,    36.847599,          27.,   35.9541016
    542,   21.5575619,          27.,   44.6630936
    543,   20.0434723,          27.,   41.7723618
    544,   20.4942055,          27.,   38.2921906
    545,   34.9749336,          27.,   41.9913177
    546,    34.858799,          27.,   45.7603683
    547,   34.3687477,          27.,   49.6646118
    548,   23.0653572,          27.,   43.3450699
    549,    27.110178,          27.,   51.2019768
    550,   28.7252502,          27.,   33.9481201
    551,   32.7763634,          27.,   47.0093422
    552,   33.1065483,          27.,   43.9973755
    553,   31.0755863,          27.,   45.6767426
    554,   29.6995735,          27.,   40.1781197
    555,   30.0708847,          27.,   41.7780838
    556,   32.2932472,          27.,   40.8355827
    557,   30.7825565,          27.,   43.3141975
    558,   31.5710831,          27.,   44.2993355
    559,   33.9376984,          24.,   64.7288361
    560,   36.7789841,          24.,    63.933609
    561,   39.4425545,          24.,   62.6634102
    562,   44.0270042,          24.,   58.9694328
    563,   45.8951683,          24.,   56.6833572
    564,   48.7484741,          24.,   51.5238647
    565,   50.4402733,          24.,   45.8731003
    566,          51.,          24.,   39.9999886
    567,   50.4402695,          24.,   34.1268806
    568,   48.7484703,          24.,   28.4761238
    569,   45.8951645,          24.,   23.3166409
    570,   44.0270004,          24.,   21.0305672
    571,   39.4425507,          24.,   17.3365898
    572,   36.7789841,          24.,   16.0663891
    573,   33.9377022,          24.,   15.2711611
    574,          31.,          24.,          65.
    575,          31.,          24.,          15.
    576,   28.0622997,          24.,   15.2711611
    577,   25.2210159,          24.,   16.0663891
    578,   22.5574474,          24.,   17.3365898
    579,   17.9729958,          24.,   21.0305691
    580,   16.1048317,          24.,   23.3166447
    581,   13.2515259,          24.,   28.4761353
    582,   11.5597258,          24.,   34.1268997
    583,          11.,          24.,   40.0000114
    584,   11.5597286,          24.,   45.8731194
    585,   13.2515297,          24.,   51.5238762
    586,   16.1048336,          24.,   56.6833572
    587,   17.9729977,          24.,   58.9694328
    588,   22.5574493,          24.,   62.6634102
    589,   25.2210159,          24.,    63.933609
    590,   28.0622978,          24.,   64.7288361
    591,   41.8702965,          24.,   60.9849892
    592,   47.4688263,          24.,   54.1850395
    593,   49.7375603,          24.,   48.7414093
    594,   50.8602791,          24.,   42.9499207
    595,   50.8602791,          24.,   37.0500603
    596,   49.7375565,          24.,   31.2585735
    597,   47.4688225,          24.,   25.8149586
    598,   41.8702965,          24.,   19.0150108
    599,   20.1297016,          24.,   19.0150127
    600,   14.5311747,          24.,   25.8149624
    601,   12.2624388,          24.,   31.2585926
    602,     11.13972,          24.,   37.0500793
    603,   11.1397219,          24.,   42.9499397
    604,   12.2624445,          24.,   48.7414246
    605,   14.5311766,          24.,   54.1850395
    606,   20.1297035,          24.,   60.9849892
    607,   35.8506927,          24.,   61.3840866
    608,   20.1137028,          24.,   56.9514732
    609,   14.0589342,          24.,   45.3280487
    610,   14.2330503,          24.,   34.6853294
    611,   18.4136066,          24.,    25.135313
    612,    43.654007,          24.,   25.2684174
    613,    30.376503,          24.,   17.4907131
    614,   28.3944874,          24.,   16.9384403
    615,   26.7967663,          24.,    18.281271
    616,   41.9787254,          24.,   23.2325726
    617,   20.2512589,          24.,   23.2181435
    618,   47.6804771,          24.,   35.0948792
    619,    47.709938,          24.,   45.8206329
    620,   46.4044838,          24.,   50.8802338
    621,     43.96521,          24.,   55.4129105
    622,   18.3931103,          24.,   54.9371758
    623,   38.2421875,          24.,   60.3938789
    624,   24.2130451,          24.,   60.1130714
    625,   40.4269257,          24.,   59.0532265
    626,    45.350647,          24.,   53.2467499
    627,   47.1681824,          24.,   48.3968887
    628,   48.0449257,          24.,   43.1612473
    629,   48.0384789,          24.,   37.7708664
    630,   47.0660248,          24.,   32.4690781
    631,   45.0503731,          24.,   27.5126762
    632,    37.823597,          24.,   20.0284119
    633,   22.3990707,          24.,   21.5301189
    634,   16.9380283,          24.,   27.2958775
    635,    14.914031,          24.,   32.1125793
    636,   13.7777681,          24.,   37.3135948
    637,   13.6770897,          24.,    42.650547
    638,   14.7319555,          24.,   47.9198799
    639,   16.9113045,          24.,   52.7339096
    640,    22.008379,          24.,    58.673275
    641,   25.1309128,          24.,   57.9968758
    642,    39.164917,          24.,   57.2873764
    643,   23.9053497,          24.,   56.4820251
    644,   38.4122009,          24.,   23.6598701
    645,   40.6916237,          24.,   55.8211136
    646,   22.2300701,          24.,   54.9191971
    647,   40.1156197,          24.,   25.2361946
    648,   22.0712624,          24.,   25.2693825
    649,   20.3188229,          24.,    26.728138
    650,     20.59869,          24.,   53.1271019
    651,   41.5349731,          24.,   27.0620575
    652,   44.0336494,          24.,   50.3471947
    653,    19.168766,          24.,   28.5945034
    654,   44.5310135,          24.,   48.1669731
    655,   17.1278324,          24.,   47.0113411
    656,   43.7292252,          24.,    31.295742
    657,   44.9610138,          24.,   45.8239937
    658,   44.4750328,          24.,   33.5904922
    659,   16.4605904,          24.,    44.710144
    660,   45.2611351,          24.,   43.3849335
    661,   16.8440762,          24.,   35.2332458
    662,   16.3088894,          24.,   37.5874176
    663,   45.3765984,          24.,   40.9177017
    664,   30.8139629,          24.,   62.4362259
    665,   28.6142521,          24.,   62.7278328
    666,   32.8744011,          24.,   18.1324444
    667,   33.3486557,          24.,   62.0417557
    668,   27.0511417,          24.,   60.8572235
    669,   24.7342777,          24.,   19.9571056
    670,   35.4192162,          24.,   18.9348793
    671,   42.3347626,          24.,   57.3661957
    672,     46.18507,          24.,   29.9156284
    673,   15.6940012,          24.,   50.3850098
    674,   15.8044987,          24.,   29.6351147
    675,   48.1602898,          24.,   40.4500542
    676,   13.5868387,          24.,   39.9720306
    677,   36.6611862,          24.,   56.1189041
    678,   24.2208557,          24.,   52.9407768
    679,   38.3359375,          24.,   26.9777622
    680,   21.4455433,          24.,   49.5551338
    681,   23.2750568,          24.,   27.3199577
    682,   35.1216774,          24.,   58.9908066
    683,   27.2803497,          24.,   57.5437584
    684,    42.085495,          24.,   54.1679611
    685,   41.7923203,          24.,   48.1166687
    686,   42.2060394,          24.,    45.854126
    687,    41.296936,          24.,   32.4966278
    688,   18.3183212,          24.,   41.9948616
    689,   42.5049973,          24.,   43.5582008
    690,    42.626873,          24.,   41.2700729
    691,   19.3637943,          24.,   35.8571243
    692,   32.7821159,          24.,   59.4940033
    693,   27.2446766,          24.,   22.5592175
    694,   17.5510845,          24.,   32.9234543
    695,   34.1535606,          24.,   21.4838181
    696,   18.0586586,          24.,   49.1545219
    697,   42.7298393,          24.,   29.0804558
    698,   16.0619202,          24.,   39.9515533
    699,   45.2960587,          24.,    38.428627
    700,   30.0240574,          24.,   56.9995918
    701,   39.5665016,          24.,   45.8720093
    702,   39.9431801,          24.,   41.5316696
    703,   41.6478653,          24.,   51.7092361
    704,   20.2647018,          24.,   33.7511215
    705,   38.8946495,          24.,   54.4429703
    706,   26.6381111,          24.,   54.3008232
    707,   35.2360458,          24.,   24.5623112
    708,   25.3021259,          24.,   26.4573956
    709,   20.3886414,          24.,   47.7576981
    710,   19.4467392,          24.,    45.928093
    711,   18.4310341,          24.,   39.9533958
    712,   42.3614578,          24.,   36.7779274
    713,   40.4175301,          24.,   30.5028172
    714,   18.6384201,          24.,   37.9219398
    715,   42.5809326,          24.,   38.9799614
    716,    24.251873,          24.,   23.9265919
    717,   31.6336575,          24.,   20.7074661
    718,   18.3259888,          24.,   30.6974602
    719,   38.5882263,          24.,   50.8829918
    720,   21.6896973,          24.,   36.8436432
    721,   39.4129448,          24.,   28.6734772
    722,   38.0190811,          24.,   31.8150158
    723,   22.6797657,          24.,   46.1203918
    724,   21.0524826,          24.,   40.0544167
    725,   34.4004326,          24.,   26.6138744
    726,   34.7173729,          24.,   56.7128143
    727,   39.8928375,          24.,   39.4223747
    728,   24.6112556,          24.,   49.6536942
    729,    33.114994,          24.,   23.8423576
    730,   25.7848186,          24.,   28.8157082
    731,   39.4416504,          24.,   35.4520683
    732,   29.0234013,          24.,   19.8313503
    733,   19.2207165,          24.,   51.1720695
    734,   20.7411098,          24.,   43.0665627
    735,   39.7117348,          24.,   37.3734665
    736,   16.0851936,          24.,   42.3188591
    737,   44.9959717,          24.,   35.9589806
    738,   32.9440346,          24.,   54.3063126
    739,   30.5561295,          24.,   23.2213154
    740,   37.2250748,          24.,   39.7688637
    741,    23.457798,          24.,   38.5438499
    742,   21.0173435,          24.,   31.5930691
    743,   37.0821991,          24.,   30.1235905
    744,   36.4120445,          24.,   28.2987118
    745,   23.6959667,          24.,   29.4766159
    746,   37.0460434,          24.,   34.3682327
    747,   23.6906319,          24.,   47.8316803
    748,   25.3729115,          24.,   51.2028389
    749,   21.6898441,          24.,    27.874918
    750,    33.700882,          24.,   35.8084259
    751,   27.6412849,          24.,   25.8088379
    752,    22.459877,          24.,   41.7454948
    753,   23.0583363,          24.,   34.7927742
    754,   32.0913773,          24.,   28.5445156
    755,   28.1216354,          24.,   31.1247272
    756,   34.0762215,          24.,   31.5197182
    757,    26.758112,          24.,   48.6181526
    758,    36.616848,          24.,   53.6079063
    759,   32.7417946,          24.,   51.1080208
    760,   28.9708576,          24.,   47.9528656
    761,   36.6401215,          24.,   47.9853821
    762,   29.4342346,          24.,   50.5949821
    763,   31.8972225,          24.,   33.9840126
    764,   24.6360207,          24.,   40.7450409
    765,   29.9786987,          24.,   28.2318897
    766,    27.863039,          24.,   28.4355125
    767,   24.1607113,          24.,   32.1828766
    768,   25.9998379,          24.,   36.4857674
    769,   24.9751968,          24.,   43.8064461
    770,   30.1250343,          24.,   25.8118172
    771,    30.487751,          24.,   37.4079857
    772,    31.549942,          24.,     30.72999
    773,   30.3088684,          24.,   53.4915237
    774,   27.6231098,          24.,   39.4395218
    775,   32.4344177,          24.,   26.1753578
    776,   26.6951866,          24.,   33.4985199
    777,   26.0616112,          24.,    46.257122
    778,   34.2076454,          24.,   38.1687813
    779,   30.1376209,          24.,   32.5049324
    780,   27.8019104,          24.,   42.6107407
    781,   29.3253269,          24.,   35.5853043
    782,   31.7547493,          24.,   49.4026489
    783,   31.5970364,          24.,   39.0636826
    784,   36.9948463,          24.,   37.8067436
    785,   34.0874748,          24.,   47.9485397
    786,   31.0933552,          24.,   47.5320969
    787,   32.7889824,          24.,    42.442028
    788,   34.6634254,          24.,   40.1502228
    789,   35.0707092,          24.,   43.8224716
    790,   37.3663597,          24.,   41.7274704
    791,   28.8057709,          24.,   45.1335449
    792,   32.9790192,          24.,   45.5736122
    793,   29.9219513,          24.,   30.0071621
    794,   40.0245514,          24.,   21.4620895
    795,   36.3994789,          24.,   22.4168568
    796,   43.3260994,          24.,   52.3860054
    797,   37.2923622,          24.,   58.2860184
    798,   30.2276917,          24.,   59.9167747
    799,   37.0102768,          24.,   25.5184689
    800,   32.5280609,          24.,   56.9018707
    801,    41.931778,          24.,   34.5723343
    802,   41.5280533,          24.,   50.1894951
    803,   38.2148285,          24.,   55.9376831
    804,   21.4039345,          24.,   29.4642048
    805,   18.7029305,          24.,   43.9977837
    806,   22.6641254,          24.,    51.295826
    807,   35.9104881,          24.,   26.8536263
    808,   38.9417572,          24.,   33.5216064
    809,   39.8456841,          24.,   43.6602364
    810,    39.132328,          24.,   48.1976166
    811,   40.2337265,          24.,   52.8141937
    812,   34.1568298,          24.,   28.7974796
    813,   35.6276207,          24.,    33.285965
    814,   37.3415375,          24.,   43.7332268
    815,   37.0937805,          24.,   45.8339767
    816,   36.0610237,          24.,   50.1656151
    817,   34.5701637,          24.,   52.2902756
    818,   34.6558571,          24.,   54.9091721
    819,   26.0785313,          24.,   30.6707191
    820,    36.847599,          24.,   35.9541016
    821,   21.5575619,          24.,   44.6630936
    822,   20.0434723,          24.,   41.7723618
    823,   20.4942055,          24.,   38.2921906
    824,   34.9749336,          24.,   41.9913177
    825,    34.858799,          24.,   45.7603683
    826,   34.3687477,          24.,   49.6646118
    827,   23.0653572,          24.,   43.3450699
    828,    27.110178,          24.,   51.2019768
    829,   28.7252502,          24.,   33.9481201
    830,   32.7763634,          24.,   47.0093422
    831,   33.1065483,          24.,   43.9973755
    832,   31.0755863,          24.,   45.6767426
    833,   29.6995735,          24.,   40.1781197
    834,   30.0708847,          24.,   41.7780838
    835,   32.2932472,          24.,   40.8355827
    836,   30.7825565,          24.,   43.3141975
    837,   31.5710831,          24.,   44.2993355
    838,   33.9376984,          21.,   64.7288361
    839,   36.7789841,          21.,    63.933609
    840,   39.4425545,          21.,   62.6634102
    841,   44.0270042,          21.,   58.9694328
    842,   45.8951683,          21.,   56.6833572
    843,   48.7484741,          21.,   51.5238647
    844,   50.4402733,          21.,   45.8731003
    845,          51.,          21.,   39.9999886
    846,   50.4402695,          21.,   34.1268806
    847,   48.7484703,          21.,   28.4761238
    848,   45.8951645,          21.,   23.3166409
    849,   44.0270004,          21.,   21.0305672
    850,   39.4425507,          21.,   17.3365898
    851,   36.7789841,          21.,   16.0663891
    852,   33.9377022,          21.,   15.2711611
    853,          31.,          21.,          65.
    854,          31.,          21.,          15.
    855,   28.0622997,          21.,   15.2711611
    856,   25.2210159,          21.,   16.0663891
    857,   22.5574474,          21.,   17.3365898
    858,   17.9729958,          21.,   21.0305691
    859,   16.1048317,          21.,   23.3166447
    860,   13.2515259,          21.,   28.4761353
    861,   11.5597258,          21.,   34.1268997
    862,          11.,          21.,   40.0000114
    863,   11.5597286,          21.,   45.8731194
    864,   13.2515297,          21.,   51.5238762
    865,   16.1048336,          21.,   56.6833572
    866,   17.9729977,          21.,   58.9694328
    867,   22.5574493,          21.,   62.6634102
    868,   25.2210159,          21.,    63.933609
    869,   28.0622978,          21.,   64.7288361
    870,   41.8702965,          21.,   60.9849892
    871,   47.4688263,          21.,   54.1850395
    872,   49.7375603,          21.,   48.7414093
    873,   50.8602791,          21.,   42.9499207
    874,   50.8602791,          21.,   37.0500603
    875,   49.7375565,          21.,   31.2585735
    876,   47.4688225,          21.,   25.8149586
    877,   41.8702965,          21.,   19.0150108
    878,   20.1297016,          21.,   19.0150127
    879,   14.5311747,          21.,   25.8149624
    880,   12.2624388,          21.,   31.2585926
    881,     11.13972,          21.,   37.0500793
    882,   11.1397219,          21.,   42.9499397
    883,   12.2624445,          21.,   48.7414246
    884,   14.5311766,          21.,   54.1850395
    885,   20.1297035,          21.,   60.9849892
    886,   35.8506927,          21.,   61.3840866
    887,   20.1137028,          21.,   56.9514732
    888,   14.0589342,          21.,   45.3280487
    889,   14.2330503,          21.,   34.6853294
    890,   18.4136066,          21.,    25.135313
    891,    43.654007,          21.,   25.2684174
    892,    30.376503,          21.,   17.4907131
    893,   28.3944874,          21.,   16.9384403
    894,   26.7967663,          21.,    18.281271
    895,   41.9787254,          21.,   23.2325726
    896,   20.2512589,          21.,   23.2181435
    897,   47.6804771,          21.,   35.0948792
    898,    47.709938,          21.,   45.8206329
    899,   46.4044838,          21.,   50.8802338
    900,     43.96521,          21.,   55.4129105
    901,   18.3931103,          21.,   54.9371758
    902,   38.2421875,          21.,   60.3938789
    903,   24.2130451,          21.,   60.1130714
    904,   40.4269257,          21.,   59.0532265
    905,    45.350647,          21.,   53.2467499
    906,   47.1681824,          21.,   48.3968887
    907,   48.0449257,          21.,   43.1612473
    908,   48.0384789,          21.,   37.7708664
    909,   47.0660248,          21.,   32.4690781
    910,   45.0503731,          21.,   27.5126762
    911,    37.823597,          21.,   20.0284119
    912,   22.3990707,          21.,   21.5301189
    913,   16.9380283,          21.,   27.2958775
    914,    14.914031,          21.,   32.1125793
    915,   13.7777681,          21.,   37.3135948
    916,   13.6770897,          21.,    42.650547
    917,   14.7319555,          21.,   47.9198799
    918,   16.9113045,          21.,   52.7339096
    919,    22.008379,          21.,    58.673275
    920,   25.1309128,          21.,   57.9968758
    921,    39.164917,          21.,   57.2873764
    922,   23.9053497,          21.,   56.4820251
    923,   38.4122009,          21.,   23.6598701
    924,   40.6916237,          21.,   55.8211136
    925,   22.2300701,          21.,   54.9191971
    926,   40.1156197,          21.,   25.2361946
    927,   22.0712624,          21.,   25.2693825
    928,   20.3188229,          21.,    26.728138
    929,     20.59869,          21.,   53.1271019
    930,   41.5349731,          21.,   27.0620575
    931,   44.0336494,          21.,   50.3471947
    932,    19.168766,          21.,   28.5945034
    933,   44.5310135,          21.,   48.1669731
    934,   17.1278324,          21.,   47.0113411
    935,   43.7292252,          21.,    31.295742
    936,   44.9610138,          21.,   45.8239937
    937,   44.4750328,          21.,   33.5904922
    938,   16.4605904,          21.,    44.710144
    939,   45.2611351,          21.,   43.3849335
    940,   16.8440762,          21.,   35.2332458
    941,   16.3088894,          21.,   37.5874176
    942,   45.3765984,          21.,   40.9177017
    943,   30.8139629,          21.,   62.4362259
    944,   28.6142521,          21.,   62.7278328
    945,   32.8744011,          21.,   18.1324444
    946,   33.3486557,          21.,   62.0417557
    947,   27.0511417,          21.,   60.8572235
    948,   24.7342777,          21.,   19.9571056
    949,   35.4192162,          21.,   18.9348793
    950,   42.3347626,          21.,   57.3661957
    951,     46.18507,          21.,   29.9156284
    952,   15.6940012,          21.,   50.3850098
    953,   15.8044987,          21.,   29.6351147
    954,   48.1602898,          21.,   40.4500542
    955,   13.5868387,          21.,   39.9720306
    956,   36.6611862,          21.,   56.1189041
    957,   24.2208557,          21.,   52.9407768
    958,   38.3359375,          21.,   26.9777622
    959,   21.4455433,          21.,   49.5551338
    960,   23.2750568,          21.,   27.3199577
    961,   35.1216774,          21.,   58.9908066
    962,   27.2803497,          21.,   57.5437584
    963,    42.085495,          21.,   54.1679611
    964,   41.7923203,          21.,   48.1166687
    965,   42.2060394,          21.,    45.854126
    966,    41.296936,          21.,   32.4966278
    967,   18.3183212,          21.,   41.9948616
    968,   42.5049973,          21.,   43.5582008
    969,    42.626873,          21.,   41.2700729
    970,   19.3637943,          21.,   35.8571243
    971,   32.7821159,          21.,   59.4940033
    972,   27.2446766,          21.,   22.5592175
    973,   17.5510845,          21.,   32.9234543
    974,   34.1535606,          21.,   21.4838181
    975,   18.0586586,          21.,   49.1545219
    976,   42.7298393,          21.,   29.0804558
    977,   16.0619202,          21.,   39.9515533
    978,   45.2960587,          21.,    38.428627
    979,   30.0240574,          21.,   56.9995918
    980,   39.5665016,          21.,   45.8720093
    981,   39.9431801,          21.,   41.5316696
    982,   41.6478653,          21.,   51.7092361
    983,   20.2647018,          21.,   33.7511215
    984,   38.8946495,          21.,   54.4429703
    985,   26.6381111,          21.,   54.3008232
    986,   35.2360458,          21.,   24.5623112
    987,   25.3021259,          21.,   26.4573956
    988,   20.3886414,          21.,   47.7576981
    989,   19.4467392,          21.,    45.928093
    990,   18.4310341,          21.,   39.9533958
    991,   42.3614578,          21.,   36.7779274
    992,   40.4175301,          21.,   30.5028172
    993,   18.6384201,          21.,   37.9219398
    994,   42.5809326,          21.,   38.9799614
    995,    24.251873,          21.,   23.9265919
    996,   31.6336575,          21.,   20.7074661
    997,   18.3259888,          21.,   30.6974602
    998,   38.5882263,          21.,   50.8829918
    999,   21.6896973,          21.,   36.8436432
   1000,   39.4129448,          21.,   28.6734772
   1001,   38.0190811,          21.,   31.8150158
   1002,   22.6797657,          21.,   46.1203918
   1003,   21.0524826,          21.,   40.0544167
   1004,   34.4004326,          21.,   26.6138744
   1005,   34.7173729,          21.,   56.7128143
   1006,   39.8928375,          21.,   39.4223747
   1007,   24.6112556,          21.,   49.6536942
   1008,    33.114994,          21.,   23.8423576
   1009,   25.7848186,          21.,   28.8157082
   1010,   39.4416504,          21.,   35.4520683
   1011,   29.0234013,          21.,   19.8313503
   1012,   19.2207165,          21.,   51.1720695
   1013,   20.7411098,          21.,   43.0665627
   1014,   39.7117348,          21.,   37.3734665
   1015,   16.0851936,          21.,   42.3188591
   1016,   44.9959717,          21.,   35.9589806
   1017,   32.9440346,          21.,   54.3063126
   1018,   30.5561295,          21.,   23.2213154
   1019,   37.2250748,          21.,   39.7688637
   1020,    23.457798,          21.,   38.5438499
   1021,   21.0173435,          21.,   31.5930691
   1022,   37.0821991,          21.,   30.1235905
   1023,   36.4120445,          21.,   28.2987118
   1024,   23.6959667,          21.,   29.4766159
   1025,   37.0460434,          21.,   34.3682327
   1026,   23.6906319,          21.,   47.8316803
   1027,   25.3729115,          21.,   51.2028389
   1028,   21.6898441,          21.,    27.874918
   1029,    33.700882,          21.,   35.8084259
   1030,   27.6412849,          21.,   25.8088379
   1031,    22.459877,          21.,   41.7454948
   1032,   23.0583363,          21.,   34.7927742
   1033,   32.0913773,          21.,   28.5445156
   1034,   28.1216354,          21.,   31.1247272
   1035,   34.0762215,          21.,   31.5197182
   1036,    26.758112,          21.,   48.6181526
   1037,    36.616848,          21.,   53.6079063
   1038,   32.7417946,          21.,   51.1080208
   1039,   28.9708576,          21.,   47.9528656
   1040,   36.6401215,          21.,   47.9853821
   1041,   29.4342346,          21.,   50.5949821
   1042,   31.8972225,          21.,   33.9840126
   1043,   24.6360207,          21.,   40.7450409
   1044,   29.9786987,          21.,   28.2318897
   1045,    27.863039,          21.,   28.4355125
   1046,   24.1607113,          21.,   32.1828766
   1047,   25.9998379,          21.,   36.4857674
   1048,   24.9751968,          21.,   43.8064461
   1049,   30.1250343,          21.,   25.8118172
   1050,    30.487751,          21.,   37.4079857
   1051,    31.549942,          21.,     30.72999
   1052,   30.3088684,          21.,   53.4915237
   1053,   27.6231098,          21.,   39.4395218
   1054,   32.4344177,          21.,   26.1753578
   1055,   26.6951866,          21.,   33.4985199
   1056,   26.0616112,          21.,    46.257122
   1057,   34.2076454,          21.,   38.1687813
   1058,   30.1376209,          21.,   32.5049324
   1059,   27.8019104,          21.,   42.6107407
   1060,   29.3253269,          21.,   35.5853043
   1061,   31.7547493,          21.,   49.4026489
   1062,   31.5970364,          21.,   39.0636826
   1063,   36.9948463,          21.,   37.8067436
   1064,   34.0874748,          21.,   47.9485397
   1065,   31.0933552,          21.,   47.5320969
   1066,   32.7889824,          21.,    42.442028
   1067,   34.6634254,          21.,   40.1502228
   1068,   35.0707092,          21.,   43.8224716
   1069,   37.3663597,          21.,   41.7274704
   1070,   28.8057709,          21.,   45.1335449
   1071,   32.9790192,          21.,   45.5736122
   1072,   29.9219513,          21.,   30.0071621
   1073,   40.0245514,          21.,   21.4620895
   1074,   36.3994789,          21.,   22.4168568
   1075,   43.3260994,          21.,   52.3860054
   1076,   37.2923622,          21.,   58.2860184
   1077,   30.2276917,          21.,   59.9167747
   1078,   37.0102768,          21.,   25.5184689
   1079,   32.5280609,          21.,   56.9018707
   1080,    41.931778,          21.,   34.5723343
   1081,   41.5280533,          21.,   50.1894951
   1082,   38.2148285,          21.,   55.9376831
   1083,   21.4039345,          21.,   29.4642048
   1084,   18.7029305,          21.,   43.9977837
   1085,   22.6641254,          21.,    51.295826
   1086,   35.9104881,          21.,   26.8536263
   1087,   38.9417572,          21.,   33.5216064
   1088,   39.8456841,          21.,   43.6602364
   1089,    39.132328,          21.,   48.1976166
   1090,   40.2337265,          21.,   52.8141937
   1091,   34.1568298,          21.,   28.7974796
   1092,   35.6276207,          21.,    33.285965
   1093,   37.3415375,          21.,   43.7332268
   1094,   37.0937805,          21.,   45.8339767
   1095,   36.0610237,          21.,   50.1656151
   1096,   34.5701637,          21.,   52.2902756
   1097,   34.6558571,          21.,   54.9091721
   1098,   26.0785313,          21.,   30.6707191
   1099,    36.847599,          21.,   35.9541016
   1100,   21.5575619,          21.,   44.6630936
   1101,   20.0434723,          21.,   41.7723618
   1102,   20.4942055,          21.,   38.2921906
   1103,   34.9749336,          21.,   41.9913177
   1104,    34.858799,          21.,   45.7603683
   1105,   34.3687477,          21.,   49.6646118
   1106,   23.0653572,          21.,   43.3450699
   1107,    27.110178,          21.,   51.2019768
   1108,   28.7252502,          21.,   33.9481201
   1109,   32.7763634,          21.,   47.0093422
   1110,   33.1065483,          21.,   43.9973755
   1111,   31.0755863,          21.,   45.6767426
   1112,   29.6995735,          21.,   40.1781197
   1113,   30.0708847,          21.,   41.7780838
   1114,   32.2932472,          21.,   40.8355827
   1115,   30.7825565,          21.,   43.3141975
   1116,   31.5710831,          21.,   44.2993355
   1117,   33.9376984,          18.,   64.7288361
   1118,   36.7789841,          18.,    63.933609
   1119,   39.4425545,          18.,   62.6634102
   1120,   44.0270042,          18.,   58.9694328
   1121,   45.8951683,          18.,   56.6833572
   1122,   48.7484741,          18.,   51.5238647
   1123,   50.4402733,          18.,   45.8731003
   1124,          51.,          18.,   39.9999886
   1125,   50.4402695,          18.,   34.1268806
   1126,   48.7484703,          18.,   28.4761238
   1127,   45.8951645,          18.,   23.3166409
   1128,   44.0270004,          18.,   21.0305672
   1129,   39.4425507,          18.,   17.3365898
   1130,   36.7789841,          18.,   16.0663891
   1131,   33.9377022,          18.,   15.2711611
   1132,          31.,          18.,          65.
   1133,          31.,          18.,          15.
   1134,   28.0622997,          18.,   15.2711611
   1135,   25.2210159,          18.,   16.0663891
   1136,   22.5574474,          18.,   17.3365898
   1137,   17.9729958,          18.,   21.0305691
   1138,   16.1048317,          18.,   23.3166447
   1139,   13.2515259,          18.,   28.4761353
   1140,   11.5597258,          18.,   34.1268997
   1141,          11.,          18.,   40.0000114
   1142,   11.5597286,          18.,   45.8731194
   1143,   13.2515297,          18.,   51.5238762
   1144,   16.1048336,          18.,   56.6833572
   1145,   17.9729977,          18.,   58.9694328
   1146,   22.5574493,          18.,   62.6634102
   1147,   25.2210159,          18.,    63.933609
   1148,   28.0622978,          18.,   64.7288361
   1149,   41.8702965,          18.,   60.9849892
   1150,   47.4688263,          18.,   54.1850395
   1151,   49.7375603,          18.,   48.7414093
   1152,   50.8602791,          18.,   42.9499207
   1153,   50.8602791,          18.,   37.0500603
   1154,   49.7375565,          18.,   31.2585735
   1155,   47.4688225,          18.,   25.8149586
   1156,   41.8702965,          18.,   19.0150108
   1157,   20.1297016,          18.,   19.0150127
   1158,   14.5311747,          18.,   25.8149624
   1159,   12.2624388,          18.,   31.2585926
   1160,     11.13972,          18.,   37.0500793
   1161,   11.1397219,          18.,   42.9499397
   1162,   12.2624445,          18.,   48.7414246
   1163,   14.5311766,          18.,   54.1850395
   1164,   20.1297035,          18.,   60.9849892
   1165,   35.8506927,          18.,   61.3840866
   1166,   20.1137028,          18.,   56.9514732
   1167,   14.0589342,          18.,   45.3280487
   1168,   14.2330503,          18.,   34.6853294
   1169,   18.4136066,          18.,    25.135313
   1170,    43.654007,          18.,   25.2684174
   1171,    30.376503,          18.,   17.4907131
   1172,   28.3944874,          18.,   16.9384403
   1173,   26.7967663,          18.,    18.281271
   1174,   41.9787254,          18.,   23.2325726
   1175,   20.2512589,          18.,   23.2181435
   1176,   47.6804771,          18.,   35.0948792
   1177,    47.709938,          18.,   45.8206329
   1178,   46.4044838,          18.,   50.8802338
   1179,     43.96521,          18.,   55.4129105
   1180,   18.3931103,          18.,   54.9371758
   1181,   38.2421875,          18.,   60.3938789
   1182,   24.2130451,          18.,   60.1130714
   1183,   40.4269257,          18.,   59.0532265
   1184,    45.350647,          18.,   53.2467499
   1185,   47.1681824,          18.,   48.3968887
   1186,   48.0449257,          18.,   43.1612473
   1187,   48.0384789,          18.,   37.7708664
   1188,   47.0660248,          18.,   32.4690781
   1189,   45.0503731,          18.,   27.5126762
   1190,    37.823597,          18.,   20.0284119
   1191,   22.3990707,          18.,   21.5301189
   1192,   16.9380283,          18.,   27.2958775
   1193,    14.914031,          18.,   32.1125793
   1194,   13.7777681,          18.,   37.3135948
   1195,   13.6770897,          18.,    42.650547
   1196,   14.7319555,          18.,   47.9198799
   1197,   16.9113045,          18.,   52.7339096
   1198,    22.008379,          18.,    58.673275
   1199,   25.1309128,          18.,   57.9968758
   1200,    39.164917,          18.,   57.2873764
   1201,   23.9053497,          18.,   56.4820251
   1202,   38.4122009,          18.,   23.6598701
   1203,   40.6916237,          18.,   55.8211136
   1204,   22.2300701,          18.,   54.9191971
   1205,   40.1156197,          18.,   25.2361946
   1206,   22.0712624,          18.,   25.2693825
   1207,   20.3188229,          18.,    26.728138
   1208,     20.59869,          18.,   53.1271019
   1209,   41.5349731,          18.,   27.0620575
   1210,   44.0336494,          18.,   50.3471947
   1211,    19.168766,          18.,   28.5945034
   1212,   44.5310135,          18.,   48.1669731
   1213,   17.1278324,          18.,   47.0113411
   1214,   43.7292252,          18.,    31.295742
   1215,   44.9610138,          18.,   45.8239937
   1216,   44.4750328,          18.,   33.5904922
   1217,   16.4605904,          18.,    44.710144
   1218,   45.2611351,          18.,   43.3849335
   1219,   16.8440762,          18.,   35.2332458
   1220,   16.3088894,          18.,   37.5874176
   1221,   45.3765984,          18.,   40.9177017
   1222,   30.8139629,          18.,   62.4362259
   1223,   28.6142521,          18.,   62.7278328
   1224,   32.8744011,          18.,   18.1324444
   1225,   33.3486557,          18.,   62.0417557
   1226,   27.0511417,          18.,   60.8572235
   1227,   24.7342777,          18.,   19.9571056
   1228,   35.4192162,          18.,   18.9348793
   1229,   42.3347626,          18.,   57.3661957
   1230,     46.18507,          18.,   29.9156284
   1231,   15.6940012,          18.,   50.3850098
   1232,   15.8044987,          18.,   29.6351147
   1233,   48.1602898,          18.,   40.4500542
   1234,   13.5868387,          18.,   39.9720306
   1235,   36.6611862,          18.,   56.1189041
   1236,   24.2208557,          18.,   52.9407768
   1237,   38.3359375,          18.,   26.9777622
   1238,   21.4455433,          18.,   49.5551338
   1239,   23.2750568,          18.,   27.3199577
   1240,   35.1216774,          18.,   58.9908066
   1241,   27.2803497,          18.,   57.5437584
   1242,    42.085495,          18.,   54.1679611
   1243,   41.7923203,          18.,   48.1166687
   1244,   42.2060394,          18.,    45.854126
   1245,    41.296936,          18.,   32.4966278
   1246,   18.3183212,          18.,   41.9948616
   1247,   42.5049973,          18.,   43.5582008
   1248,    42.626873,          18.,   41.2700729
   1249,   19.3637943,          18.,   35.8571243
   1250,   32.7821159,          18.,   59.4940033
   1251,   27.2446766,          18.,   22.5592175
   1252,   17.5510845,          18.,   32.9234543
   1253,   34.1535606,          18.,   21.4838181
   1254,   18.0586586,          18.,   49.1545219
   1255,   42.7298393,          18.,   29.0804558
   1256,   16.0619202,          18.,   39.9515533
   1257,   45.2960587,          18.,    38.428627
   1258,   30.0240574,          18.,   56.9995918
   1259,   39.5665016,          18.,   45.8720093
   1260,   39.9431801,          18.,   41.5316696
   1261,   41.6478653,          18.,   51.7092361
   1262,   20.2647018,          18.,   33.7511215
   1263,   38.8946495,          18.,   54.4429703
   1264,   26.6381111,          18.,   54.3008232
   1265,   35.2360458,          18.,   24.5623112
   1266,   25.3021259,          18.,   26.4573956
   1267,   20.3886414,          18.,   47.7576981
   1268,   19.4467392,          18.,    45.928093
   1269,   18.4310341,          18.,   39.9533958
   1270,   42.3614578,          18.,   36.7779274
   1271,   40.4175301,          18.,   30.5028172
   1272,   18.6384201,          18.,   37.9219398
   1273,   42.5809326,          18.,   38.9799614
   1274,    24.251873,          18.,   23.9265919
   1275,   31.6336575,          18.,   20.7074661
   1276,   18.3259888,          18.,   30.6974602
   1277,   38.5882263,          18.,   50.8829918
   1278,   21.6896973,          18.,   36.8436432
   1279,   39.4129448,          18.,   28.6734772
   1280,   38.0190811,          18.,   31.8150158
   1281,   22.6797657,          18.,   46.1203918
   1282,   21.0524826,          18.,   40.0544167
   1283,   34.4004326,          18.,   26.6138744
   1284,   34.7173729,          18.,   56.7128143
   1285,   39.8928375,          18.,   39.4223747
   1286,   24.6112556,          18.,   49.6536942
   1287,    33.114994,          18.,   23.8423576
   1288,   25.7848186,          18.,   28.8157082
   1289,   39.4416504,          18.,   35.4520683
   1290,   29.0234013,          18.,   19.8313503
   1291,   19.2207165,          18.,   51.1720695
   1292,   20.7411098,          18.,   43.0665627
   1293,   39.7117348,          18.,   37.3734665
   1294,   16.0851936,          18.,   42.3188591
   1295,   44.9959717,          18.,   35.9589806
   1296,   32.9440346,          18.,   54.3063126
   1297,   30.5561295,          18.,   23.2213154
   1298,   37.2250748,          18.,   39.7688637
   1299,    23.457798,          18.,   38.5438499
   1300,   21.0173435,          18.,   31.5930691
   1301,   37.0821991,          18.,   30.1235905
   1302,   36.4120445,          18.,   28.2987118
   1303,   23.6959667,          18.,   29.4766159
   1304,   37.0460434,          18.,   34.3682327
   1305,   23.6906319,          18.,   47.8316803
   1306,   25.3729115,          18.,   51.2028389
   1307,   21.6898441,          18.,    27.874918
   1308,    33.700882,          18.,   35.8084259
   1309,   27.6412849,          18.,   25.8088379
   1310,    22.459877,          18.,   41.7454948
   1311,   23.0583363,          18.,   34.7927742
   1312,   32.0913773,          18.,   28.5445156
   1313,   28.1216354,          18.,   31.1247272
   1314,   34.0762215,          18.,   31.5197182
   1315,    26.758112,          18.,   48.6181526
   1316,    36.616848,          18.,   53.6079063
   1317,   32.7417946,          18.,   51.1080208
   1318,   28.9708576,          18.,   47.9528656
   1319,   36.6401215,          18.,   47.9853821
   1320,   29.4342346,          18.,   50.5949821
   1321,   31.8972225,          18.,   33.9840126
   1322,   24.6360207,          18.,   40.7450409
   1323,   29.9786987,          18.,   28.2318897
   1324,    27.863039,          18.,   28.4355125
   1325,   24.1607113,          18.,   32.1828766
   1326,   25.9998379,          18.,   36.4857674
   1327,   24.9751968,          18.,   43.8064461
   1328,   30.1250343,          18.,   25.8118172
   1329,    30.487751,          18.,   37.4079857
   1330,    31.549942,          18.,     30.72999
   1331,   30.3088684,          18.,   53.4915237
   1332,   27.6231098,          18.,   39.4395218
   1333,   32.4344177,          18.,   26.1753578
   1334,   26.6951866,          18.,   33.4985199
   1335,   26.0616112,          18.,    46.257122
   1336,   34.2076454,          18.,   38.1687813
   1337,   30.1376209,          18.,   32.5049324
   1338,   27.8019104,          18.,   42.6107407
   1339,   29.3253269,          18.,   35.5853043
   1340,   31.7547493,          18.,   49.4026489
   1341,   31.5970364,          18.,   39.0636826
   1342,   36.9948463,          18.,   37.8067436
   1343,   34.0874748,          18.,   47.9485397
   1344,   31.0933552,          18.,   47.5320969
   1345,   32.7889824,          18.,    42.442028
   1346,   34.6634254,          18.,   40.1502228
   1347,   35.0707092,          18.,   43.8224716
   1348,   37.3663597,          18.,   41.7274704
   1349,   28.8057709,          18.,   45.1335449
   1350,   32.9790192,          18.,   45.5736122
   1351,   29.9219513,          18.,   30.0071621
   1352,   40.0245514,          18.,   21.4620895
   1353,   36.3994789,          18.,   22.4168568
   1354,   43.3260994,          18.,   52.3860054
   1355,   37.2923622,          18.,   58.2860184
   1356,   30.2276917,          18.,   59.9167747
   1357,   37.0102768,          18.,   25.5184689
   1358,   32.5280609,          18.,   56.9018707
   1359,    41.931778,          18.,   34.5723343
   1360,   41.5280533,          18.,   50.1894951
   1361,   38.2148285,          18.,   55.9376831
   1362,   21.4039345,          18.,   29.4642048
   1363,   18.7029305,          18.,   43.9977837
   1364,   22.6641254,          18.,    51.295826
   1365,   35.9104881,          18.,   26.8536263
   1366,   38.9417572,          18.,   33.5216064
   1367,   39.8456841,          18.,   43.6602364
   1368,    39.132328,          18.,   48.1976166
   1369,   40.2337265,          18.,   52.8141937
   1370,   34.1568298,          18.,   28.7974796
   1371,   35.6276207,          18.,    33.285965
   1372,   37.3415375,          18.,   43.7332268
   1373,   37.0937805,          18.,   45.8339767
   1374,   36.0610237,          18.,   50.1656151
   1375,   34.5701637,          18.,   52.2902756
   1376,   34.6558571,          18.,   54.9091721
   1377,   26.0785313,          18.,   30.6707191
   1378,    36.847599,          18.,   35.9541016
   1379,   21.5575619,          18.,   44.6630936
   1380,   20.0434723,          18.,   41.7723618
   1381,   20.4942055,          18.,   38.2921906
   1382,   34.9749336,          18.,   41.9913177
   1383,    34.858799,          18.,   45.7603683
   1384,   34.3687477,          18.,   49.6646118
   1385,   23.0653572,          18.,   43.3450699
   1386,    27.110178,          18.,   51.2019768
   1387,   28.7252502,          18.,   33.9481201
   1388,   32.7763634,          18.,   47.0093422
   1389,   33.1065483,          18.,   43.9973755
   1390,   31.0755863,          18.,   45.6767426
   1391,   29.6995735,          18.,   40.1781197
   1392,   30.0708847,          18.,   41.7780838
   1393,   32.2932472,          18.,   40.8355827
   1394,   30.7825565,          18.,   43.3141975
   1395,   31.5710831,          18.,   44.2993355
   1396,   33.9376984,          15.,   64.7288361
   1397,   36.7789841,          15.,    63.933609
   1398,   39.4425545,          15.,   62.6634102
   1399,   44.0270042,          15.,   58.9694328
   1400,   45.8951683,          15.,   56.6833572
   1401,   48.7484741,          15.,   51.5238647
   1402,   50.4402733,          15.,   45.8731003
   1403,          51.,          15.,   39.9999886
   1404,   50.4402695,          15.,   34.1268806
   1405,   48.7484703,          15.,   28.4761238
   1406,   45.8951645,          15.,   23.3166409
   1407,   44.0270004,          15.,   21.0305672
   1408,   39.4425507,          15.,   17.3365898
   1409,   36.7789841,          15.,   16.0663891
   1410,   33.9377022,          15.,   15.2711611
   1411,          31.,          15.,          65.
   1412,          31.,          15.,          15.
   1413,   28.0622997,          15.,   15.2711611
   1414,   25.2210159,          15.,   16.0663891
   1415,   22.5574474,          15.,   17.3365898
   1416,   17.9729958,          15.,   21.0305691
   1417,   16.1048317,          15.,   23.3166447
   1418,   13.2515259,          15.,   28.4761353
   1419,   11.5597258,          15.,   34.1268997
   1420,          11.,          15.,   40.0000114
   1421,   11.5597286,          15.,   45.8731194
   1422,   13.2515297,          15.,   51.5238762
   1423,   16.1048336,          15.,   56.6833572
   1424,   17.9729977,          15.,   58.9694328
   1425,   22.5574493,          15.,   62.6634102
   1426,   25.2210159,          15.,    63.933609
   1427,   28.0622978,          15.,   64.7288361
   1428,   41.8702965,          15.,   60.9849892
   1429,   47.4688263,          15.,   54.1850395
   1430,   49.7375603,          15.,   48.7414093
   1431,   50.8602791,          15.,   42.9499207
   1432,   50.8602791,          15.,   37.0500603
   1433,   49.7375565,          15.,   31.2585735
   1434,   47.4688225,          15.,   25.8149586
   1435,   41.8702965,          15.,   19.0150108
   1436,   20.1297016,          15.,   19.0150127
   1437,   14.5311747,          15.,   25.8149624
   1438,   12.2624388,          15.,   31.2585926
   1439,     11.13972,          15.,   37.0500793
   1440,   11.1397219,          15.,   42.9499397
   1441,   12.2624445,          15.,   48.7414246
   1442,   14.5311766,          15.,   54.1850395
   1443,   20.1297035,          15.,   60.9849892
   1444,   35.8506927,          15.,   61.3840866
   1445,   20.1137028,          15.,   56.9514732
   1446,   14.0589342,          15.,   45.3280487
   1447,   14.2330503,          15.,   34.6853294
   1448,   18.4136066,          15.,    25.135313
   1449,    43.654007,          15.,   25.2684174
   1450,    30.376503,          15.,   17.4907131
   1451,   28.3944874,          15.,   16.9384403
   1452,   26.7967663,          15.,    18.281271
   1453,   41.9787254,          15.,   23.2325726
   1454,   20.2512589,          15.,   23.2181435
   1455,   47.6804771,          15.,   35.0948792
   1456,    47.709938,          15.,   45.8206329
   1457,   46.4044838,          15.,   50.8802338
   1458,     43.96521,          15.,   55.4129105
   1459,   18.3931103,          15.,   54.9371758
   1460,   38.2421875,          15.,   60.3938789
   1461,   24.2130451,          15.,   60.1130714
   1462,   40.4269257,          15.,   59.0532265
   1463,    45.350647,          15.,   53.2467499
   1464,   47.1681824,          15.,   48.3968887
   1465,   48.0449257,          15.,   43.1612473
   1466,   48.0384789,          15.,   37.7708664
   1467,   47.0660248,          15.,   32.4690781
   1468,   45.0503731,          15.,   27.5126762
   1469,    37.823597,          15.,   20.0284119
   1470,   22.3990707,          15.,   21.5301189
   1471,   16.9380283,          15.,   27.2958775
   1472,    14.914031,          15.,   32.1125793
   1473,   13.7777681,          15.,   37.3135948
   1474,   13.6770897,          15.,    42.650547
   1475,   14.7319555,          15.,   47.9198799
   1476,   16.9113045,          15.,   52.7339096
   1477,    22.008379,          15.,    58.673275
   1478,   25.1309128,          15.,   57.9968758
   1479,    39.164917,          15.,   57.2873764
   1480,   23.9053497,          15.,   56.4820251
   1481,   38.4122009,          15.,   23.6598701
   1482,   40.6916237,          15.,   55.8211136
   1483,   22.2300701,          15.,   54.9191971
   1484,   40.1156197,          15.,   25.2361946
   1485,   22.0712624,          15.,   25.2693825
   1486,   20.3188229,          15.,    26.728138
   1487,     20.59869,          15.,   53.1271019
   1488,   41.5349731,          15.,   27.0620575
   1489,   44.0336494,          15.,   50.3471947
   1490,    19.168766,          15.,   28.5945034
   1491,   44.5310135,          15.,   48.1669731
   1492,   17.1278324,          15.,   47.0113411
   1493,   43.7292252,          15.,    31.295742
   1494,   44.9610138,          15.,   45.8239937
   1495,   44.4750328,          15.,   33.5904922
   1496,   16.4605904,          15.,    44.710144
   1497,   45.2611351,          15.,   43.3849335
   1498,   16.8440762,          15.,   35.2332458
   1499,   16.3088894,          15.,   37.5874176
   1500,   45.3765984,          15.,   40.9177017
   1501,   30.8139629,          15.,   62.4362259
   1502,   28.6142521,          15.,   62.7278328
   1503,   32.8744011,          15.,   18.1324444
   1504,   33.3486557,          15.,   62.0417557
   1505,   27.0511417,          15.,   60.8572235
   1506,   24.7342777,          15.,   19.9571056
   1507,   35.4192162,          15.,   18.9348793
   1508,   42.3347626,          15.,   57.3661957
   1509,     46.18507,          15.,   29.9156284
   1510,   15.6940012,          15.,   50.3850098
   1511,   15.8044987,          15.,   29.6351147
   1512,   48.1602898,          15.,   40.4500542
   1513,   13.5868387,          15.,   39.9720306
   1514,   36.6611862,          15.,   56.1189041
   1515,   24.2208557,          15.,   52.9407768
   1516,   38.3359375,          15.,   26.9777622
   1517,   21.4455433,          15.,   49.5551338
   1518,   23.2750568,          15.,   27.3199577
   1519,   35.1216774,          15.,   58.9908066
   1520,   27.2803497,          15.,   57.5437584
   1521,    42.085495,          15.,   54.1679611
   1522,   41.7923203,          15.,   48.1166687
   1523,   42.2060394,          15.,    45.854126
   1524,    41.296936,          15.,   32.4966278
   1525,   18.3183212,          15.,   41.9948616
   1526,   42.5049973,          15.,   43.5582008
   1527,    42.626873,          15.,   41.2700729
   1528,   19.3637943,          15.,   35.8571243
   1529,   32.7821159,          15.,   59.4940033
   1530,   27.2446766,          15.,   22.5592175
   1531,   17.5510845,          15.,   32.9234543
   1532,   34.1535606,          15.,   21.4838181
   1533,   18.0586586,          15.,   49.1545219
   1534,   42.7298393,          15.,   29.0804558
   1535,   16.0619202,          15.,   39.9515533
   1536,   45.2960587,          15.,    38.428627
   1537,   30.0240574,          15.,   56.9995918
   1538,   39.5665016,          15.,   45.8720093
   1539,   39.9431801,          15.,   41.5316696
   1540,   41.6478653,          15.,   51.7092361
   1541,   20.2647018,          15.,   33.7511215
   1542,   38.8946495,          15.,   54.4429703
   1543,   26.6381111,          15.,   54.3008232
   1544,   35.2360458,          15.,   24.5623112
   1545,   25.3021259,          15.,   26.4573956
   1546,   20.3886414,          15.,   47.7576981
   1547,   19.4467392,          15.,    45.928093
   1548,   18.4310341,          15.,   39.9533958
   1549,   42.3614578,          15.,   36.7779274
   1550,   40.4175301,          15.,   30.5028172
   1551,   18.6384201,          15.,   37.9219398
   1552,   42.5809326,          15.,   38.9799614
   1553,    24.251873,          15.,   23.9265919
   1554,   31.6336575,          15.,   20.7074661
   1555,   18.3259888,          15.,   30.6974602
   1556,   38.5882263,          15.,   50.8829918
   1557,   21.6896973,          15.,   36.8436432
   1558,   39.4129448,          15.,   28.6734772
   1559,   38.0190811,          15.,   31.8150158
   1560,   22.6797657,          15.,   46.1203918
   1561,   21.0524826,          15.,   40.0544167
   1562,   34.4004326,          15.,   26.6138744
   1563,   34.7173729,          15.,   56.7128143
   1564,   39.8928375,          15.,   39.4223747
   1565,   24.6112556,          15.,   49.6536942
   1566,    33.114994,          15.,   23.8423576
   1567,   25.7848186,          15.,   28.8157082
   1568,   39.4416504,          15.,   35.4520683
   1569,   29.0234013,          15.,   19.8313503
   1570,   19.2207165,          15.,   51.1720695
   1571,   20.7411098,          15.,   43.0665627
   1572,   39.7117348,          15.,   37.3734665
   1573,   16.0851936,          15.,   42.3188591
   1574,   44.9959717,          15.,   35.9589806
   1575,   32.9440346,          15.,   54.3063126
   1576,   30.5561295,          15.,   23.2213154
   1577,   37.2250748,          15.,   39.7688637
   1578,    23.457798,          15.,   38.5438499
   1579,   21.0173435,          15.,   31.5930691
   1580,   37.0821991,          15.,   30.1235905
   1581,   36.4120445,          15.,   28.2987118
   1582,   23.6959667,          15.,   29.4766159
   1583,   37.0460434,          15.,   34.3682327
   1584,   23.6906319,          15.,   47.8316803
   1585,   25.3729115,          15.,   51.2028389
   1586,   21.6898441,          15.,    27.874918
   1587,    33.700882,          15.,   35.8084259
   1588,   27.6412849,          15.,   25.8088379
   1589,    22.459877,          15.,   41.7454948
   1590,   23.0583363,          15.,   34.7927742
   1591,   32.0913773,          15.,   28.5445156
   1592,   28.1216354,          15.,   31.1247272
   1593,   34.0762215,          15.,   31.5197182
   1594,    26.758112,          15.,   48.6181526
   1595,    36.616848,          15.,   53.6079063
   1596,   32.7417946,          15.,   51.1080208
   1597,   28.9708576,          15.,   47.9528656
   1598,   36.6401215,          15.,   47.9853821
   1599,   29.4342346,          15.,   50.5949821
   1600,   31.8972225,          15.,   33.9840126
   1601,   24.6360207,          15.,   40.7450409
   1602,   29.9786987,          15.,   28.2318897
   1603,    27.863039,          15.,   28.4355125
   1604,   24.1607113,          15.,   32.1828766
   1605,   25.9998379,          15.,   36.4857674
   1606,   24.9751968,          15.,   43.8064461
   1607,   30.1250343,          15.,   25.8118172
   1608,    30.487751,          15.,   37.4079857
   1609,    31.549942,          15.,     30.72999
   1610,   30.3088684,          15.,   53.4915237
   1611,   27.6231098,          15.,   39.4395218
   1612,   32.4344177,          15.,   26.1753578
   1613,   26.6951866,          15.,   33.4985199
   1614,   26.0616112,          15.,    46.257122
   1615,   34.2076454,          15.,   38.1687813
   1616,   30.1376209,          15.,   32.5049324
   1617,   27.8019104,          15.,   42.6107407
   1618,   29.3253269,          15.,   35.5853043
   1619,   31.7547493,          15.,   49.4026489
   1620,   31.5970364,          15.,   39.0636826
   1621,   36.9948463,          15.,   37.8067436
   1622,   34.0874748,          15.,   47.9485397
   1623,   31.0933552,          15.,   47.5320969
   1624,   32.7889824,          15.,    42.442028
   1625,   34.6634254,          15.,   40.1502228
   1626,   35.0707092,          15.,   43.8224716
   1627,   37.3663597,          15.,   41.7274704
   1628,   28.8057709,          15.,   45.1335449
   1629,   32.9790192,          15.,   45.5736122
   1630,   29.9219513,          15.,   30.0071621
   1631,   40.0245514,          15.,   21.4620895
   1632,   36.3994789,          15.,   22.4168568
   1633,   43.3260994,          15.,   52.3860054
   1634,   37.2923622,          15.,   58.2860184
   1635,   30.2276917,          15.,   59.9167747
   1636,   37.0102768,          15.,   25.5184689
   1637,   32.5280609,          15.,   56.9018707
   1638,    41.931778,          15.,   34.5723343
   1639,   41.5280533,          15.,   50.1894951
   1640,   38.2148285,          15.,   55.9376831
   1641,   21.4039345,          15.,   29.4642048
   1642,   18.7029305,          15.,   43.9977837
   1643,   22.6641254,          15.,    51.295826
   1644,   35.9104881,          15.,   26.8536263
   1645,   38.9417572,          15.,   33.5216064
   1646,   39.8456841,          15.,   43.6602364
   1647,    39.132328,          15.,   48.1976166
   1648,   40.2337265,          15.,   52.8141937
   1649,   34.1568298,          15.,   28.7974796
   1650,   35.6276207,          15.,    33.285965
   1651,   37.3415375,          15.,   43.7332268
   1652,   37.0937805,          15.,   45.8339767
   1653,   36.0610237,          15.,   50.1656151
   1654,   34.5701637,          15.,   52.2902756
   1655,   34.6558571,          15.,   54.9091721
   1656,   26.0785313,          15.,   30.6707191
   1657,    36.847599,          15.,   35.9541016
   1658,   21.5575619,          15.,   44.6630936
   1659,   20.0434723,          15.,   41.7723618
   1660,   20.4942055,          15.,   38.2921906
   1661,   34.9749336,          15.,   41.9913177
   1662,    34.858799,          15.,   45.7603683
   1663,   34.3687477,          15.,   49.6646118
   1664,   23.0653572,          15.,   43.3450699
   1665,    27.110178,          15.,   51.2019768
   1666,   28.7252502,          15.,   33.9481201
   1667,   32.7763634,          15.,   47.0093422
   1668,   33.1065483,          15.,   43.9973755
   1669,   31.0755863,          15.,   45.6767426
   1670,   29.6995735,          15.,   40.1781197
   1671,   30.0708847,          15.,   41.7780838
   1672,   32.2932472,          15.,   40.8355827
   1673,   30.7825565,          15.,   43.3141975
   1674,   31.5710831,          15.,   44.2993355
   1675,   33.9376984,          12.,   64.7288361
   1676,   36.7789841,          12.,    63.933609
   1677,   39.4425545,          12.,   62.6634102
   1678,   44.0270042,          12.,   58.9694328
   1679,   45.8951683,          12.,   56.6833572
   1680,   48.7484741,          12.,   51.5238647
   1681,   50.4402733,          12.,   45.8731003
   1682,          51.,          12.,   39.9999886
   1683,   50.4402695,          12.,   34.1268806
   1684,   48.7484703,          12.,   28.4761238
   1685,   45.8951645,          12.,   23.3166409
   1686,   44.0270004,          12.,   21.0305672
   1687,   39.4425507,          12.,   17.3365898
   1688,   36.7789841,          12.,   16.0663891
   1689,   33.9377022,          12.,   15.2711611
   1690,          31.,          12.,          65.
   1691,          31.,          12.,          15.
   1692,   28.0622997,          12.,   15.2711611
   1693,   25.2210159,          12.,   16.0663891
   1694,   22.5574474,          12.,   17.3365898
   1695,   17.9729958,          12.,   21.0305691
   1696,   16.1048317,          12.,   23.3166447
   1697,   13.2515259,          12.,   28.4761353
   1698,   11.5597258,          12.,   34.1268997
   1699,          11.,          12.,   40.0000114
   1700,   11.5597286,          12.,   45.8731194
   1701,   13.2515297,          12.,   51.5238762
   1702,   16.1048336,          12.,   56.6833572
   1703,   17.9729977,          12.,   58.9694328
   1704,   22.5574493,          12.,   62.6634102
   1705,   25.2210159,          12.,    63.933609
   1706,   28.0622978,          12.,   64.7288361
   1707,   41.8702965,          12.,   60.9849892
   1708,   47.4688263,          12.,   54.1850395
   1709,   49.7375603,          12.,   48.7414093
   1710,   50.8602791,          12.,   42.9499207
   1711,   50.8602791,          12.,   37.0500603
   1712,   49.7375565,          12.,   31.2585735
   1713,   47.4688225,          12.,   25.8149586
   1714,   41.8702965,          12.,   19.0150108
   1715,   20.1297016,          12.,   19.0150127
   1716,   14.5311747,          12.,   25.8149624
   1717,   12.2624388,          12.,   31.2585926
   1718,     11.13972,          12.,   37.0500793
   1719,   11.1397219,          12.,   42.9499397
   1720,   12.2624445,          12.,   48.7414246
   1721,   14.5311766,          12.,   54.1850395
   1722,   20.1297035,          12.,   60.9849892
   1723,   35.8506927,          12.,   61.3840866
   1724,   20.1137028,          12.,   56.9514732
   1725,   14.0589342,          12.,   45.3280487
   1726,   14.2330503,          12.,   34.6853294
   1727,   18.4136066,          12.,    25.135313
   1728,    43.654007,          12.,   25.2684174
   1729,    30.376503,          12.,   17.4907131
   1730,   28.3944874,          12.,   16.9384403
   1731,   26.7967663,          12.,    18.281271
   1732,   41.9787254,          12.,   23.2325726
   1733,   20.2512589,          12.,   23.2181435
   1734,   47.6804771,          12.,   35.0948792
   1735,    47.709938,          12.,   45.8206329
   1736,   46.4044838,          12.,   50.8802338
   1737,     43.96521,          12.,   55.4129105
   1738,   18.3931103,          12.,   54.9371758
   1739,   38.2421875,          12.,   60.3938789
   1740,   24.2130451,          12.,   60.1130714
   1741,   40.4269257,          12.,   59.0532265
   1742,    45.350647,          12.,   53.2467499
   1743,   47.1681824,          12.,   48.3968887
   1744,   48.0449257,          12.,   43.1612473
   1745,   48.0384789,          12.,   37.7708664
   1746,   47.0660248,          12.,   32.4690781
   1747,   45.0503731,          12.,   27.5126762
   1748,    37.823597,          12.,   20.0284119
   1749,   22.3990707,          12.,   21.5301189
   1750,   16.9380283,          12.,   27.2958775
   1751,    14.914031,          12.,   32.1125793
   1752,   13.7777681,          12.,   37.3135948
   1753,   13.6770897,          12.,    42.650547
   1754,   14.7319555,          12.,   47.9198799
   1755,   16.9113045,          12.,   52.7339096
   1756,    22.008379,          12.,    58.673275
   1757,   25.1309128,          12.,   57.9968758
   1758,    39.164917,          12.,   57.2873764
   1759,   23.9053497,          12.,   56.4820251
   1760,   38.4122009,          12.,   23.6598701
   1761,   40.6916237,          12.,   55.8211136
   1762,   22.2300701,          12.,   54.9191971
   1763,   40.1156197,          12.,   25.2361946
   1764,   22.0712624,          12.,   25.2693825
   1765,   20.3188229,          12.,    26.728138
   1766,     20.59869,          12.,   53.1271019
   1767,   41.5349731,          12.,   27.0620575
   1768,   44.0336494,          12.,   50.3471947
   1769,    19.168766,          12.,   28.5945034
   1770,   44.5310135,          12.,   48.1669731
   1771,   17.1278324,          12.,   47.0113411
   1772,   43.7292252,          12.,    31.295742
   1773,   44.9610138,          12.,   45.8239937
   1774,   44.4750328,          12.,   33.5904922
   1775,   16.4605904,          12.,    44.710144
   1776,   45.2611351,          12.,   43.3849335
   1777,   16.8440762,          12.,   35.2332458
   1778,   16.3088894,          12.,   37.5874176
   1779,   45.3765984,          12.,   40.9177017
   1780,   30.8139629,          12.,   62.4362259
   1781,   28.6142521,          12.,   62.7278328
   1782,   32.8744011,          12.,   18.1324444
   1783,   33.3486557,          12.,   62.0417557
   1784,   27.0511417,          12.,   60.8572235
   1785,   24.7342777,          12.,   19.9571056
   1786,   35.4192162,          12.,   18.9348793
   1787,   42.3347626,          12.,   57.3661957
   1788,     46.18507,          12.,   29.9156284
   1789,   15.6940012,          12.,   50.3850098
   1790,   15.8044987,          12.,   29.6351147
   1791,   48.1602898,          12.,   40.4500542
   1792,   13.5868387,          12.,   39.9720306
   1793,   36.6611862,          12.,   56.1189041
   1794,   24.2208557,          12.,   52.9407768
   1795,   38.3359375,          12.,   26.9777622
   1796,   21.4455433,          12.,   49.5551338
   1797,   23.2750568,          12.,   27.3199577
   1798,   35.1216774,          12.,   58.9908066
   1799,   27.2803497,          12.,   57.5437584
   1800,    42.085495,          12.,   54.1679611
   1801,   41.7923203,          12.,   48.1166687
   1802,   42.2060394,          12.,    45.854126
   1803,    41.296936,          12.,   32.4966278
   1804,   18.3183212,          12.,   41.9948616
   1805,   42.5049973,          12.,   43.5582008
   1806,    42.626873,          12.,   41.2700729
   1807,   19.3637943,          12.,   35.8571243
   1808,   32.7821159,          12.,   59.4940033
   1809,   27.2446766,          12.,   22.5592175
   1810,   17.5510845,          12.,   32.9234543
   1811,   34.1535606,          12.,   21.4838181
   1812,   18.0586586,          12.,   49.1545219
   1813,   42.7298393,          12.,   29.0804558
   1814,   16.0619202,          12.,   39.9515533
   1815,   45.2960587,          12.,    38.428627
   1816,   30.0240574,          12.,   56.9995918
   1817,   39.5665016,          12.,   45.8720093
   1818,   39.9431801,          12.,   41.5316696
   1819,   41.6478653,          12.,   51.7092361
   1820,   20.2647018,          12.,   33.7511215
   1821,   38.8946495,          12.,   54.4429703
   1822,   26.6381111,          12.,   54.3008232
   1823,   35.2360458,          12.,   24.5623112
   1824,   25.3021259,          12.,   26.4573956
   1825,   20.3886414,          12.,   47.7576981
   1826,   19.4467392,          12.,    45.928093
   1827,   18.4310341,          12.,   39.9533958
   1828,   42.3614578,          12.,   36.7779274
   1829,   40.4175301,          12.,   30.5028172
   1830,   18.6384201,          12.,   37.9219398
   1831,   42.5809326,          12.,   38.9799614
   1832,    24.251873,          12.,   23.9265919
   1833,   31.6336575,          12.,   20.7074661
   1834,   18.3259888,          12.,   30.6974602
   1835,   38.5882263,          12.,   50.8829918
   1836,   21.6896973,          12.,   36.8436432
   1837,   39.4129448,          12.,   28.6734772
   1838,   38.0190811,          12.,   31.8150158
   1839,   22.6797657,          12.,   46.1203918
   1840,   21.0524826,          12.,   40.0544167
   1841,   34.4004326,          12.,   26.6138744
   1842,   34.7173729,          12.,   56.7128143
   1843,   39.8928375,          12.,   39.4223747
   1844,   24.6112556,          12.,   49.6536942
   1845,    33.114994,          12.,   23.8423576
   1846,   25.7848186,          12.,   28.8157082
   1847,   39.4416504,          12.,   35.4520683
   1848,   29.0234013,          12.,   19.8313503
   1849,   19.2207165,          12.,   51.1720695
   1850,   20.7411098,          12.,   43.0665627
   1851,   39.7117348,          12.,   37.3734665
   1852,   16.0851936,          12.,   42.3188591
   1853,   44.9959717,          12.,   35.9589806
   1854,   32.9440346,          12.,   54.3063126
   1855,   30.5561295,          12.,   23.2213154
   1856,   37.2250748,          12.,   39.7688637
   1857,    23.457798,          12.,   38.5438499
   1858,   21.0173435,          12.,   31.5930691
   1859,   37.0821991,          12.,   30.1235905
   1860,   36.4120445,          12.,   28.2987118
   1861,   23.6959667,          12.,   29.4766159
   1862,   37.0460434,          12.,   34.3682327
   1863,   23.6906319,          12.,   47.8316803
   1864,   25.3729115,          12.,   51.2028389
   1865,   21.6898441,          12.,    27.874918
   1866,    33.700882,          12.,   35.8084259
   1867,   27.6412849,          12.,   25.8088379
   1868,    22.459877,          12.,   41.7454948
   1869,   23.0583363,          12.,   34.7927742
   1870,   32.0913773,          12.,   28.5445156
   1871,   28.1216354,          12.,   31.1247272
   1872,   34.0762215,          12.,   31.5197182
   1873,    26.758112,          12.,   48.6181526
   1874,    36.616848,          12.,   53.6079063
   1875,   32.7417946,          12.,   51.1080208
   1876,   28.9708576,          12.,   47.9528656
   1877,   36.6401215,          12.,   47.9853821
   1878,   29.4342346,          12.,   50.5949821
   1879,   31.8972225,          12.,   33.9840126
   1880,   24.6360207,          12.,   40.7450409
   1881,   29.9786987,          12.,   28.2318897
   1882,    27.863039,          12.,   28.4355125
   1883,   24.1607113,          12.,   32.1828766
   1884,   25.9998379,          12.,   36.4857674
   1885,   24.9751968,          12.,   43.8064461
   1886,   30.1250343,          12.,   25.8118172
   1887,    30.487751,          12.,   37.4079857
   1888,    31.549942,          12.,     30.72999
   1889,   30.3088684,          12.,   53.4915237
   1890,   27.6231098,          12.,   39.4395218
   1891,   32.4344177,          12.,   26.1753578
   1892,   26.6951866,          12.,   33.4985199
   1893,   26.0616112,          12.,    46.257122
   1894,   34.2076454,          12.,   38.1687813
   1895,   30.1376209,          12.,   32.5049324
   1896,   27.8019104,          12.,   42.6107407
   1897,   29.3253269,          12.,   35.5853043
   1898,   31.7547493,          12.,   49.4026489
   1899,   31.5970364,          12.,   39.0636826
   1900,   36.9948463,          12.,   37.8067436
   1901,   34.0874748,          12.,   47.9485397
   1902,   31.0933552,          12.,   47.5320969
   1903,   32.7889824,          12.,    42.442028
   1904,   34.6634254,          12.,   40.1502228
   1905,   35.0707092,          12.,   43.8224716
   1906,   37.3663597,          12.,   41.7274704
   1907,   28.8057709,          12.,   45.1335449
   1908,   32.9790192,          12.,   45.5736122
   1909,   29.9219513,          12.,   30.0071621
   1910,   40.0245514,          12.,   21.4620895
   1911,   36.3994789,          12.,   22.4168568
   1912,   43.3260994,          12.,   52.3860054
   1913,   37.2923622,          12.,   58.2860184
   1914,   30.2276917,          12.,   59.9167747
   1915,   37.0102768,          12.,   25.5184689
   1916,   32.5280609,          12.,   56.9018707
   1917,    41.931778,          12.,   34.5723343
   1918,   41.5280533,          12.,   50.1894951
   1919,   38.2148285,          12.,   55.9376831
   1920,   21.4039345,          12.,   29.4642048
   1921,   18.7029305,          12.,   43.9977837
   1922,   22.6641254,          12.,    51.295826
   1923,   35.9104881,          12.,   26.8536263
   1924,   38.9417572,          12.,   33.5216064
   1925,   39.8456841,          12.,   43.6602364
   1926,    39.132328,          12.,   48.1976166
   1927,   40.2337265,          12.,   52.8141937
   1928,   34.1568298,          12.,   28.7974796
   1929,   35.6276207,          12.,    33.285965
   1930,   37.3415375,          12.,   43.7332268
   1931,   37.0937805,          12.,   45.8339767
   1932,   36.0610237,          12.,   50.1656151
   1933,   34.5701637,          12.,   52.2902756
   1934,   34.6558571,          12.,   54.9091721
   1935,   26.0785313,          12.,   30.6707191
   1936,    36.847599,          12.,   35.9541016
   1937,   21.5575619,          12.,   44.6630936
   1938,   20.0434723,          12.,   41.7723618
   1939,   20.4942055,          12.,   38.2921906
   1940,   34.9749336,          12.,   41.9913177
   1941,    34.858799,          12.,   45.7603683
   1942,   34.3687477,          12.,   49.6646118
   1943,   23.0653572,          12.,   43.3450699
   1944,    27.110178,          12.,   51.2019768
   1945,   28.7252502,          12.,   33.9481201
   1946,   32.7763634,          12.,   47.0093422
   1947,   33.1065483,          12.,   43.9973755
   1948,   31.0755863,          12.,   45.6767426
   1949,   29.6995735,          12.,   40.1781197
   1950,   30.0708847,          12.,   41.7780838
   1951,   32.2932472,          12.,   40.8355827
   1952,   30.7825565,          12.,   43.3141975
   1953,   31.5710831,          12.,   44.2993355
   1954,   33.9376984,           9.,   64.7288361
   1955,   36.7789841,           9.,    63.933609
   1956,   39.4425545,           9.,   62.6634102
   1957,   44.0270042,           9.,   58.9694328
   1958,   45.8951683,           9.,   56.6833572
   1959,   48.7484741,           9.,   51.5238647
   1960,   50.4402733,           9.,   45.8731003
   1961,          51.,           9.,   39.9999886
   1962,   50.4402695,           9.,   34.1268806
   1963,   48.7484703,           9.,   28.4761238
   1964,   45.8951645,           9.,   23.3166409
   1965,   44.0270004,           9.,   21.0305672
   1966,   39.4425507,           9.,   17.3365898
   1967,   36.7789841,           9.,   16.0663891
   1968,   33.9377022,           9.,   15.2711611
   1969,          31.,           9.,          65.
   1970,          31.,           9.,          15.
   1971,   28.0622997,           9.,   15.2711611
   1972,   25.2210159,           9.,   16.0663891
   1973,   22.5574474,           9.,   17.3365898
   1974,   17.9729958,           9.,   21.0305691
   1975,   16.1048317,           9.,   23.3166447
   1976,   13.2515259,           9.,   28.4761353
   1977,   11.5597258,           9.,   34.1268997
   1978,          11.,           9.,   40.0000114
   1979,   11.5597286,           9.,   45.8731194
   1980,   13.2515297,           9.,   51.5238762
   1981,   16.1048336,           9.,   56.6833572
   1982,   17.9729977,           9.,   58.9694328
   1983,   22.5574493,           9.,   62.6634102
   1984,   25.2210159,           9.,    63.933609
   1985,   28.0622978,           9.,   64.7288361
   1986,   41.8702965,           9.,   60.9849892
   1987,   47.4688263,           9.,   54.1850395
   1988,   49.7375603,           9.,   48.7414093
   1989,   50.8602791,           9.,   42.9499207
   1990,   50.8602791,           9.,   37.0500603
   1991,   49.7375565,           9.,   31.2585735
   1992,   47.4688225,           9.,   25.8149586
   1993,   41.8702965,           9.,   19.0150108
   1994,   20.1297016,           9.,   19.0150127
   1995,   14.5311747,           9.,   25.8149624
   1996,   12.2624388,           9.,   31.2585926
   1997,     11.13972,           9.,   37.0500793
   1998,   11.1397219,           9.,   42.9499397
   1999,   12.2624445,           9.,   48.7414246
   2000,   14.5311766,           9.,   54.1850395
   2001,   20.1297035,           9.,   60.9849892
   2002,   35.8506927,           9.,   61.3840866
   2003,   20.1137028,           9.,   56.9514732
   2004,   14.0589342,           9.,   45.3280487
   2005,   14.2330503,           9.,   34.6853294
   2006,   18.4136066,           9.,    25.135313
   2007,    43.654007,           9.,   25.2684174
   2008,    30.376503,           9.,   17.4907131
   2009,   28.3944874,           9.,   16.9384403
   2010,   26.7967663,           9.,    18.281271
   2011,   41.9787254,           9.,   23.2325726
   2012,   20.2512589,           9.,   23.2181435
   2013,   47.6804771,           9.,   35.0948792
   2014,    47.709938,           9.,   45.8206329
   2015,   46.4044838,           9.,   50.8802338
   2016,     43.96521,           9.,   55.4129105
   2017,   18.3931103,           9.,   54.9371758
   2018,   38.2421875,           9.,   60.3938789
   2019,   24.2130451,           9.,   60.1130714
   2020,   40.4269257,           9.,   59.0532265
   2021,    45.350647,           9.,   53.2467499
   2022,   47.1681824,           9.,   48.3968887
   2023,   48.0449257,           9.,   43.1612473
   2024,   48.0384789,           9.,   37.7708664
   2025,   47.0660248,           9.,   32.4690781
   2026,   45.0503731,           9.,   27.5126762
   2027,    37.823597,           9.,   20.0284119
   2028,   22.3990707,           9.,   21.5301189
   2029,   16.9380283,           9.,   27.2958775
   2030,    14.914031,           9.,   32.1125793
   2031,   13.7777681,           9.,   37.3135948
   2032,   13.6770897,           9.,    42.650547
   2033,   14.7319555,           9.,   47.9198799
   2034,   16.9113045,           9.,   52.7339096
   2035,    22.008379,           9.,    58.673275
   2036,   25.1309128,           9.,   57.9968758
   2037,    39.164917,           9.,   57.2873764
   2038,   23.9053497,           9.,   56.4820251
   2039,   38.4122009,           9.,   23.6598701
   2040,   40.6916237,           9.,   55.8211136
   2041,   22.2300701,           9.,   54.9191971
   2042,   40.1156197,           9.,   25.2361946
   2043,   22.0712624,           9.,   25.2693825
   2044,   20.3188229,           9.,    26.728138
   2045,     20.59869,           9.,   53.1271019
   2046,   41.5349731,           9.,   27.0620575
   2047,   44.0336494,           9.,   50.3471947
   2048,    19.168766,           9.,   28.5945034
   2049,   44.5310135,           9.,   48.1669731
   2050,   17.1278324,           9.,   47.0113411
   2051,   43.7292252,           9.,    31.295742
   2052,   44.9610138,           9.,   45.8239937
   2053,   44.4750328,           9.,   33.5904922
   2054,   16.4605904,           9.,    44.710144
   2055,   45.2611351,           9.,   43.3849335
   2056,   16.8440762,           9.,   35.2332458
   2057,   16.3088894,           9.,   37.5874176
   2058,   45.3765984,           9.,   40.9177017
   2059,   30.8139629,           9.,   62.4362259
   2060,   28.6142521,           9.,   62.7278328
   2061,   32.8744011,           9.,   18.1324444
   2062,   33.3486557,           9.,   62.0417557
   2063,   27.0511417,           9.,   60.8572235
   2064,   24.7342777,           9.,   19.9571056
   2065,   35.4192162,           9.,   18.9348793
   2066,   42.3347626,           9.,   57.3661957
   2067,     46.18507,           9.,   29.9156284
   2068,   15.6940012,           9.,   50.3850098
   2069,   15.8044987,           9.,   29.6351147
   2070,   48.1602898,           9.,   40.4500542
   2071,   13.5868387,           9.,   39.9720306
   2072,   36.6611862,           9.,   56.1189041
   2073,   24.2208557,           9.,   52.9407768
   2074,   38.3359375,           9.,   26.9777622
   2075,   21.4455433,           9.,   49.5551338
   2076,   23.2750568,           9.,   27.3199577
   2077,   35.1216774,           9.,   58.9908066
   2078,   27.2803497,           9.,   57.5437584
   2079,    42.085495,           9.,   54.1679611
   2080,   41.7923203,           9.,   48.1166687
   2081,   42.2060394,           9.,    45.854126
   2082,    41.296936,           9.,   32.4966278
   2083,   18.3183212,           9.,   41.9948616
   2084,   42.5049973,           9.,   43.5582008
   2085,    42.626873,           9.,   41.2700729
   2086,   19.3637943,           9.,   35.8571243
   2087,   32.7821159,           9.,   59.4940033
   2088,   27.2446766,           9.,   22.5592175
   2089,   17.5510845,           9.,   32.9234543
   2090,   34.1535606,           9.,   21.4838181
   2091,   18.0586586,           9.,   49.1545219
   2092,   42.7298393,           9.,   29.0804558
   2093,   16.0619202,           9.,   39.9515533
   2094,   45.2960587,           9.,    38.428627
   2095,   30.0240574,           9.,   56.9995918
   2096,   39.5665016,           9.,   45.8720093
   2097,   39.9431801,           9.,   41.5316696
   2098,   41.6478653,           9.,   51.7092361
   2099,   20.2647018,           9.,   33.7511215
   2100,   38.8946495,           9.,   54.4429703
   2101,   26.6381111,           9.,   54.3008232
   2102,   35.2360458,           9.,   24.5623112
   2103,   25.3021259,           9.,   26.4573956
   2104,   20.3886414,           9.,   47.7576981
   2105,   19.4467392,           9.,    45.928093
   2106,   18.4310341,           9.,   39.9533958
   2107,   42.3614578,           9.,   36.7779274
   2108,   40.4175301,           9.,   30.5028172
   2109,   18.6384201,           9.,   37.9219398
   2110,   42.5809326,           9.,   38.9799614
   2111,    24.251873,           9.,   23.9265919
   2112,   31.6336575,           9.,   20.7074661
   2113,   18.3259888,           9.,   30.6974602
   2114,   38.5882263,           9.,   50.8829918
   2115,   21.6896973,           9.,   36.8436432
   2116,   39.4129448,           9.,   28.6734772
   2117,   38.0190811,           9.,   31.8150158
   2118,   22.6797657,           9.,   46.1203918
   2119,   21.0524826,           9.,   40.0544167
   2120,   34.4004326,           9.,   26.6138744
   2121,   34.7173729,           9.,   56.7128143
   2122,   39.8928375,           9.,   39.4223747
   2123,   24.6112556,           9.,   49.6536942
   2124,    33.114994,           9.,   23.8423576
   2125,   25.7848186,           9.,   28.8157082
   2126,   39.4416504,           9.,   35.4520683
   2127,   29.0234013,           9.,   19.8313503
   2128,   19.2207165,           9.,   51.1720695
   2129,   20.7411098,           9.,   43.0665627
   2130,   39.7117348,           9.,   37.3734665
   2131,   16.0851936,           9.,   42.3188591
   2132,   44.9959717,           9.,   35.9589806
   2133,   32.9440346,           9.,   54.3063126
   2134,   30.5561295,           9.,   23.2213154
   2135,   37.2250748,           9.,   39.7688637
   2136,    23.457798,           9.,   38.5438499
   2137,   21.0173435,           9.,   31.5930691
   2138,   37.0821991,           9.,   30.1235905
   2139,   36.4120445,           9.,   28.2987118
   2140,   23.6959667,           9.,   29.4766159
   2141,   37.0460434,           9.,   34.3682327
   2142,   23.6906319,           9.,   47.8316803
   2143,   25.3729115,           9.,   51.2028389
   2144,   21.6898441,           9.,    27.874918
   2145,    33.700882,           9.,   35.8084259
   2146,   27.6412849,           9.,   25.8088379
   2147,    22.459877,           9.,   41.7454948
   2148,   23.0583363,           9.,   34.7927742
   2149,   32.0913773,           9.,   28.5445156
   2150,   28.1216354,           9.,   31.1247272
   2151,   34.0762215,           9.,   31.5197182
   2152,    26.758112,           9.,   48.6181526
   2153,    36.616848,           9.,   53.6079063
   2154,   32.7417946,           9.,   51.1080208
   2155,   28.9708576,           9.,   47.9528656
   2156,   36.6401215,           9.,   47.9853821
   2157,   29.4342346,           9.,   50.5949821
   2158,   31.8972225,           9.,   33.9840126
   2159,   24.6360207,           9.,   40.7450409
   2160,   29.9786987,           9.,   28.2318897
   2161,    27.863039,           9.,   28.4355125
   2162,   24.1607113,           9.,   32.1828766
   2163,   25.9998379,           9.,   36.4857674
   2164,   24.9751968,           9.,   43.8064461
   2165,   30.1250343,           9.,   25.8118172
   2166,    30.487751,           9.,   37.4079857
   2167,    31.549942,           9.,     30.72999
   2168,   30.3088684,           9.,   53.4915237
   2169,   27.6231098,           9.,   39.4395218
   2170,   32.4344177,           9.,   26.1753578
   2171,   26.6951866,           9.,   33.4985199
   2172,   26.0616112,           9.,    46.257122
   2173,   34.2076454,           9.,   38.1687813
   2174,   30.1376209,           9.,   32.5049324
   2175,   27.8019104,           9.,   42.6107407
   2176,   29.3253269,           9.,   35.5853043
   2177,   31.7547493,           9.,   49.4026489
   2178,   31.5970364,           9.,   39.0636826
   2179,   36.9948463,           9.,   37.8067436
   2180,   34.0874748,           9.,   47.9485397
   2181,   31.0933552,           9.,   47.5320969
   2182,   32.7889824,           9.,    42.442028
   2183,   34.6634254,           9.,   40.1502228
   2184,   35.0707092,           9.,   43.8224716
   2185,   37.3663597,           9.,   41.7274704
   2186,   28.8057709,           9.,   45.1335449
   2187,   32.9790192,           9.,   45.5736122
   2188,   29.9219513,           9.,   30.0071621
   2189,   40.0245514,           9.,   21.4620895
   2190,   36.3994789,           9.,   22.4168568
   2191,   43.3260994,           9.,   52.3860054
   2192,   37.2923622,           9.,   58.2860184
   2193,   30.2276917,           9.,   59.9167747
   2194,   37.0102768,           9.,   25.5184689
   2195,   32.5280609,           9.,   56.9018707
   2196,    41.931778,           9.,   34.5723343
   2197,   41.5280533,           9.,   50.1894951
   2198,   38.2148285,           9.,   55.9376831
   2199,   21.4039345,           9.,   29.4642048
   2200,   18.7029305,           9.,   43.9977837
   2201,   22.6641254,           9.,    51.295826
   2202,   35.9104881,           9.,   26.8536263
   2203,   38.9417572,           9.,   33.5216064
   2204,   39.8456841,           9.,   43.6602364
   2205,    39.132328,           9.,   48.1976166
   2206,   40.2337265,           9.,   52.8141937
   2207,   34.1568298,           9.,   28.7974796
   2208,   35.6276207,           9.,    33.285965
   2209,   37.3415375,           9.,   43.7332268
   2210,   37.0937805,           9.,   45.8339767
   2211,   36.0610237,           9.,   50.1656151
   2212,   34.5701637,           9.,   52.2902756
   2213,   34.6558571,           9.,   54.9091721
   2214,   26.0785313,           9.,   30.6707191
   2215,    36.847599,           9.,   35.9541016
   2216,   21.5575619,           9.,   44.6630936
   2217,   20.0434723,           9.,   41.7723618
   2218,   20.4942055,           9.,   38.2921906
   2219,   34.9749336,           9.,   41.9913177
   2220,    34.858799,           9.,   45.7603683
   2221,   34.3687477,           9.,   49.6646118
   2222,   23.0653572,           9.,   43.3450699
   2223,    27.110178,           9.,   51.2019768
   2224,   28.7252502,           9.,   33.9481201
   2225,   32.7763634,           9.,   47.0093422
   2226,   33.1065483,           9.,   43.9973755
   2227,   31.0755863,           9.,   45.6767426
   2228,   29.6995735,           9.,   40.1781197
   2229,   30.0708847,           9.,   41.7780838
   2230,   32.2932472,           9.,   40.8355827
   2231,   30.7825565,           9.,   43.3141975
   2232,   31.5710831,           9.,   44.2993355
   2233,   33.9376984,           6.,   64.7288361
   2234,   36.7789841,           6.,    63.933609
   2235,   39.4425545,           6.,   62.6634102
   2236,   44.0270042,           6.,   58.9694328
   2237,   45.8951683,           6.,   56.6833572
   2238,   48.7484741,           6.,   51.5238647
   2239,   50.4402733,           6.,   45.8731003
   2240,          51.,           6.,   39.9999886
   2241,   50.4402695,           6.,   34.1268806
   2242,   48.7484703,           6.,   28.4761238
   2243,   45.8951645,           6.,   23.3166409
   2244,   44.0270004,           6.,   21.0305672
   2245,   39.4425507,           6.,   17.3365898
   2246,   36.7789841,           6.,   16.0663891
   2247,   33.9377022,           6.,   15.2711611
   2248,          31.,           6.,          65.
   2249,          31.,           6.,          15.
   2250,   28.0622997,           6.,   15.2711611
   2251,   25.2210159,           6.,   16.0663891
   2252,   22.5574474,           6.,   17.3365898
   2253,   17.9729958,           6.,   21.0305691
   2254,   16.1048317,           6.,   23.3166447
   2255,   13.2515259,           6.,   28.4761353
   2256,   11.5597258,           6.,   34.1268997
   2257,          11.,           6.,   40.0000114
   2258,   11.5597286,           6.,   45.8731194
   2259,   13.2515297,           6.,   51.5238762
   2260,   16.1048336,           6.,   56.6833572
   2261,   17.9729977,           6.,   58.9694328
   2262,   22.5574493,           6.,   62.6634102
   2263,   25.2210159,           6.,    63.933609
   2264,   28.0622978,           6.,   64.7288361
   2265,   41.8702965,           6.,   60.9849892
   2266,   47.4688263,           6.,   54.1850395
   2267,   49.7375603,           6.,   48.7414093
   2268,   50.8602791,           6.,   42.9499207
   2269,   50.8602791,           6.,   37.0500603
   2270,   49.7375565,           6.,   31.2585735
   2271,   47.4688225,           6.,   25.8149586
   2272,   41.8702965,           6.,   19.0150108
   2273,   20.1297016,           6.,   19.0150127
   2274,   14.5311747,           6.,   25.8149624
   2275,   12.2624388,           6.,   31.2585926
   2276,     11.13972,           6.,   37.0500793
   2277,   11.1397219,           6.,   42.9499397
   2278,   12.2624445,           6.,   48.7414246
   2279,   14.5311766,           6.,   54.1850395
   2280,   20.1297035,           6.,   60.9849892
   2281,   35.8506927,           6.,   61.3840866
   2282,   20.1137028,           6.,   56.9514732
   2283,   14.0589342,           6.,   45.3280487
   2284,   14.2330503,           6.,   34.6853294
   2285,   18.4136066,           6.,    25.135313
   2286,    43.654007,           6.,   25.2684174
   2287,    30.376503,           6.,   17.4907131
   2288,   28.3944874,           6.,   16.9384403
   2289,   26.7967663,           6.,    18.281271
   2290,   41.9787254,           6.,   23.2325726
   2291,   20.2512589,           6.,   23.2181435
   2292,   47.6804771,           6.,   35.0948792
   2293,    47.709938,           6.,   45.8206329
   2294,   46.4044838,           6.,   50.8802338
   2295,     43.96521,           6.,   55.4129105
   2296,   18.3931103,           6.,   54.9371758
   2297,   38.2421875,           6.,   60.3938789
   2298,   24.2130451,           6.,   60.1130714
   2299,   40.4269257,           6.,   59.0532265
   2300,    45.350647,           6.,   53.2467499
   2301,   47.1681824,           6.,   48.3968887
   2302,   48.0449257,           6.,   43.1612473
   2303,   48.0384789,           6.,   37.7708664
   2304,   47.0660248,           6.,   32.4690781
   2305,   45.0503731,           6.,   27.5126762
   2306,    37.823597,           6.,   20.0284119
   2307,   22.3990707,           6.,   21.5301189
   2308,   16.9380283,           6.,   27.2958775
   2309,    14.914031,           6.,   32.1125793
   2310,   13.7777681,           6.,   37.3135948
   2311,   13.6770897,           6.,    42.650547
   2312,   14.7319555,           6.,   47.9198799
   2313,   16.9113045,           6.,   52.7339096
   2314,    22.008379,           6.,    58.673275
   2315,   25.1309128,           6.,   57.9968758
   2316,    39.164917,           6.,   57.2873764
   2317,   23.9053497,           6.,   56.4820251
   2318,   38.4122009,           6.,   23.6598701
   2319,   40.6916237,           6.,   55.8211136
   2320,   22.2300701,           6.,   54.9191971
   2321,   40.1156197,           6.,   25.2361946
   2322,   22.0712624,           6.,   25.2693825
   2323,   20.3188229,           6.,    26.728138
   2324,     20.59869,           6.,   53.1271019
   2325,   41.5349731,           6.,   27.0620575
   2326,   44.0336494,           6.,   50.3471947
   2327,    19.168766,           6.,   28.5945034
   2328,   44.5310135,           6.,   48.1669731
   2329,   17.1278324,           6.,   47.0113411
   2330,   43.7292252,           6.,    31.295742
   2331,   44.9610138,           6.,   45.8239937
   2332,   44.4750328,           6.,   33.5904922
   2333,   16.4605904,           6.,    44.710144
   2334,   45.2611351,           6.,   43.3849335
   2335,   16.8440762,           6.,   35.2332458
   2336,   16.3088894,           6.,   37.5874176
   2337,   45.3765984,           6.,   40.9177017
   2338,   30.8139629,           6.,   62.4362259
   2339,   28.6142521,           6.,   62.7278328
   2340,   32.8744011,           6.,   18.1324444
   2341,   33.3486557,           6.,   62.0417557
   2342,   27.0511417,           6.,   60.8572235
   2343,   24.7342777,           6.,   19.9571056
   2344,   35.4192162,           6.,   18.9348793
   2345,   42.3347626,           6.,   57.3661957
   2346,     46.18507,           6.,   29.9156284
   2347,   15.6940012,           6.,   50.3850098
   2348,   15.8044987,           6.,   29.6351147
   2349,   48.1602898,           6.,   40.4500542
   2350,   13.5868387,           6.,   39.9720306
   2351,   36.6611862,           6.,   56.1189041
   2352,   24.2208557,           6.,   52.9407768
   2353,   38.3359375,           6.,   26.9777622
   2354,   21.4455433,           6.,   49.5551338
   2355,   23.2750568,           6.,   27.3199577
   2356,   35.1216774,           6.,   58.9908066
   2357,   27.2803497,           6.,   57.5437584
   2358,    42.085495,           6.,   54.1679611
   2359,   41.7923203,           6.,   48.1166687
   2360,   42.2060394,           6.,    45.854126
   2361,    41.296936,           6.,   32.4966278
   2362,   18.3183212,           6.,   41.9948616
   2363,   42.5049973,           6.,   43.5582008
   2364,    42.626873,           6.,   41.2700729
   2365,   19.3637943,           6.,   35.8571243
   2366,   32.7821159,           6.,   59.4940033
   2367,   27.2446766,           6.,   22.5592175
   2368,   17.5510845,           6.,   32.9234543
   2369,   34.1535606,           6.,   21.4838181
   2370,   18.0586586,           6.,   49.1545219
   2371,   42.7298393,           6.,   29.0804558
   2372,   16.0619202,           6.,   39.9515533
   2373,   45.2960587,           6.,    38.428627
   2374,   30.0240574,           6.,   56.9995918
   2375,   39.5665016,           6.,   45.8720093
   2376,   39.9431801,           6.,   41.5316696
   2377,   41.6478653,           6.,   51.7092361
   2378,   20.2647018,           6.,   33.7511215
   2379,   38.8946495,           6.,   54.4429703
   2380,   26.6381111,           6.,   54.3008232
   2381,   35.2360458,           6.,   24.5623112
   2382,   25.3021259,           6.,   26.4573956
   2383,   20.3886414,           6.,   47.7576981
   2384,   19.4467392,           6.,    45.928093
   2385,   18.4310341,           6.,   39.9533958
   2386,   42.3614578,           6.,   36.7779274
   2387,   40.4175301,           6.,   30.5028172
   2388,   18.6384201,           6.,   37.9219398
   2389,   42.5809326,           6.,   38.9799614
   2390,    24.251873,           6.,   23.9265919
   2391,   31.6336575,           6.,   20.7074661
   2392,   18.3259888,           6.,   30.6974602
   2393,   38.5882263,           6.,   50.8829918
   2394,   21.6896973,           6.,   36.8436432
   2395,   39.4129448,           6.,   28.6734772
   2396,   38.0190811,           6.,   31.8150158
   2397,   22.6797657,           6.,   46.1203918
   2398,   21.0524826,           6.,   40.0544167
   2399,   34.4004326,           6.,   26.6138744
   2400,   34.7173729,           6.,   56.7128143
   2401,   39.8928375,           6.,   39.4223747
   2402,   24.6112556,           6.,   49.6536942
   2403,    33.114994,           6.,   23.8423576
   2404,   25.7848186,           6.,   28.8157082
   2405,   39.4416504,           6.,   35.4520683
   2406,   29.0234013,           6.,   19.8313503
   2407,   19.2207165,           6.,   51.1720695
   2408,   20.7411098,           6.,   43.0665627
   2409,   39.7117348,           6.,   37.3734665
   2410,   16.0851936,           6.,   42.3188591
   2411,   44.9959717,           6.,   35.9589806
   2412,   32.9440346,           6.,   54.3063126
   2413,   30.5561295,           6.,   23.2213154
   2414,   37.2250748,           6.,   39.7688637
   2415,    23.457798,           6.,   38.5438499
   2416,   21.0173435,           6.,   31.5930691
   2417,   37.0821991,           6.,   30.1235905
   2418,   36.4120445,           6.,   28.2987118
   2419,   23.6959667,           6.,   29.4766159
   2420,   37.0460434,           6.,   34.3682327
   2421,   23.6906319,           6.,   47.8316803
   2422,   25.3729115,           6.,   51.2028389
   2423,   21.6898441,           6.,    27.874918
   2424,    33.700882,           6.,   35.8084259
   2425,   27.6412849,           6.,   25.8088379
   2426,    22.459877,           6.,   41.7454948
   2427,   23.0583363,           6.,   34.7927742
   2428,   32.0913773,           6.,   28.5445156
   2429,   28.1216354,           6.,   31.1247272
   2430,   34.0762215,           6.,   31.5197182
   2431,    26.758112,           6.,   48.6181526
   2432,    36.616848,           6.,   53.6079063
   2433,   32.7417946,           6.,   51.1080208
   2434,   28.9708576,           6.,   47.9528656
   2435,   36.6401215,           6.,   47.9853821
   2436,   29.4342346,           6.,   50.5949821
   2437,   31.8972225,           6.,   33.9840126
   2438,   24.6360207,           6.,   40.7450409
   2439,   29.9786987,           6.,   28.2318897
   2440,    27.863039,           6.,   28.4355125
   2441,   24.1607113,           6.,   32.1828766
   2442,   25.9998379,           6.,   36.4857674
   2443,   24.9751968,           6.,   43.8064461
   2444,   30.1250343,           6.,   25.8118172
   2445,    30.487751,           6.,   37.4079857
   2446,    31.549942,           6.,     30.72999
   2447,   30.3088684,           6.,   53.4915237
   2448,   27.6231098,           6.,   39.4395218
   2449,   32.4344177,           6.,   26.1753578
   2450,   26.6951866,           6.,   33.4985199
   2451,   26.0616112,           6.,    46.257122
   2452,   34.2076454,           6.,   38.1687813
   2453,   30.1376209,           6.,   32.5049324
   2454,   27.8019104,           6.,   42.6107407
   2455,   29.3253269,           6.,   35.5853043
   2456,   31.7547493,           6.,   49.4026489
   2457,   31.5970364,           6.,   39.0636826
   2458,   36.9948463,           6.,   37.8067436
   2459,   34.0874748,           6.,   47.9485397
   2460,   31.0933552,           6.,   47.5320969
   2461,   32.7889824,           6.,    42.442028
   2462,   34.6634254,           6.,   40.1502228
   2463,   35.0707092,           6.,   43.8224716
   2464,   37.3663597,           6.,   41.7274704
   2465,   28.8057709,           6.,   45.1335449
   2466,   32.9790192,           6.,   45.5736122
   2467,   29.9219513,           6.,   30.0071621
   2468,   40.0245514,           6.,   21.4620895
   2469,   36.3994789,           6.,   22.4168568
   2470,   43.3260994,           6.,   52.3860054
   2471,   37.2923622,           6.,   58.2860184
   2472,   30.2276917,           6.,   59.9167747
   2473,   37.0102768,           6.,   25.5184689
   2474,   32.5280609,           6.,   56.9018707
   2475,    41.931778,           6.,   34.5723343
   2476,   41.5280533,           6.,   50.1894951
   2477,   38.2148285,           6.,   55.9376831
   2478,   21.4039345,           6.,   29.4642048
   2479,   18.7029305,           6.,   43.9977837
   2480,   22.6641254,           6.,    51.295826
   2481,   35.9104881,           6.,   26.8536263
   2482,   38.9417572,           6.,   33.5216064
   2483,   39.8456841,           6.,   43.6602364
   2484,    39.132328,           6.,   48.1976166
   2485,   40.2337265,           6.,   52.8141937
   2486,   34.1568298,           6.,   28.7974796
   2487,   35.6276207,           6.,    33.285965
   2488,   37.3415375,           6.,   43.7332268
   2489,   37.0937805,           6.,   45.8339767
   2490,   36.0610237,           6.,   50.1656151
   2491,   34.5701637,           6.,   52.2902756
   2492,   34.6558571,           6.,   54.9091721
   2493,   26.0785313,           6.,   30.6707191
   2494,    36.847599,           6.,   35.9541016
   2495,   21.5575619,           6.,   44.6630936
   2496,   20.0434723,           6.,   41.7723618
   2497,   20.4942055,           6.,   38.2921906
   2498,   34.9749336,           6.,   41.9913177
   2499,    34.858799,           6.,   45.7603683
   2500,   34.3687477,           6.,   49.6646118
   2501,   23.0653572,           6.,   43.3450699
   2502,    27.110178,           6.,   51.2019768
   2503,   28.7252502,           6.,   33.9481201
   2504,   32.7763634,           6.,   47.0093422
   2505,   33.1065483,           6.,   43.9973755
   2506,   31.0755863,           6.,   45.6767426
   2507,   29.6995735,           6.,   40.1781197
   2508,   30.0708847,           6.,   41.7780838
   2509,   32.2932472,           6.,   40.8355827
   2510,   30.7825565,           6.,   43.3141975
   2511,   31.5710831,           6.,   44.2993355
   2512,   33.9376984,           3.,   64.7288361
   2513,   36.7789841,           3.,    63.933609
   2514,   39.4425545,           3.,   62.6634102
   2515,   44.0270042,           3.,   58.9694328
   2516,   45.8951683,           3.,   56.6833572
   2517,   48.7484741,           3.,   51.5238647
   2518,   50.4402733,           3.,   45.8731003
   2519,          51.,           3.,   39.9999886
   2520,   50.4402695,           3.,   34.1268806
   2521,   48.7484703,           3.,   28.4761238
   2522,   45.8951645,           3.,   23.3166409
   2523,   44.0270004,           3.,   21.0305672
   2524,   39.4425507,           3.,   17.3365898
   2525,   36.7789841,           3.,   16.0663891
   2526,   33.9377022,           3.,   15.2711611
   2527,          31.,           3.,          65.
   2528,          31.,           3.,          15.
   2529,   28.0622997,           3.,   15.2711611
   2530,   25.2210159,           3.,   16.0663891
   2531,   22.5574474,           3.,   17.3365898
   2532,   17.9729958,           3.,   21.0305691
   2533,   16.1048317,           3.,   23.3166447
   2534,   13.2515259,           3.,   28.4761353
   2535,   11.5597258,           3.,   34.1268997
   2536,          11.,           3.,   40.0000114
   2537,   11.5597286,           3.,   45.8731194
   2538,   13.2515297,           3.,   51.5238762
   2539,   16.1048336,           3.,   56.6833572
   2540,   17.9729977,           3.,   58.9694328
   2541,   22.5574493,           3.,   62.6634102
   2542,   25.2210159,           3.,    63.933609
   2543,   28.0622978,           3.,   64.7288361
   2544,   41.8702965,           3.,   60.9849892
   2545,   47.4688263,           3.,   54.1850395
   2546,   49.7375603,           3.,   48.7414093
   2547,   50.8602791,           3.,   42.9499207
   2548,   50.8602791,           3.,   37.0500603
   2549,   49.7375565,           3.,   31.2585735
   2550,   47.4688225,           3.,   25.8149586
   2551,   41.8702965,           3.,   19.0150108
   2552,   20.1297016,           3.,   19.0150127
   2553,   14.5311747,           3.,   25.8149624
   2554,   12.2624388,           3.,   31.2585926
   2555,     11.13972,           3.,   37.0500793
   2556,   11.1397219,           3.,   42.9499397
   2557,   12.2624445,           3.,   48.7414246
   2558,   14.5311766,           3.,   54.1850395
   2559,   20.1297035,           3.,   60.9849892
   2560,   35.8506927,           3.,   61.3840866
   2561,   20.1137028,           3.,   56.9514732
   2562,   14.0589342,           3.,   45.3280487
   2563,   14.2330503,           3.,   34.6853294
   2564,   18.4136066,           3.,    25.135313
   2565,    43.654007,           3.,   25.2684174
   2566,    30.376503,           3.,   17.4907131
   2567,   28.3944874,           3.,   16.9384403
   2568,   26.7967663,           3.,    18.281271
   2569,   41.9787254,           3.,   23.2325726
   2570,   20.2512589,           3.,   23.2181435
   2571,   47.6804771,           3.,   35.0948792
   2572,    47.709938,           3.,   45.8206329
   2573,   46.4044838,           3.,   50.8802338
   2574,     43.96521,           3.,   55.4129105
   2575,   18.3931103,           3.,   54.9371758
   2576,   38.2421875,           3.,   60.3938789
   2577,   24.2130451,           3.,   60.1130714
   2578,   40.4269257,           3.,   59.0532265
   2579,    45.350647,           3.,   53.2467499
   2580,   47.1681824,           3.,   48.3968887
   2581,   48.0449257,           3.,   43.1612473
   2582,   48.0384789,           3.,   37.7708664
   2583,   47.0660248,           3.,   32.4690781
   2584,   45.0503731,           3.,   27.5126762
   2585,    37.823597,           3.,   20.0284119
   2586,   22.3990707,           3.,   21.5301189
   2587,   16.9380283,           3.,   27.2958775
   2588,    14.914031,           3.,   32.1125793
   2589,   13.7777681,           3.,   37.3135948
   2590,   13.6770897,           3.,    42.650547
   2591,   14.7319555,           3.,   47.9198799
   2592,   16.9113045,           3.,   52.7339096
   2593,    22.008379,           3.,    58.673275
   2594,   25.1309128,           3.,   57.9968758
   2595,    39.164917,           3.,   57.2873764
   2596,   23.9053497,           3.,   56.4820251
   2597,   38.4122009,           3.,   23.6598701
   2598,   40.6916237,           3.,   55.8211136
   2599,   22.2300701,           3.,   54.9191971
   2600,   40.1156197,           3.,   25.2361946
   2601,   22.0712624,           3.,   25.2693825
   2602,   20.3188229,           3.,    26.728138
   2603,     20.59869,           3.,   53.1271019
   2604,   41.5349731,           3.,   27.0620575
   2605,   44.0336494,           3.,   50.3471947
   2606,    19.168766,           3.,   28.5945034
   2607,   44.5310135,           3.,   48.1669731
   2608,   17.1278324,           3.,   47.0113411
   2609,   43.7292252,           3.,    31.295742
   2610,   44.9610138,           3.,   45.8239937
   2611,   44.4750328,           3.,   33.5904922
   2612,   16.4605904,           3.,    44.710144
   2613,   45.2611351,           3.,   43.3849335
   2614,   16.8440762,           3.,   35.2332458
   2615,   16.3088894,           3.,   37.5874176
   2616,   45.3765984,           3.,   40.9177017
   2617,   30.8139629,           3.,   62.4362259
   2618,   28.6142521,           3.,   62.7278328
   2619,   32.8744011,           3.,   18.1324444
   2620,   33.3486557,           3.,   62.0417557
   2621,   27.0511417,           3.,   60.8572235
   2622,   24.7342777,           3.,   19.9571056
   2623,   35.4192162,           3.,   18.9348793
   2624,   42.3347626,           3.,   57.3661957
   2625,     46.18507,           3.,   29.9156284
   2626,   15.6940012,           3.,   50.3850098
   2627,   15.8044987,           3.,   29.6351147
   2628,   48.1602898,           3.,   40.4500542
   2629,   13.5868387,           3.,   39.9720306
   2630,   36.6611862,           3.,   56.1189041
   2631,   24.2208557,           3.,   52.9407768
   2632,   38.3359375,           3.,   26.9777622
   2633,   21.4455433,           3.,   49.5551338
   2634,   23.2750568,           3.,   27.3199577
   2635,   35.1216774,           3.,   58.9908066
   2636,   27.2803497,           3.,   57.5437584
   2637,    42.085495,           3.,   54.1679611
   2638,   41.7923203,           3.,   48.1166687
   2639,   42.2060394,           3.,    45.854126
   2640,    41.296936,           3.,   32.4966278
   2641,   18.3183212,           3.,   41.9948616
   2642,   42.5049973,           3.,   43.5582008
   2643,    42.626873,           3.,   41.2700729
   2644,   19.3637943,           3.,   35.8571243
   2645,   32.7821159,           3.,   59.4940033
   2646,   27.2446766,           3.,   22.5592175
   2647,   17.5510845,           3.,   32.9234543
   2648,   34.1535606,           3.,   21.4838181
   2649,   18.0586586,           3.,   49.1545219
   2650,   42.7298393,           3.,   29.0804558
   2651,   16.0619202,           3.,   39.9515533
   2652,   45.2960587,           3.,    38.428627
   2653,   30.0240574,           3.,   56.9995918
   2654,   39.5665016,           3.,   45.8720093
   2655,   39.9431801,           3.,   41.5316696
   2656,   41.6478653,           3.,   51.7092361
   2657,   20.2647018,           3.,   33.7511215
   2658,   38.8946495,           3.,   54.4429703
   2659,   26.6381111,           3.,   54.3008232
   2660,   35.2360458,           3.,   24.5623112
   2661,   25.3021259,           3.,   26.4573956
   2662,   20.3886414,           3.,   47.7576981
   2663,   19.4467392,           3.,    45.928093
   2664,   18.4310341,           3.,   39.9533958
   2665,   42.3614578,           3.,   36.7779274
   2666,   40.4175301,           3.,   30.5028172
   2667,   18.6384201,           3.,   37.9219398
   2668,   42.5809326,           3.,   38.9799614
   2669,    24.251873,           3.,   23.9265919
   2670,   31.6336575,           3.,   20.7074661
   2671,   18.3259888,           3.,   30.6974602
   2672,   38.5882263,           3.,   50.8829918
   2673,   21.6896973,           3.,   36.8436432
   2674,   39.4129448,           3.,   28.6734772
   2675,   38.0190811,           3.,   31.8150158
   2676,   22.6797657,           3.,   46.1203918
   2677,   21.0524826,           3.,   40.0544167
   2678,   34.4004326,           3.,   26.6138744
   2679,   34.7173729,           3.,   56.7128143
   2680,   39.8928375,           3.,   39.4223747
   2681,   24.6112556,           3.,   49.6536942
   2682,    33.114994,           3.,   23.8423576
   2683,   25.7848186,           3.,   28.8157082
   2684,   39.4416504,           3.,   35.4520683
   2685,   29.0234013,           3.,   19.8313503
   2686,   19.2207165,           3.,   51.1720695
   2687,   20.7411098,           3.,   43.0665627
   2688,   39.7117348,           3.,   37.3734665
   2689,   16.0851936,           3.,   42.3188591
   2690,   44.9959717,           3.,   35.9589806
   2691,   32.9440346,           3.,   54.3063126
   2692,   30.5561295,           3.,   23.2213154
   2693,   37.2250748,           3.,   39.7688637
   2694,    23.457798,           3.,   38.5438499
   2695,   21.0173435,           3.,   31.5930691
   2696,   37.0821991,           3.,   30.1235905
   2697,   36.4120445,           3.,   28.2987118
   2698,   23.6959667,           3.,   29.4766159
   2699,   37.0460434,           3.,   34.3682327
   2700,   23.6906319,           3.,   47.8316803
   2701,   25.3729115,           3.,   51.2028389
   2702,   21.6898441,           3.,    27.874918
   2703,    33.700882,           3.,   35.8084259
   2704,   27.6412849,           3.,   25.8088379
   2705,    22.459877,           3.,   41.7454948
   2706,   23.0583363,           3.,   34.7927742
   2707,   32.0913773,           3.,   28.5445156
   2708,   28.1216354,           3.,   31.1247272
   2709,   34.0762215,           3.,   31.5197182
   2710,    26.758112,           3.,   48.6181526
   2711,    36.616848,           3.,   53.6079063
   2712,   32.7417946,           3.,   51.1080208
   2713,   28.9708576,           3.,   47.9528656
   2714,   36.6401215,           3.,   47.9853821
   2715,   29.4342346,           3.,   50.5949821
   2716,   31.8972225,           3.,   33.9840126
   2717,   24.6360207,           3.,   40.7450409
   2718,   29.9786987,           3.,   28.2318897
   2719,    27.863039,           3.,   28.4355125
   2720,   24.1607113,           3.,   32.1828766
   2721,   25.9998379,           3.,   36.4857674
   2722,   24.9751968,           3.,   43.8064461
   2723,   30.1250343,           3.,   25.8118172
   2724,    30.487751,           3.,   37.4079857
   2725,    31.549942,           3.,     30.72999
   2726,   30.3088684,           3.,   53.4915237
   2727,   27.6231098,           3.,   39.4395218
   2728,   32.4344177,           3.,   26.1753578
   2729,   26.6951866,           3.,   33.4985199
   2730,   26.0616112,           3.,    46.257122
   2731,   34.2076454,           3.,   38.1687813
   2732,   30.1376209,           3.,   32.5049324
   2733,   27.8019104,           3.,   42.6107407
   2734,   29.3253269,           3.,   35.5853043
   2735,   31.7547493,           3.,   49.4026489
   2736,   31.5970364,           3.,   39.0636826
   2737,   36.9948463,           3.,   37.8067436
   2738,   34.0874748,           3.,   47.9485397
   2739,   31.0933552,           3.,   47.5320969
   2740,   32.7889824,           3.,    42.442028
   2741,   34.6634254,           3.,   40.1502228
   2742,   35.0707092,           3.,   43.8224716
   2743,   37.3663597,           3.,   41.7274704
   2744,   28.8057709,           3.,   45.1335449
   2745,   32.9790192,           3.,   45.5736122
   2746,   29.9219513,           3.,   30.0071621
   2747,   40.0245514,           3.,   21.4620895
   2748,   36.3994789,           3.,   22.4168568
   2749,   43.3260994,           3.,   52.3860054
   2750,   37.2923622,           3.,   58.2860184
   2751,   30.2276917,           3.,   59.9167747
   2752,   37.0102768,           3.,   25.5184689
   2753,   32.5280609,           3.,   56.9018707
   2754,    41.931778,           3.,   34.5723343
   2755,   41.5280533,           3.,   50.1894951
   2756,   38.2148285,           3.,   55.9376831
   2757,   21.4039345,           3.,   29.4642048
   2758,   18.7029305,           3.,   43.9977837
   2759,   22.6641254,           3.,    51.295826
   2760,   35.9104881,           3.,   26.8536263
   2761,   38.9417572,           3.,   33.5216064
   2762,   39.8456841,           3.,   43.6602364
   2763,    39.132328,           3.,   48.1976166
   2764,   40.2337265,           3.,   52.8141937
   2765,   34.1568298,           3.,   28.7974796
   2766,   35.6276207,           3.,    33.285965
   2767,   37.3415375,           3.,   43.7332268
   2768,   37.0937805,           3.,   45.8339767
   2769,   36.0610237,           3.,   50.1656151
   2770,   34.5701637,           3.,   52.2902756
   2771,   34.6558571,           3.,   54.9091721
   2772,   26.0785313,           3.,   30.6707191
   2773,    36.847599,           3.,   35.9541016
   2774,   21.5575619,           3.,   44.6630936
   2775,   20.0434723,           3.,   41.7723618
   2776,   20.4942055,           3.,   38.2921906
   2777,   34.9749336,           3.,   41.9913177
   2778,    34.858799,           3.,   45.7603683
   2779,   34.3687477,           3.,   49.6646118
   2780,   23.0653572,           3.,   43.3450699
   2781,    27.110178,           3.,   51.2019768
   2782,   28.7252502,           3.,   33.9481201
   2783,   32.7763634,           3.,   47.0093422
   2784,   33.1065483,           3.,   43.9973755
   2785,   31.0755863,           3.,   45.6767426
   2786,   29.6995735,           3.,   40.1781197
   2787,   30.0708847,           3.,   41.7780838
   2788,   32.2932472,           3.,   40.8355827
   2789,   30.7825565,           3.,   43.3141975
   2790,   31.5710831,           3.,   44.2993355
   2791,   33.9376984,           0.,   64.7288361
   2792,   36.7789841,           0.,    63.933609
   2793,   39.4425545,           0.,   62.6634102
   2794,   44.0270042,           0.,   58.9694328
   2795,   45.8951683,           0.,   56.6833572
   2796,   48.7484741,           0.,   51.5238647
   2797,   50.4402733,           0.,   45.8731003
   2798,          51.,           0.,   39.9999886
   2799,   50.4402695,           0.,   34.1268806
   2800,   48.7484703,           0.,   28.4761238
   2801,   45.8951645,           0.,   23.3166409
   2802,   44.0270004,           0.,   21.0305672
   2803,   39.4425507,           0.,   17.3365898
   2804,   36.7789841,           0.,   16.0663891
   2805,   33.9377022,           0.,   15.2711611
   2806,          31.,           0.,          65.
   2807,          31.,           0.,          15.
   2808,   28.0622997,           0.,   15.2711611
   2809,   25.2210159,           0.,   16.0663891
   2810,   22.5574474,           0.,   17.3365898
   2811,   17.9729958,           0.,   21.0305691
   2812,   16.1048317,           0.,   23.3166447
   2813,   13.2515259,           0.,   28.4761353
   2814,   11.5597258,           0.,   34.1268997
   2815,          11.,           0.,   40.0000114
   2816,   11.5597286,           0.,   45.8731194
   2817,   13.2515297,           0.,   51.5238762
   2818,   16.1048336,           0.,   56.6833572
   2819,   17.9729977,           0.,   58.9694328
   2820,   22.5574493,           0.,   62.6634102
   2821,   25.2210159,           0.,    63.933609
   2822,   28.0622978,           0.,   64.7288361
   2823,   41.8702965,           0.,   60.9849892
   2824,   47.4688263,           0.,   54.1850395
   2825,   49.7375603,           0.,   48.7414093
   2826,   50.8602791,           0.,   42.9499207
   2827,   50.8602791,           0.,   37.0500603
   2828,   49.7375565,           0.,   31.2585735
   2829,   47.4688225,           0.,   25.8149586
   2830,   41.8702965,           0.,   19.0150108
   2831,   20.1297016,           0.,   19.0150127
   2832,   14.5311747,           0.,   25.8149624
   2833,   12.2624388,           0.,   31.2585926
   2834,     11.13972,           0.,   37.0500793
   2835,   11.1397219,           0.,   42.9499397
   2836,   12.2624445,           0.,   48.7414246
   2837,   14.5311766,           0.,   54.1850395
   2838,   20.1297035,           0.,   60.9849892
   2839,   35.8506927,           0.,   61.3840866
   2840,   20.1137028,           0.,   56.9514732
   2841,   14.0589342,           0.,   45.3280487
   2842,   14.2330503,           0.,   34.6853294
   2843,   18.4136066,           0.,    25.135313
   2844,    43.654007,           0.,   25.2684174
   2845,    30.376503,           0.,   17.4907131
   2846,   28.3944874,           0.,   16.9384403
   2847,   26.7967663,           0.,    18.281271
   2848,   41.9787254,           0.,   23.2325726
   2849,   20.2512589,           0.,   23.2181435
   2850,   47.6804771,           0.,   35.0948792
   2851,    47.709938,           0.,   45.8206329
   2852,   46.4044838,           0.,   50.8802338
   2853,     43.96521,           0.,   55.4129105
   2854,   18.3931103,           0.,   54.9371758
   2855,   38.2421875,           0.,   60.3938789
   2856,   24.2130451,           0.,   60.1130714
   2857,   40.4269257,           0.,   59.0532265
   2858,    45.350647,           0.,   53.2467499
   2859,   47.1681824,           0.,   48.3968887
   2860,   48.0449257,           0.,   43.1612473
   2861,   48.0384789,           0.,   37.7708664
   2862,   47.0660248,           0.,   32.4690781
   2863,   45.0503731,           0.,   27.5126762
   2864,    37.823597,           0.,   20.0284119
   2865,   22.3990707,           0.,   21.5301189
   2866,   16.9380283,           0.,   27.2958775
   2867,    14.914031,           0.,   32.1125793
   2868,   13.7777681,           0.,   37.3135948
   2869,   13.6770897,           0.,    42.650547
   2870,   14.7319555,           0.,   47.9198799
   2871,   16.9113045,           0.,   52.7339096
   2872,    22.008379,           0.,    58.673275
   2873,   25.1309128,           0.,   57.9968758
   2874,    39.164917,           0.,   57.2873764
   2875,   23.9053497,           0.,   56.4820251
   2876,   38.4122009,           0.,   23.6598701
   2877,   40.6916237,           0.,   55.8211136
   2878,   22.2300701,           0.,   54.9191971
   2879,   40.1156197,           0.,   25.2361946
   2880,   22.0712624,           0.,   25.2693825
   2881,   20.3188229,           0.,    26.728138
   2882,     20.59869,           0.,   53.1271019
   2883,   41.5349731,           0.,   27.0620575
   2884,   44.0336494,           0.,   50.3471947
   2885,    19.168766,           0.,   28.5945034
   2886,   44.5310135,           0.,   48.1669731
   2887,   17.1278324,           0.,   47.0113411
   2888,   43.7292252,           0.,    31.295742
   2889,   44.9610138,           0.,   45.8239937
   2890,   44.4750328,           0.,   33.5904922
   2891,   16.4605904,           0.,    44.710144
   2892,   45.2611351,           0.,   43.3849335
   2893,   16.8440762,           0.,   35.2332458
   2894,   16.3088894,           0.,   37.5874176
   2895,   45.3765984,           0.,   40.9177017
   2896,   30.8139629,           0.,   62.4362259
   2897,   28.6142521,           0.,   62.7278328
   2898,   32.8744011,           0.,   18.1324444
   2899,   33.3486557,           0.,   62.0417557
   2900,   27.0511417,           0.,   60.8572235
   2901,   24.7342777,           0.,   19.9571056
   2902,   35.4192162,           0.,   18.9348793
   2903,   42.3347626,           0.,   57.3661957
   2904,     46.18507,           0.,   29.9156284
   2905,   15.6940012,           0.,   50.3850098
   2906,   15.8044987,           0.,   29.6351147
   2907,   48.1602898,           0.,   40.4500542
   2908,   13.5868387,           0.,   39.9720306
   2909,   36.6611862,           0.,   56.1189041
   2910,   24.2208557,           0.,   52.9407768
   2911,   38.3359375,           0.,   26.9777622
   2912,   21.4455433,           0.,   49.5551338
   2913,   23.2750568,           0.,   27.3199577
   2914,   35.1216774,           0.,   58.9908066
   2915,   27.2803497,           0.,   57.5437584
   2916,    42.085495,           0.,   54.1679611
   2917,   41.7923203,           0.,   48.1166687
   2918,   42.2060394,           0.,    45.854126
   2919,    41.296936,           0.,   32.4966278
   2920,   18.3183212,           0.,   41.9948616
   2921,   42.5049973,           0.,   43.5582008
   2922,    42.626873,           0.,   41.2700729
   2923,   19.3637943,           0.,   35.8571243
   2924,   32.7821159,           0.,   59.4940033
   2925,   27.2446766,           0.,   22.5592175
   2926,   17.5510845,           0.,   32.9234543
   2927,   34.1535606,           0.,   21.4838181
   2928,   18.0586586,           0.,   49.1545219
   2929,   42.7298393,           0.,   29.0804558
   2930,   16.0619202,           0.,   39.9515533
   2931,   45.2960587,           0.,    38.428627
   2932,   30.0240574,           0.,   56.9995918
   2933,   39.5665016,           0.,   45.8720093
   2934,   39.9431801,           0.,   41.5316696
   2935,   41.6478653,           0.,   51.7092361
   2936,   20.2647018,           0.,   33.7511215
   2937,   38.8946495,           0.,   54.4429703
   2938,   26.6381111,           0.,   54.3008232
   2939,   35.2360458,           0.,   24.5623112
   2940,   25.3021259,           0.,   26.4573956
   2941,   20.3886414,           0.,   47.7576981
   2942,   19.4467392,           0.,    45.928093
   2943,   18.4310341,           0.,   39.9533958
   2944,   42.3614578,           0.,   36.7779274
   2945,   40.4175301,           0.,   30.5028172
   2946,   18.6384201,           0.,   37.9219398
   2947,   42.5809326,           0.,   38.9799614
   2948,    24.251873,           0.,   23.9265919
   2949,   31.6336575,           0.,   20.7074661
   2950,   18.3259888,           0.,   30.6974602
   2951,   38.5882263,           0.,   50.8829918
   2952,   21.6896973,           0.,   36.8436432
   2953,   39.4129448,           0.,   28.6734772
   2954,   38.0190811,           0.,   31.8150158
   2955,   22.6797657,           0.,   46.1203918
   2956,   21.0524826,           0.,   40.0544167
   2957,   34.4004326,           0.,   26.6138744
   2958,   34.7173729,           0.,   56.7128143
   2959,   39.8928375,           0.,   39.4223747
   2960,   24.6112556,           0.,   49.6536942
   2961,    33.114994,           0.,   23.8423576
   2962,   25.7848186,           0.,   28.8157082
   2963,   39.4416504,           0.,   35.4520683
   2964,   29.0234013,           0.,   19.8313503
   2965,   19.2207165,           0.,   51.1720695
   2966,   20.7411098,           0.,   43.0665627
   2967,   39.7117348,           0.,   37.3734665
   2968,   16.0851936,           0.,   42.3188591
   2969,   44.9959717,           0.,   35.9589806
   2970,   32.9440346,           0.,   54.3063126
   2971,   30.5561295,           0.,   23.2213154
   2972,   37.2250748,           0.,   39.7688637
   2973,    23.457798,           0.,   38.5438499
   2974,   21.0173435,           0.,   31.5930691
   2975,   37.0821991,           0.,   30.1235905
   2976,   36.4120445,           0.,   28.2987118
   2977,   23.6959667,           0.,   29.4766159
   2978,   37.0460434,           0.,   34.3682327
   2979,   23.6906319,           0.,   47.8316803
   2980,   25.3729115,           0.,   51.2028389
   2981,   21.6898441,           0.,    27.874918
   2982,    33.700882,           0.,   35.8084259
   2983,   27.6412849,           0.,   25.8088379
   2984,    22.459877,           0.,   41.7454948
   2985,   23.0583363,           0.,   34.7927742
   2986,   32.0913773,           0.,   28.5445156
   2987,   28.1216354,           0.,   31.1247272
   2988,   34.0762215,           0.,   31.5197182
   2989,    26.758112,           0.,   48.6181526
   2990,    36.616848,           0.,   53.6079063
   2991,   32.7417946,           0.,   51.1080208
   2992,   28.9708576,           0.,   47.9528656
   2993,   36.6401215,           0.,   47.9853821
   2994,   29.4342346,           0.,   50.5949821
   2995,   31.8972225,           0.,   33.9840126
   2996,   24.6360207,           0.,   40.7450409
   2997,   29.9786987,           0.,   28.2318897
   2998,    27.863039,           0.,   28.4355125
   2999,   24.1607113,           0.,   32.1828766
   3000,   25.9998379,           0.,   36.4857674
   3001,   24.9751968,           0.,   43.8064461
   3002,   30.1250343,           0.,   25.8118172
   3003,    30.487751,           0.,   37.4079857
   3004,    31.549942,           0.,     30.72999
   3005,   30.3088684,           0.,   53.4915237
   3006,   27.6231098,           0.,   39.4395218
   3007,   32.4344177,           0.,   26.1753578
   3008,   26.6951866,           0.,   33.4985199
   3009,   26.0616112,           0.,    46.257122
   3010,   34.2076454,           0.,   38.1687813
   3011,   30.1376209,           0.,   32.5049324
   3012,   27.8019104,           0.,   42.6107407
   3013,   29.3253269,           0.,   35.5853043
   3014,   31.7547493,           0.,   49.4026489
   3015,   31.5970364,           0.,   39.0636826
   3016,   36.9948463,           0.,   37.8067436
   3017,   34.0874748,           0.,   47.9485397
   3018,   31.0933552,           0.,   47.5320969
   3019,   32.7889824,           0.,    42.442028
   3020,   34.6634254,           0.,   40.1502228
   3021,   35.0707092,           0.,   43.8224716
   3022,   37.3663597,           0.,   41.7274704
   3023,   28.8057709,           0.,   45.1335449
   3024,   32.9790192,           0.,   45.5736122
   3025,   29.9219513,           0.,   30.0071621
   3026,   40.0245514,           0.,   21.4620895
   3027,   36.3994789,           0.,   22.4168568
   3028,   43.3260994,           0.,   52.3860054
   3029,   37.2923622,           0.,   58.2860184
   3030,   30.2276917,           0.,   59.9167747
   3031,   37.0102768,           0.,   25.5184689
   3032,   32.5280609,           0.,   56.9018707
   3033,    41.931778,           0.,   34.5723343
   3034,   41.5280533,           0.,   50.1894951
   3035,   38.2148285,           0.,   55.9376831
   3036,   21.4039345,           0.,   29.4642048
   3037,   18.7029305,           0.,   43.9977837
   3038,   22.6641254,           0.,    51.295826
   3039,   35.9104881,           0.,   26.8536263
   3040,   38.9417572,           0.,   33.5216064
   3041,   39.8456841,           0.,   43.6602364
   3042,    39.132328,           0.,   48.1976166
   3043,   40.2337265,           0.,   52.8141937
   3044,   34.1568298,           0.,   28.7974796
   3045,   35.6276207,           0.,    33.285965
   3046,   37.3415375,           0.,   43.7332268
   3047,   37.0937805,           0.,   45.8339767
   3048,   36.0610237,           0.,   50.1656151
   3049,   34.5701637,           0.,   52.2902756
   3050,   34.6558571,           0.,   54.9091721
   3051,   26.0785313,           0.,   30.6707191
   3052,    36.847599,           0.,   35.9541016
   3053,   21.5575619,           0.,   44.6630936
   3054,   20.0434723,           0.,   41.7723618
   3055,   20.4942055,           0.,   38.2921906
   3056,   34.9749336,           0.,   41.9913177
   3057,    34.858799,           0.,   45.7603683
   3058,   34.3687477,           0.,   49.6646118
   3059,   23.0653572,           0.,   43.3450699
   3060,    27.110178,           0.,   51.2019768
   3061,   28.7252502,           0.,   33.9481201
   3062,   32.7763634,           0.,   47.0093422
   3063,   33.1065483,           0.,   43.9973755
   3064,   31.0755863,           0.,   45.6767426
   3065,   29.6995735,           0.,   40.1781197
   3066,   30.0708847,           0.,   41.7780838
   3067,   32.2932472,           0.,   40.8355827
   3068,   30.7825565,           0.,   43.3141975
   3069,   31.5710831,           0.,   44.2993355
   3070,   33.9376984,          -3.,   64.7288361
   3071,   36.7789841,          -3.,    63.933609
   3072,   39.4425545,          -3.,   62.6634102
   3073,   44.0270042,          -3.,   58.9694328
   3074,   45.8951683,          -3.,   56.6833572
   3075,   48.7484741,          -3.,   51.5238647
   3076,   50.4402733,          -3.,   45.8731003
   3077,          51.,          -3.,   39.9999886
   3078,   50.4402695,          -3.,   34.1268806
   3079,   48.7484703,          -3.,   28.4761238
   3080,   45.8951645,          -3.,   23.3166409
   3081,   44.0270004,          -3.,   21.0305672
   3082,   39.4425507,          -3.,   17.3365898
   3083,   36.7789841,          -3.,   16.0663891
   3084,   33.9377022,          -3.,   15.2711611
   3085,          31.,          -3.,          65.
   3086,          31.,          -3.,          15.
   3087,   28.0622997,          -3.,   15.2711611
   3088,   25.2210159,          -3.,   16.0663891
   3089,   22.5574474,          -3.,   17.3365898
   3090,   17.9729958,          -3.,   21.0305691
   3091,   16.1048317,          -3.,   23.3166447
   3092,   13.2515259,          -3.,   28.4761353
   3093,   11.5597258,          -3.,   34.1268997
   3094,          11.,          -3.,   40.0000114
   3095,   11.5597286,          -3.,   45.8731194
   3096,   13.2515297,          -3.,   51.5238762
   3097,   16.1048336,          -3.,   56.6833572
   3098,   17.9729977,          -3.,   58.9694328
   3099,   22.5574493,          -3.,   62.6634102
   3100,   25.2210159,          -3.,    63.933609
   3101,   28.0622978,          -3.,   64.7288361
   3102,   41.8702965,          -3.,   60.9849892
   3103,   47.4688263,          -3.,   54.1850395
   3104,   49.7375603,          -3.,   48.7414093
   3105,   50.8602791,          -3.,   42.9499207
   3106,   50.8602791,          -3.,   37.0500603
   3107,   49.7375565,          -3.,   31.2585735
   3108,   47.4688225,          -3.,   25.8149586
   3109,   41.8702965,          -3.,   19.0150108
   3110,   20.1297016,          -3.,   19.0150127
   3111,   14.5311747,          -3.,   25.8149624
   3112,   12.2624388,          -3.,   31.2585926
   3113,     11.13972,          -3.,   37.0500793
   3114,   11.1397219,          -3.,   42.9499397
   3115,   12.2624445,          -3.,   48.7414246
   3116,   14.5311766,          -3.,   54.1850395
   3117,   20.1297035,          -3.,   60.9849892
   3118,   35.8506927,          -3.,   61.3840866
   3119,   20.1137028,          -3.,   56.9514732
   3120,   14.0589342,          -3.,   45.3280487
   3121,   14.2330503,          -3.,   34.6853294
   3122,   18.4136066,          -3.,    25.135313
   3123,    43.654007,          -3.,   25.2684174
   3124,    30.376503,          -3.,   17.4907131
   3125,   28.3944874,          -3.,   16.9384403
   3126,   26.7967663,          -3.,    18.281271
   3127,   41.9787254,          -3.,   23.2325726
   3128,   20.2512589,          -3.,   23.2181435
   3129,   47.6804771,          -3.,   35.0948792
   3130,    47.709938,          -3.,   45.8206329
   3131,   46.4044838,          -3.,   50.8802338
   3132,     43.96521,          -3.,   55.4129105
   3133,   18.3931103,          -3.,   54.9371758
   3134,   38.2421875,          -3.,   60.3938789
   3135,   24.2130451,          -3.,   60.1130714
   3136,   40.4269257,          -3.,   59.0532265
   3137,    45.350647,          -3.,   53.2467499
   3138,   47.1681824,          -3.,   48.3968887
   3139,   48.0449257,          -3.,   43.1612473
   3140,   48.0384789,          -3.,   37.7708664
   3141,   47.0660248,          -3.,   32.4690781
   3142,   45.0503731,          -3.,   27.5126762
   3143,    37.823597,          -3.,   20.0284119
   3144,   22.3990707,          -3.,   21.5301189
   3145,   16.9380283,          -3.,   27.2958775
   3146,    14.914031,          -3.,   32.1125793
   3147,   13.7777681,          -3.,   37.3135948
   3148,   13.6770897,          -3.,    42.650547
   3149,   14.7319555,          -3.,   47.9198799
   3150,   16.9113045,          -3.,   52.7339096
   3151,    22.008379,          -3.,    58.673275
   3152,   25.1309128,          -3.,   57.9968758
   3153,    39.164917,          -3.,   57.2873764
   3154,   23.9053497,          -3.,   56.4820251
   3155,   38.4122009,          -3.,   23.6598701
   3156,   40.6916237,          -3.,   55.8211136
   3157,   22.2300701,          -3.,   54.9191971
   3158,   40.1156197,          -3.,   25.2361946
   3159,   22.0712624,          -3.,   25.2693825
   3160,   20.3188229,          -3.,    26.728138
   3161,     20.59869,          -3.,   53.1271019
   3162,   41.5349731,          -3.,   27.0620575
   3163,   44.0336494,          -3.,   50.3471947
   3164,    19.168766,          -3.,   28.5945034
   3165,   44.5310135,          -3.,   48.1669731
   3166,   17.1278324,          -3.,   47.0113411
   3167,   43.7292252,          -3.,    31.295742
   3168,   44.9610138,          -3.,   45.8239937
   3169,   44.4750328,          -3.,   33.5904922
   3170,   16.4605904,          -3.,    44.710144
   3171,   45.2611351,          -3.,   43.3849335
   3172,   16.8440762,          -3.,   35.2332458
   3173,   16.3088894,          -3.,   37.5874176
   3174,   45.3765984,          -3.,   40.9177017
   3175,   30.8139629,          -3.,   62.4362259
   3176,   28.6142521,          -3.,   62.7278328
   3177,   32.8744011,          -3.,   18.1324444
   3178,   33.3486557,          -3.,   62.0417557
   3179,   27.0511417,          -3.,   60.8572235
   3180,   24.7342777,          -3.,   19.9571056
   3181,   35.4192162,          -3.,   18.9348793
   3182,   42.3347626,          -3.,   57.3661957
   3183,     46.18507,          -3.,   29.9156284
   3184,   15.6940012,          -3.,   50.3850098
   3185,   15.8044987,          -3.,   29.6351147
   3186,   48.1602898,          -3.,   40.4500542
   3187,   13.5868387,          -3.,   39.9720306
   3188,   36.6611862,          -3.,   56.1189041
   3189,   24.2208557,          -3.,   52.9407768
   3190,   38.3359375,          -3.,   26.9777622
   3191,   21.4455433,          -3.,   49.5551338
   3192,   23.2750568,          -3.,   27.3199577
   3193,   35.1216774,          -3.,   58.9908066
   3194,   27.2803497,          -3.,   57.5437584
   3195,    42.085495,          -3.,   54.1679611
   3196,   41.7923203,          -3.,   48.1166687
   3197,   42.2060394,          -3.,    45.854126
   3198,    41.296936,          -3.,   32.4966278
   3199,   18.3183212,          -3.,   41.9948616
   3200,   42.5049973,          -3.,   43.5582008
   3201,    42.626873,          -3.,   41.2700729
   3202,   19.3637943,          -3.,   35.8571243
   3203,   32.7821159,          -3.,   59.4940033
   3204,   27.2446766,          -3.,   22.5592175
   3205,   17.5510845,          -3.,   32.9234543
   3206,   34.1535606,          -3.,   21.4838181
   3207,   18.0586586,          -3.,   49.1545219
   3208,   42.7298393,          -3.,   29.0804558
   3209,   16.0619202,          -3.,   39.9515533
   3210,   45.2960587,          -3.,    38.428627
   3211,   30.0240574,          -3.,   56.9995918
   3212,   39.5665016,          -3.,   45.8720093
   3213,   39.9431801,          -3.,   41.5316696
   3214,   41.6478653,          -3.,   51.7092361
   3215,   20.2647018,          -3.,   33.7511215
   3216,   38.8946495,          -3.,   54.4429703
   3217,   26.6381111,          -3.,   54.3008232
   3218,   35.2360458,          -3.,   24.5623112
   3219,   25.3021259,          -3.,   26.4573956
   3220,   20.3886414,          -3.,   47.7576981
   3221,   19.4467392,          -3.,    45.928093
   3222,   18.4310341,          -3.,   39.9533958
   3223,   42.3614578,          -3.,   36.7779274
   3224,   40.4175301,          -3.,   30.5028172
   3225,   18.6384201,          -3.,   37.9219398
   3226,   42.5809326,          -3.,   38.9799614
   3227,    24.251873,          -3.,   23.9265919
   3228,   31.6336575,          -3.,   20.7074661
   3229,   18.3259888,          -3.,   30.6974602
   3230,   38.5882263,          -3.,   50.8829918
   3231,   21.6896973,          -3.,   36.8436432
   3232,   39.4129448,          -3.,   28.6734772
   3233,   38.0190811,          -3.,   31.8150158
   3234,   22.6797657,          -3.,   46.1203918
   3235,   21.0524826,          -3.,   40.0544167
   3236,   34.4004326,          -3.,   26.6138744
   3237,   34.7173729,          -3.,   56.7128143
   3238,   39.8928375,          -3.,   39.4223747
   3239,   24.6112556,          -3.,   49.6536942
   3240,    33.114994,          -3.,   23.8423576
   3241,   25.7848186,          -3.,   28.8157082
   3242,   39.4416504,          -3.,   35.4520683
   3243,   29.0234013,          -3.,   19.8313503
   3244,   19.2207165,          -3.,   51.1720695
   3245,   20.7411098,          -3.,   43.0665627
   3246,   39.7117348,          -3.,   37.3734665
   3247,   16.0851936,          -3.,   42.3188591
   3248,   44.9959717,          -3.,   35.9589806
   3249,   32.9440346,          -3.,   54.3063126
   3250,   30.5561295,          -3.,   23.2213154
   3251,   37.2250748,          -3.,   39.7688637
   3252,    23.457798,          -3.,   38.5438499
   3253,   21.0173435,          -3.,   31.5930691
   3254,   37.0821991,          -3.,   30.1235905
   3255,   36.4120445,          -3.,   28.2987118
   3256,   23.6959667,          -3.,   29.4766159
   3257,   37.0460434,          -3.,   34.3682327
   3258,   23.6906319,          -3.,   47.8316803
   3259,   25.3729115,          -3.,   51.2028389
   3260,   21.6898441,          -3.,    27.874918
   3261,    33.700882,          -3.,   35.8084259
   3262,   27.6412849,          -3.,   25.8088379
   3263,    22.459877,          -3.,   41.7454948
   3264,   23.0583363,          -3.,   34.7927742
   3265,   32.0913773,          -3.,   28.5445156
   3266,   28.1216354,          -3.,   31.1247272
   3267,   34.0762215,          -3.,   31.5197182
   3268,    26.758112,          -3.,   48.6181526
   3269,    36.616848,          -3.,   53.6079063
   3270,   32.7417946,          -3.,   51.1080208
   3271,   28.9708576,          -3.,   47.9528656
   3272,   36.6401215,          -3.,   47.9853821
   3273,   29.4342346,          -3.,   50.5949821
   3274,   31.8972225,          -3.,   33.9840126
   3275,   24.6360207,          -3.,   40.7450409
   3276,   29.9786987,          -3.,   28.2318897
   3277,    27.863039,          -3.,   28.4355125
   3278,   24.1607113,          -3.,   32.1828766
   3279,   25.9998379,          -3.,   36.4857674
   3280,   24.9751968,          -3.,   43.8064461
   3281,   30.1250343,          -3.,   25.8118172
   3282,    30.487751,          -3.,   37.4079857
   3283,    31.549942,          -3.,     30.72999
   3284,   30.3088684,          -3.,   53.4915237
   3285,   27.6231098,          -3.,   39.4395218
   3286,   32.4344177,          -3.,   26.1753578
   3287,   26.6951866,          -3.,   33.4985199
   3288,   26.0616112,          -3.,    46.257122
   3289,   34.2076454,          -3.,   38.1687813
   3290,   30.1376209,          -3.,   32.5049324
   3291,   27.8019104,          -3.,   42.6107407
   3292,   29.3253269,          -3.,   35.5853043
   3293,   31.7547493,          -3.,   49.4026489
   3294,   31.5970364,          -3.,   39.0636826
   3295,   36.9948463,          -3.,   37.8067436
   3296,   34.0874748,          -3.,   47.9485397
   3297,   31.0933552,          -3.,   47.5320969
   3298,   32.7889824,          -3.,    42.442028
   3299,   34.6634254,          -3.,   40.1502228
   3300,   35.0707092,          -3.,   43.8224716
   3301,   37.3663597,          -3.,   41.7274704
   3302,   28.8057709,          -3.,   45.1335449
   3303,   32.9790192,          -3.,   45.5736122
   3304,   29.9219513,          -3.,   30.0071621
   3305,   40.0245514,          -3.,   21.4620895
   3306,   36.3994789,          -3.,   22.4168568
   3307,   43.3260994,          -3.,   52.3860054
   3308,   37.2923622,          -3.,   58.2860184
   3309,   30.2276917,          -3.,   59.9167747
   3310,   37.0102768,          -3.,   25.5184689
   3311,   32.5280609,          -3.,   56.9018707
   3312,    41.931778,          -3.,   34.5723343
   3313,   41.5280533,          -3.,   50.1894951
   3314,   38.2148285,          -3.,   55.9376831
   3315,   21.4039345,          -3.,   29.4642048
   3316,   18.7029305,          -3.,   43.9977837
   3317,   22.6641254,          -3.,    51.295826
   3318,   35.9104881,          -3.,   26.8536263
   3319,   38.9417572,          -3.,   33.5216064
   3320,   39.8456841,          -3.,   43.6602364
   3321,    39.132328,          -3.,   48.1976166
   3322,   40.2337265,          -3.,   52.8141937
   3323,   34.1568298,          -3.,   28.7974796
   3324,   35.6276207,          -3.,    33.285965
   3325,   37.3415375,          -3.,   43.7332268
   3326,   37.0937805,          -3.,   45.8339767
   3327,   36.0610237,          -3.,   50.1656151
   3328,   34.5701637,          -3.,   52.2902756
   3329,   34.6558571,          -3.,   54.9091721
   3330,   26.0785313,          -3.,   30.6707191
   3331,    36.847599,          -3.,   35.9541016
   3332,   21.5575619,          -3.,   44.6630936
   3333,   20.0434723,          -3.,   41.7723618
   3334,   20.4942055,          -3.,   38.2921906
   3335,   34.9749336,          -3.,   41.9913177
   3336,    34.858799,          -3.,   45.7603683
   3337,   34.3687477,          -3.,   49.6646118
   3338,   23.0653572,          -3.,   43.3450699
   3339,    27.110178,          -3.,   51.2019768
   3340,   28.7252502,          -3.,   33.9481201
   3341,   32.7763634,          -3.,   47.0093422
   3342,   33.1065483,          -3.,   43.9973755
   3343,   31.0755863,          -3.,   45.6767426
   3344,   29.6995735,          -3.,   40.1781197
   3345,   30.0708847,          -3.,   41.7780838
   3346,   32.2932472,          -3.,   40.8355827
   3347,   30.7825565,          -3.,   43.3141975
   3348,   31.5710831,          -3.,   44.2993355
   3349,   33.9376984,          -6.,   64.7288361
   3350,   36.7789841,          -6.,    63.933609
   3351,   39.4425545,          -6.,   62.6634102
   3352,   44.0270042,          -6.,   58.9694328
   3353,   45.8951683,          -6.,   56.6833572
   3354,   48.7484741,          -6.,   51.5238647
   3355,   50.4402733,          -6.,   45.8731003
   3356,          51.,          -6.,   39.9999886
   3357,   50.4402695,          -6.,   34.1268806
   3358,   48.7484703,          -6.,   28.4761238
   3359,   45.8951645,          -6.,   23.3166409
   3360,   44.0270004,          -6.,   21.0305672
   3361,   39.4425507,          -6.,   17.3365898
   3362,   36.7789841,          -6.,   16.0663891
   3363,   33.9377022,          -6.,   15.2711611
   3364,          31.,          -6.,          65.
   3365,          31.,          -6.,          15.
   3366,   28.0622997,          -6.,   15.2711611
   3367,   25.2210159,          -6.,   16.0663891
   3368,   22.5574474,          -6.,   17.3365898
   3369,   17.9729958,          -6.,   21.0305691
   3370,   16.1048317,          -6.,   23.3166447
   3371,   13.2515259,          -6.,   28.4761353
   3372,   11.5597258,          -6.,   34.1268997
   3373,          11.,          -6.,   40.0000114
   3374,   11.5597286,          -6.,   45.8731194
   3375,   13.2515297,          -6.,   51.5238762
   3376,   16.1048336,          -6.,   56.6833572
   3377,   17.9729977,          -6.,   58.9694328
   3378,   22.5574493,          -6.,   62.6634102
   3379,   25.2210159,          -6.,    63.933609
   3380,   28.0622978,          -6.,   64.7288361
   3381,   41.8702965,          -6.,   60.9849892
   3382,   47.4688263,          -6.,   54.1850395
   3383,   49.7375603,          -6.,   48.7414093
   3384,   50.8602791,          -6.,   42.9499207
   3385,   50.8602791,          -6.,   37.0500603
   3386,   49.7375565,          -6.,   31.2585735
   3387,   47.4688225,          -6.,   25.8149586
   3388,   41.8702965,          -6.,   19.0150108
   3389,   20.1297016,          -6.,   19.0150127
   3390,   14.5311747,          -6.,   25.8149624
   3391,   12.2624388,          -6.,   31.2585926
   3392,     11.13972,          -6.,   37.0500793
   3393,   11.1397219,          -6.,   42.9499397
   3394,   12.2624445,          -6.,   48.7414246
   3395,   14.5311766,          -6.,   54.1850395
   3396,   20.1297035,          -6.,   60.9849892
   3397,   35.8506927,          -6.,   61.3840866
   3398,   20.1137028,          -6.,   56.9514732
   3399,   14.0589342,          -6.,   45.3280487
   3400,   14.2330503,          -6.,   34.6853294
   3401,   18.4136066,          -6.,    25.135313
   3402,    43.654007,          -6.,   25.2684174
   3403,    30.376503,          -6.,   17.4907131
   3404,   28.3944874,          -6.,   16.9384403
   3405,   26.7967663,          -6.,    18.281271
   3406,   41.9787254,          -6.,   23.2325726
   3407,   20.2512589,          -6.,   23.2181435
   3408,   47.6804771,          -6.,   35.0948792
   3409,    47.709938,          -6.,   45.8206329
   3410,   46.4044838,          -6.,   50.8802338
   3411,     43.96521,          -6.,   55.4129105
   3412,   18.3931103,          -6.,   54.9371758
   3413,   38.2421875,          -6.,   60.3938789
   3414,   24.2130451,          -6.,   60.1130714
   3415,   40.4269257,          -6.,   59.0532265
   3416,    45.350647,          -6.,   53.2467499
   3417,   47.1681824,          -6.,   48.3968887
   3418,   48.0449257,          -6.,   43.1612473
   3419,   48.0384789,          -6.,   37.7708664
   3420,   47.0660248,          -6.,   32.4690781
   3421,   45.0503731,          -6.,   27.5126762
   3422,    37.823597,          -6.,   20.0284119
   3423,   22.3990707,          -6.,   21.5301189
   3424,   16.9380283,          -6.,   27.2958775
   3425,    14.914031,          -6.,   32.1125793
   3426,   13.7777681,          -6.,   37.3135948
   3427,   13.6770897,          -6.,    42.650547
   3428,   14.7319555,          -6.,   47.9198799
   3429,   16.9113045,          -6.,   52.7339096
   3430,    22.008379,          -6.,    58.673275
   3431,   25.1309128,          -6.,   57.9968758
   3432,    39.164917,          -6.,   57.2873764
   3433,   23.9053497,          -6.,   56.4820251
   3434,   38.4122009,          -6.,   23.6598701
   3435,   40.6916237,          -6.,   55.8211136
   3436,   22.2300701,          -6.,   54.9191971
   3437,   40.1156197,          -6.,   25.2361946
   3438,   22.0712624,          -6.,   25.2693825
   3439,   20.3188229,          -6.,    26.728138
   3440,     20.59869,          -6.,   53.1271019
   3441,   41.5349731,          -6.,   27.0620575
   3442,   44.0336494,          -6.,   50.3471947
   3443,    19.168766,          -6.,   28.5945034
   3444,   44.5310135,          -6.,   48.1669731
   3445,   17.1278324,          -6.,   47.0113411
   3446,   43.7292252,          -6.,    31.295742
   3447,   44.9610138,          -6.,   45.8239937
   3448,   44.4750328,          -6.,   33.5904922
   3449,   16.4605904,          -6.,    44.710144
   3450,   45.2611351,          -6.,   43.3849335
   3451,   16.8440762,          -6.,   35.2332458
   3452,   16.3088894,          -6.,   37.5874176
   3453,   45.3765984,          -6.,   40.9177017
   3454,   30.8139629,          -6.,   62.4362259
   3455,   28.6142521,          -6.,   62.7278328
   3456,   32.8744011,          -6.,   18.1324444
   3457,   33.3486557,          -6.,   62.0417557
   3458,   27.0511417,          -6.,   60.8572235
   3459,   24.7342777,          -6.,   19.9571056
   3460,   35.4192162,          -6.,   18.9348793
   3461,   42.3347626,          -6.,   57.3661957
   3462,     46.18507,          -6.,   29.9156284
   3463,   15.6940012,          -6.,   50.3850098
   3464,   15.8044987,          -6.,   29.6351147
   3465,   48.1602898,          -6.,   40.4500542
   3466,   13.5868387,          -6.,   39.9720306
   3467,   36.6611862,          -6.,   56.1189041
   3468,   24.2208557,          -6.,   52.9407768
   3469,   38.3359375,          -6.,   26.9777622
   3470,   21.4455433,          -6.,   49.5551338
   3471,   23.2750568,          -6.,   27.3199577
   3472,   35.1216774,          -6.,   58.9908066
   3473,   27.2803497,          -6.,   57.5437584
   3474,    42.085495,          -6.,   54.1679611
   3475,   41.7923203,          -6.,   48.1166687
   3476,   42.2060394,          -6.,    45.854126
   3477,    41.296936,          -6.,   32.4966278
   3478,   18.3183212,          -6.,   41.9948616
   3479,   42.5049973,          -6.,   43.5582008
   3480,    42.626873,          -6.,   41.2700729
   3481,   19.3637943,          -6.,   35.8571243
   3482,   32.7821159,          -6.,   59.4940033
   3483,   27.2446766,          -6.,   22.5592175
   3484,   17.5510845,          -6.,   32.9234543
   3485,   34.1535606,          -6.,   21.4838181
   3486,   18.0586586,          -6.,   49.1545219
   3487,   42.7298393,          -6.,   29.0804558
   3488,   16.0619202,          -6.,   39.9515533
   3489,   45.2960587,          -6.,    38.428627
   3490,   30.0240574,          -6.,   56.9995918
   3491,   39.5665016,          -6.,   45.8720093
   3492,   39.9431801,          -6.,   41.5316696
   3493,   41.6478653,          -6.,   51.7092361
   3494,   20.2647018,          -6.,   33.7511215
   3495,   38.8946495,          -6.,   54.4429703
   3496,   26.6381111,          -6.,   54.3008232
   3497,   35.2360458,          -6.,   24.5623112
   3498,   25.3021259,          -6.,   26.4573956
   3499,   20.3886414,          -6.,   47.7576981
   3500,   19.4467392,          -6.,    45.928093
   3501,   18.4310341,          -6.,   39.9533958
   3502,   42.3614578,          -6.,   36.7779274
   3503,   40.4175301,          -6.,   30.5028172
   3504,   18.6384201,          -6.,   37.9219398
   3505,   42.5809326,          -6.,   38.9799614
   3506,    24.251873,          -6.,   23.9265919
   3507,   31.6336575,          -6.,   20.7074661
   3508,   18.3259888,          -6.,   30.6974602
   3509,   38.5882263,          -6.,   50.8829918
   3510,   21.6896973,          -6.,   36.8436432
   3511,   39.4129448,          -6.,   28.6734772
   3512,   38.0190811,          -6.,   31.8150158
   3513,   22.6797657,          -6.,   46.1203918
   3514,   21.0524826,          -6.,   40.0544167
   3515,   34.4004326,          -6.,   26.6138744
   3516,   34.7173729,          -6.,   56.7128143
   3517,   39.8928375,          -6.,   39.4223747
   3518,   24.6112556,          -6.,   49.6536942
   3519,    33.114994,          -6.,   23.8423576
   3520,   25.7848186,          -6.,   28.8157082
   3521,   39.4416504,          -6.,   35.4520683
   3522,   29.0234013,          -6.,   19.8313503
   3523,   19.2207165,          -6.,   51.1720695
   3524,   20.7411098,          -6.,   43.0665627
   3525,   39.7117348,          -6.,   37.3734665
   3526,   16.0851936,          -6.,   42.3188591
   3527,   44.9959717,          -6.,   35.9589806
   3528,   32.9440346,          -6.,   54.3063126
   3529,   30.5561295,          -6.,   23.2213154
   3530,   37.2250748,          -6.,   39.7688637
   3531,    23.457798,          -6.,   38.5438499
   3532,   21.0173435,          -6.,   31.5930691
   3533,   37.0821991,          -6.,   30.1235905
   3534,   36.4120445,          -6.,   28.2987118
   3535,   23.6959667,          -6.,   29.4766159
   3536,   37.0460434,          -6.,   34.3682327
   3537,   23.6906319,          -6.,   47.8316803
   3538,   25.3729115,          -6.,   51.2028389
   3539,   21.6898441,          -6.,    27.874918
   3540,    33.700882,          -6.,   35.8084259
   3541,   27.6412849,          -6.,   25.8088379
   3542,    22.459877,          -6.,   41.7454948
   3543,   23.0583363,          -6.,   34.7927742
   3544,   32.0913773,          -6.,   28.5445156
   3545,   28.1216354,          -6.,   31.1247272
   3546,   34.0762215,          -6.,   31.5197182
   3547,    26.758112,          -6.,   48.6181526
   3548,    36.616848,          -6.,   53.6079063
   3549,   32.7417946,          -6.,   51.1080208
   3550,   28.9708576,          -6.,   47.9528656
   3551,   36.6401215,          -6.,   47.9853821
   3552,   29.4342346,          -6.,   50.5949821
   3553,   31.8972225,          -6.,   33.9840126
   3554,   24.6360207,          -6.,   40.7450409
   3555,   29.9786987,          -6.,   28.2318897
   3556,    27.863039,          -6.,   28.4355125
   3557,   24.1607113,          -6.,   32.1828766
   3558,   25.9998379,          -6.,   36.4857674
   3559,   24.9751968,          -6.,   43.8064461
   3560,   30.1250343,          -6.,   25.8118172
   3561,    30.487751,          -6.,   37.4079857
   3562,    31.549942,          -6.,     30.72999
   3563,   30.3088684,          -6.,   53.4915237
   3564,   27.6231098,          -6.,   39.4395218
   3565,   32.4344177,          -6.,   26.1753578
   3566,   26.6951866,          -6.,   33.4985199
   3567,   26.0616112,          -6.,    46.257122
   3568,   34.2076454,          -6.,   38.1687813
   3569,   30.1376209,          -6.,   32.5049324
   3570,   27.8019104,          -6.,   42.6107407
   3571,   29.3253269,          -6.,   35.5853043
   3572,   31.7547493,          -6.,   49.4026489
   3573,   31.5970364,          -6.,   39.0636826
   3574,   36.9948463,          -6.,   37.8067436
   3575,   34.0874748,          -6.,   47.9485397
   3576,   31.0933552,          -6.,   47.5320969
   3577,   32.7889824,          -6.,    42.442028
   3578,   34.6634254,          -6.,   40.1502228
   3579,   35.0707092,          -6.,   43.8224716
   3580,   37.3663597,          -6.,   41.7274704
   3581,   28.8057709,          -6.,   45.1335449
   3582,   32.9790192,          -6.,   45.5736122
   3583,   29.9219513,          -6.,   30.0071621
   3584,   40.0245514,          -6.,   21.4620895
   3585,   36.3994789,          -6.,   22.4168568
   3586,   43.3260994,          -6.,   52.3860054
   3587,   37.2923622,          -6.,   58.2860184
   3588,   30.2276917,          -6.,   59.9167747
   3589,   37.0102768,          -6.,   25.5184689
   3590,   32.5280609,          -6.,   56.9018707
   3591,    41.931778,          -6.,   34.5723343
   3592,   41.5280533,          -6.,   50.1894951
   3593,   38.2148285,          -6.,   55.9376831
   3594,   21.4039345,          -6.,   29.4642048
   3595,   18.7029305,          -6.,   43.9977837
   3596,   22.6641254,          -6.,    51.295826
   3597,   35.9104881,          -6.,   26.8536263
   3598,   38.9417572,          -6.,   33.5216064
   3599,   39.8456841,          -6.,   43.6602364
   3600,    39.132328,          -6.,   48.1976166
   3601,   40.2337265,          -6.,   52.8141937
   3602,   34.1568298,          -6.,   28.7974796
   3603,   35.6276207,          -6.,    33.285965
   3604,   37.3415375,          -6.,   43.7332268
   3605,   37.0937805,          -6.,   45.8339767
   3606,   36.0610237,          -6.,   50.1656151
   3607,   34.5701637,          -6.,   52.2902756
   3608,   34.6558571,          -6.,   54.9091721
   3609,   26.0785313,          -6.,   30.6707191
   3610,    36.847599,          -6.,   35.9541016
   3611,   21.5575619,          -6.,   44.6630936
   3612,   20.0434723,          -6.,   41.7723618
   3613,   20.4942055,          -6.,   38.2921906
   3614,   34.9749336,          -6.,   41.9913177
   3615,    34.858799,          -6.,   45.7603683
   3616,   34.3687477,          -6.,   49.6646118
   3617,   23.0653572,          -6.,   43.3450699
   3618,    27.110178,          -6.,   51.2019768
   3619,   28.7252502,          -6.,   33.9481201
   3620,   32.7763634,          -6.,   47.0093422
   3621,   33.1065483,          -6.,   43.9973755
   3622,   31.0755863,          -6.,   45.6767426
   3623,   29.6995735,          -6.,   40.1781197
   3624,   30.0708847,          -6.,   41.7780838
   3625,   32.2932472,          -6.,   40.8355827
   3626,   30.7825565,          -6.,   43.3141975
   3627,   31.5710831,          -6.,   44.2993355
   3628,   33.9376984,          -9.,   64.7288361
   3629,   36.7789841,          -9.,    63.933609
   3630,   39.4425545,          -9.,   62.6634102
   3631,   44.0270042,          -9.,   58.9694328
   3632,   45.8951683,          -9.,   56.6833572
   3633,   48.7484741,          -9.,   51.5238647
   3634,   50.4402733,          -9.,   45.8731003
   3635,          51.,          -9.,   39.9999886
   3636,   50.4402695,          -9.,   34.1268806
   3637,   48.7484703,          -9.,   28.4761238
   3638,   45.8951645,          -9.,   23.3166409
   3639,   44.0270004,          -9.,   21.0305672
   3640,   39.4425507,          -9.,   17.3365898
   3641,   36.7789841,          -9.,   16.0663891
   3642,   33.9377022,          -9.,   15.2711611
   3643,          31.,          -9.,          65.
   3644,          31.,          -9.,          15.
   3645,   28.0622997,          -9.,   15.2711611
   3646,   25.2210159,          -9.,   16.0663891
   3647,   22.5574474,          -9.,   17.3365898
   3648,   17.9729958,          -9.,   21.0305691
   3649,   16.1048317,          -9.,   23.3166447
   3650,   13.2515259,          -9.,   28.4761353
   3651,   11.5597258,          -9.,   34.1268997
   3652,          11.,          -9.,   40.0000114
   3653,   11.5597286,          -9.,   45.8731194
   3654,   13.2515297,          -9.,   51.5238762
   3655,   16.1048336,          -9.,   56.6833572
   3656,   17.9729977,          -9.,   58.9694328
   3657,   22.5574493,          -9.,   62.6634102
   3658,   25.2210159,          -9.,    63.933609
   3659,   28.0622978,          -9.,   64.7288361
   3660,   41.8702965,          -9.,   60.9849892
   3661,   47.4688263,          -9.,   54.1850395
   3662,   49.7375603,          -9.,   48.7414093
   3663,   50.8602791,          -9.,   42.9499207
   3664,   50.8602791,          -9.,   37.0500603
   3665,   49.7375565,          -9.,   31.2585735
   3666,   47.4688225,          -9.,   25.8149586
   3667,   41.8702965,          -9.,   19.0150108
   3668,   20.1297016,          -9.,   19.0150127
   3669,   14.5311747,          -9.,   25.8149624
   3670,   12.2624388,          -9.,   31.2585926
   3671,     11.13972,          -9.,   37.0500793
   3672,   11.1397219,          -9.,   42.9499397
   3673,   12.2624445,          -9.,   48.7414246
   3674,   14.5311766,          -9.,   54.1850395
   3675,   20.1297035,          -9.,   60.9849892
   3676,   35.8506927,          -9.,   61.3840866
   3677,   20.1137028,          -9.,   56.9514732
   3678,   14.0589342,          -9.,   45.3280487
   3679,   14.2330503,          -9.,   34.6853294
   3680,   18.4136066,          -9.,    25.135313
   3681,    43.654007,          -9.,   25.2684174
   3682,    30.376503,          -9.,   17.4907131
   3683,   28.3944874,          -9.,   16.9384403
   3684,   26.7967663,          -9.,    18.281271
   3685,   41.9787254,          -9.,   23.2325726
   3686,   20.2512589,          -9.,   23.2181435
   3687,   47.6804771,          -9.,   35.0948792
   3688,    47.709938,          -9.,   45.8206329
   3689,   46.4044838,          -9.,   50.8802338
   3690,     43.96521,          -9.,   55.4129105
   3691,   18.3931103,          -9.,   54.9371758
   3692,   38.2421875,          -9.,   60.3938789
   3693,   24.2130451,          -9.,   60.1130714
   3694,   40.4269257,          -9.,   59.0532265
   3695,    45.350647,          -9.,   53.2467499
   3696,   47.1681824,          -9.,   48.3968887
   3697,   48.0449257,          -9.,   43.1612473
   3698,   48.0384789,          -9.,   37.7708664
   3699,   47.0660248,          -9.,   32.4690781
   3700,   45.0503731,          -9.,   27.5126762
   3701,    37.823597,          -9.,   20.0284119
   3702,   22.3990707,          -9.,   21.5301189
   3703,   16.9380283,          -9.,   27.2958775
   3704,    14.914031,          -9.,   32.1125793
   3705,   13.7777681,          -9.,   37.3135948
   3706,   13.6770897,          -9.,    42.650547
   3707,   14.7319555,          -9.,   47.9198799
   3708,   16.9113045,          -9.,   52.7339096
   3709,    22.008379,          -9.,    58.673275
   3710,   25.1309128,          -9.,   57.9968758
   3711,    39.164917,          -9.,   57.2873764
   3712,   23.9053497,          -9.,   56.4820251
   3713,   38.4122009,          -9.,   23.6598701
   3714,   40.6916237,          -9.,   55.8211136
   3715,   22.2300701,          -9.,   54.9191971
   3716,   40.1156197,          -9.,   25.2361946
   3717,   22.0712624,          -9.,   25.2693825
   3718,   20.3188229,          -9.,    26.728138
   3719,     20.59869,          -9.,   53.1271019
   3720,   41.5349731,          -9.,   27.0620575
   3721,   44.0336494,          -9.,   50.3471947
   3722,    19.168766,          -9.,   28.5945034
   3723,   44.5310135,          -9.,   48.1669731
   3724,   17.1278324,          -9.,   47.0113411
   3725,   43.7292252,          -9.,    31.295742
   3726,   44.9610138,          -9.,   45.8239937
   3727,   44.4750328,          -9.,   33.5904922
   3728,   16.4605904,          -9.,    44.710144
   3729,   45.2611351,          -9.,   43.3849335
   3730,   16.8440762,          -9.,   35.2332458
   3731,   16.3088894,          -9.,   37.5874176
   3732,   45.3765984,          -9.,   40.9177017
   3733,   30.8139629,          -9.,   62.4362259
   3734,   28.6142521,          -9.,   62.7278328
   3735,   32.8744011,          -9.,   18.1324444
   3736,   33.3486557,          -9.,   62.0417557
   3737,   27.0511417,          -9.,   60.8572235
   3738,   24.7342777,          -9.,   19.9571056
   3739,   35.4192162,          -9.,   18.9348793
   3740,   42.3347626,          -9.,   57.3661957
   3741,     46.18507,          -9.,   29.9156284
   3742,   15.6940012,          -9.,   50.3850098
   3743,   15.8044987,          -9.,   29.6351147
   3744,   48.1602898,          -9.,   40.4500542
   3745,   13.5868387,          -9.,   39.9720306
   3746,   36.6611862,          -9.,   56.1189041
   3747,   24.2208557,          -9.,   52.9407768
   3748,   38.3359375,          -9.,   26.9777622
   3749,   21.4455433,          -9.,   49.5551338
   3750,   23.2750568,          -9.,   27.3199577
   3751,   35.1216774,          -9.,   58.9908066
   3752,   27.2803497,          -9.,   57.5437584
   3753,    42.085495,          -9.,   54.1679611
   3754,   41.7923203,          -9.,   48.1166687
   3755,   42.2060394,          -9.,    45.854126
   3756,    41.296936,          -9.,   32.4966278
   3757,   18.3183212,          -9.,   41.9948616
   3758,   42.5049973,          -9.,   43.5582008
   3759,    42.626873,          -9.,   41.2700729
   3760,   19.3637943,          -9.,   35.8571243
   3761,   32.7821159,          -9.,   59.4940033
   3762,   27.2446766,          -9.,   22.5592175
   3763,   17.5510845,          -9.,   32.9234543
   3764,   34.1535606,          -9.,   21.4838181
   3765,   18.0586586,          -9.,   49.1545219
   3766,   42.7298393,          -9.,   29.0804558
   3767,   16.0619202,          -9.,   39.9515533
   3768,   45.2960587,          -9.,    38.428627
   3769,   30.0240574,          -9.,   56.9995918
   3770,   39.5665016,          -9.,   45.8720093
   3771,   39.9431801,          -9.,   41.5316696
   3772,   41.6478653,          -9.,   51.7092361
   3773,   20.2647018,          -9.,   33.7511215
   3774,   38.8946495,          -9.,   54.4429703
   3775,   26.6381111,          -9.,   54.3008232
   3776,   35.2360458,          -9.,   24.5623112
   3777,   25.3021259,          -9.,   26.4573956
   3778,   20.3886414,          -9.,   47.7576981
   3779,   19.4467392,          -9.,    45.928093
   3780,   18.4310341,          -9.,   39.9533958
   3781,   42.3614578,          -9.,   36.7779274
   3782,   40.4175301,          -9.,   30.5028172
   3783,   18.6384201,          -9.,   37.9219398
   3784,   42.5809326,          -9.,   38.9799614
   3785,    24.251873,          -9.,   23.9265919
   3786,   31.6336575,          -9.,   20.7074661
   3787,   18.3259888,          -9.,   30.6974602
   3788,   38.5882263,          -9.,   50.8829918
   3789,   21.6896973,          -9.,   36.8436432
   3790,   39.4129448,          -9.,   28.6734772
   3791,   38.0190811,          -9.,   31.8150158
   3792,   22.6797657,          -9.,   46.1203918
   3793,   21.0524826,          -9.,   40.0544167
   3794,   34.4004326,          -9.,   26.6138744
   3795,   34.7173729,          -9.,   56.7128143
   3796,   39.8928375,          -9.,   39.4223747
   3797,   24.6112556,          -9.,   49.6536942
   3798,    33.114994,          -9.,   23.8423576
   3799,   25.7848186,          -9.,   28.8157082
   3800,   39.4416504,          -9.,   35.4520683
   3801,   29.0234013,          -9.,   19.8313503
   3802,   19.2207165,          -9.,   51.1720695
   3803,   20.7411098,          -9.,   43.0665627
   3804,   39.7117348,          -9.,   37.3734665
   3805,   16.0851936,          -9.,   42.3188591
   3806,   44.9959717,          -9.,   35.9589806
   3807,   32.9440346,          -9.,   54.3063126
   3808,   30.5561295,          -9.,   23.2213154
   3809,   37.2250748,          -9.,   39.7688637
   3810,    23.457798,          -9.,   38.5438499
   3811,   21.0173435,          -9.,   31.5930691
   3812,   37.0821991,          -9.,   30.1235905
   3813,   36.4120445,          -9.,   28.2987118
   3814,   23.6959667,          -9.,   29.4766159
   3815,   37.0460434,          -9.,   34.3682327
   3816,   23.6906319,          -9.,   47.8316803
   3817,   25.3729115,          -9.,   51.2028389
   3818,   21.6898441,          -9.,    27.874918
   3819,    33.700882,          -9.,   35.8084259
   3820,   27.6412849,          -9.,   25.8088379
   3821,    22.459877,          -9.,   41.7454948
   3822,   23.0583363,          -9.,   34.7927742
   3823,   32.0913773,          -9.,   28.5445156
   3824,   28.1216354,          -9.,   31.1247272
   3825,   34.0762215,          -9.,   31.5197182
   3826,    26.758112,          -9.,   48.6181526
   3827,    36.616848,          -9.,   53.6079063
   3828,   32.7417946,          -9.,   51.1080208
   3829,   28.9708576,          -9.,   47.9528656
   3830,   36.6401215,          -9.,   47.9853821
   3831,   29.4342346,          -9.,   50.5949821
   3832,   31.8972225,          -9.,   33.9840126
   3833,   24.6360207,          -9.,   40.7450409
   3834,   29.9786987,          -9.,   28.2318897
   3835,    27.863039,          -9.,   28.4355125
   3836,   24.1607113,          -9.,   32.1828766
   3837,   25.9998379,          -9.,   36.4857674
   3838,   24.9751968,          -9.,   43.8064461
   3839,   30.1250343,          -9.,   25.8118172
   3840,    30.487751,          -9.,   37.4079857
   3841,    31.549942,          -9.,     30.72999
   3842,   30.3088684,          -9.,   53.4915237
   3843,   27.6231098,          -9.,   39.4395218
   3844,   32.4344177,          -9.,   26.1753578
   3845,   26.6951866,          -9.,   33.4985199
   3846,   26.0616112,          -9.,    46.257122
   3847,   34.2076454,          -9.,   38.1687813
   3848,   30.1376209,          -9.,   32.5049324
   3849,   27.8019104,          -9.,   42.6107407
   3850,   29.3253269,          -9.,   35.5853043
   3851,   31.7547493,          -9.,   49.4026489
   3852,   31.5970364,          -9.,   39.0636826
   3853,   36.9948463,          -9.,   37.8067436
   3854,   34.0874748,          -9.,   47.9485397
   3855,   31.0933552,          -9.,   47.5320969
   3856,   32.7889824,          -9.,    42.442028
   3857,   34.6634254,          -9.,   40.1502228
   3858,   35.0707092,          -9.,   43.8224716
   3859,   37.3663597,          -9.,   41.7274704
   3860,   28.8057709,          -9.,   45.1335449
   3861,   32.9790192,          -9.,   45.5736122
   3862,   29.9219513,          -9.,   30.0071621
   3863,   40.0245514,          -9.,   21.4620895
   3864,   36.3994789,          -9.,   22.4168568
   3865,   43.3260994,          -9.,   52.3860054
   3866,   37.2923622,          -9.,   58.2860184
   3867,   30.2276917,          -9.,   59.9167747
   3868,   37.0102768,          -9.,   25.5184689
   3869,   32.5280609,          -9.,   56.9018707
   3870,    41.931778,          -9.,   34.5723343
   3871,   41.5280533,          -9.,   50.1894951
   3872,   38.2148285,          -9.,   55.9376831
   3873,   21.4039345,          -9.,   29.4642048
   3874,   18.7029305,          -9.,   43.9977837
   3875,   22.6641254,          -9.,    51.295826
   3876,   35.9104881,          -9.,   26.8536263
   3877,   38.9417572,          -9.,   33.5216064
   3878,   39.8456841,          -9.,   43.6602364
   3879,    39.132328,          -9.,   48.1976166
   3880,   40.2337265,          -9.,   52.8141937
   3881,   34.1568298,          -9.,   28.7974796
   3882,   35.6276207,          -9.,    33.285965
   3883,   37.3415375,          -9.,   43.7332268
   3884,   37.0937805,          -9.,   45.8339767
   3885,   36.0610237,          -9.,   50.1656151
   3886,   34.5701637,          -9.,   52.2902756
   3887,   34.6558571,          -9.,   54.9091721
   3888,   26.0785313,          -9.,   30.6707191
   3889,    36.847599,          -9.,   35.9541016
   3890,   21.5575619,          -9.,   44.6630936
   3891,   20.0434723,          -9.,   41.7723618
   3892,   20.4942055,          -9.,   38.2921906
   3893,   34.9749336,          -9.,   41.9913177
   3894,    34.858799,          -9.,   45.7603683
   3895,   34.3687477,          -9.,   49.6646118
   3896,   23.0653572,          -9.,   43.3450699
   3897,    27.110178,          -9.,   51.2019768
   3898,   28.7252502,          -9.,   33.9481201
   3899,   32.7763634,          -9.,   47.0093422
   3900,   33.1065483,          -9.,   43.9973755
   3901,   31.0755863,          -9.,   45.6767426
   3902,   29.6995735,          -9.,   40.1781197
   3903,   30.0708847,          -9.,   41.7780838
   3904,   32.2932472,          -9.,   40.8355827
   3905,   30.7825565,          -9.,   43.3141975
   3906,   31.5710831,          -9.,   44.2993355
   3907,   33.9376984,         -12.,   64.7288361
   3908,   36.7789841,         -12.,    63.933609
   3909,   39.4425545,         -12.,   62.6634102
   3910,   44.0270042,         -12.,   58.9694328
   3911,   45.8951683,         -12.,   56.6833572
   3912,   48.7484741,         -12.,   51.5238647
   3913,   50.4402733,         -12.,   45.8731003
   3914,          51.,         -12.,   39.9999886
   3915,   50.4402695,         -12.,   34.1268806
   3916,   48.7484703,         -12.,   28.4761238
   3917,   45.8951645,         -12.,   23.3166409
   3918,   44.0270004,         -12.,   21.0305672
   3919,   39.4425507,         -12.,   17.3365898
   3920,   36.7789841,         -12.,   16.0663891
   3921,   33.9377022,         -12.,   15.2711611
   3922,          31.,         -12.,          65.
   3923,          31.,         -12.,          15.
   3924,   28.0622997,         -12.,   15.2711611
   3925,   25.2210159,         -12.,   16.0663891
   3926,   22.5574474,         -12.,   17.3365898
   3927,   17.9729958,         -12.,   21.0305691
   3928,   16.1048317,         -12.,   23.3166447
   3929,   13.2515259,         -12.,   28.4761353
   3930,   11.5597258,         -12.,   34.1268997
   3931,          11.,         -12.,   40.0000114
   3932,   11.5597286,         -12.,   45.8731194
   3933,   13.2515297,         -12.,   51.5238762
   3934,   16.1048336,         -12.,   56.6833572
   3935,   17.9729977,         -12.,   58.9694328
   3936,   22.5574493,         -12.,   62.6634102
   3937,   25.2210159,         -12.,    63.933609
   3938,   28.0622978,         -12.,   64.7288361
   3939,   41.8702965,         -12.,   60.9849892
   3940,   47.4688263,         -12.,   54.1850395
   3941,   49.7375603,         -12.,   48.7414093
   3942,   50.8602791,         -12.,   42.9499207
   3943,   50.8602791,         -12.,   37.0500603
   3944,   49.7375565,         -12.,   31.2585735
   3945,   47.4688225,         -12.,   25.8149586
   3946,   41.8702965,         -12.,   19.0150108
   3947,   20.1297016,         -12.,   19.0150127
   3948,   14.5311747,         -12.,   25.8149624
   3949,   12.2624388,         -12.,   31.2585926
   3950,     11.13972,         -12.,   37.0500793
   3951,   11.1397219,         -12.,   42.9499397
   3952,   12.2624445,         -12.,   48.7414246
   3953,   14.5311766,         -12.,   54.1850395
   3954,   20.1297035,         -12.,   60.9849892
   3955,   35.8506927,         -12.,   61.3840866
   3956,   20.1137028,         -12.,   56.9514732
   3957,   14.0589342,         -12.,   45.3280487
   3958,   14.2330503,         -12.,   34.6853294
   3959,   18.4136066,         -12.,    25.135313
   3960,    43.654007,         -12.,   25.2684174
   3961,    30.376503,         -12.,   17.4907131
   3962,   28.3944874,         -12.,   16.9384403
   3963,   26.7967663,         -12.,    18.281271
   3964,   41.9787254,         -12.,   23.2325726
   3965,   20.2512589,         -12.,   23.2181435
   3966,   47.6804771,         -12.,   35.0948792
   3967,    47.709938,         -12.,   45.8206329
   3968,   46.4044838,         -12.,   50.8802338
   3969,     43.96521,         -12.,   55.4129105
   3970,   18.3931103,         -12.,   54.9371758
   3971,   38.2421875,         -12.,   60.3938789
   3972,   24.2130451,         -12.,   60.1130714
   3973,   40.4269257,         -12.,   59.0532265
   3974,    45.350647,         -12.,   53.2467499
   3975,   47.1681824,         -12.,   48.3968887
   3976,   48.0449257,         -12.,   43.1612473
   3977,   48.0384789,         -12.,   37.7708664
   3978,   47.0660248,         -12.,   32.4690781
   3979,   45.0503731,         -12.,   27.5126762
   3980,    37.823597,         -12.,   20.0284119
   3981,   22.3990707,         -12.,   21.5301189
   3982,   16.9380283,         -12.,   27.2958775
   3983,    14.914031,         -12.,   32.1125793
   3984,   13.7777681,         -12.,   37.3135948
   3985,   13.6770897,         -12.,    42.650547
   3986,   14.7319555,         -12.,   47.9198799
   3987,   16.9113045,         -12.,   52.7339096
   3988,    22.008379,         -12.,    58.673275
   3989,   25.1309128,         -12.,   57.9968758
   3990,    39.164917,         -12.,   57.2873764
   3991,   23.9053497,         -12.,   56.4820251
   3992,   38.4122009,         -12.,   23.6598701
   3993,   40.6916237,         -12.,   55.8211136
   3994,   22.2300701,         -12.,   54.9191971
   3995,   40.1156197,         -12.,   25.2361946
   3996,   22.0712624,         -12.,   25.2693825
   3997,   20.3188229,         -12.,    26.728138
   3998,     20.59869,         -12.,   53.1271019
   3999,   41.5349731,         -12.,   27.0620575
   4000,   44.0336494,         -12.,   50.3471947
   4001,    19.168766,         -12.,   28.5945034
   4002,   44.5310135,         -12.,   48.1669731
   4003,   17.1278324,         -12.,   47.0113411
   4004,   43.7292252,         -12.,    31.295742
   4005,   44.9610138,         -12.,   45.8239937
   4006,   44.4750328,         -12.,   33.5904922
   4007,   16.4605904,         -12.,    44.710144
   4008,   45.2611351,         -12.,   43.3849335
   4009,   16.8440762,         -12.,   35.2332458
   4010,   16.3088894,         -12.,   37.5874176
   4011,   45.3765984,         -12.,   40.9177017
   4012,   30.8139629,         -12.,   62.4362259
   4013,   28.6142521,         -12.,   62.7278328
   4014,   32.8744011,         -12.,   18.1324444
   4015,   33.3486557,         -12.,   62.0417557
   4016,   27.0511417,         -12.,   60.8572235
   4017,   24.7342777,         -12.,   19.9571056
   4018,   35.4192162,         -12.,   18.9348793
   4019,   42.3347626,         -12.,   57.3661957
   4020,     46.18507,         -12.,   29.9156284
   4021,   15.6940012,         -12.,   50.3850098
   4022,   15.8044987,         -12.,   29.6351147
   4023,   48.1602898,         -12.,   40.4500542
   4024,   13.5868387,         -12.,   39.9720306
   4025,   36.6611862,         -12.,   56.1189041
   4026,   24.2208557,         -12.,   52.9407768
   4027,   38.3359375,         -12.,   26.9777622
   4028,   21.4455433,         -12.,   49.5551338
   4029,   23.2750568,         -12.,   27.3199577
   4030,   35.1216774,         -12.,   58.9908066
   4031,   27.2803497,         -12.,   57.5437584
   4032,    42.085495,         -12.,   54.1679611
   4033,   41.7923203,         -12.,   48.1166687
   4034,   42.2060394,         -12.,    45.854126
   4035,    41.296936,         -12.,   32.4966278
   4036,   18.3183212,         -12.,   41.9948616
   4037,   42.5049973,         -12.,   43.5582008
   4038,    42.626873,         -12.,   41.2700729
   4039,   19.3637943,         -12.,   35.8571243
   4040,   32.7821159,         -12.,   59.4940033
   4041,   27.2446766,         -12.,   22.5592175
   4042,   17.5510845,         -12.,   32.9234543
   4043,   34.1535606,         -12.,   21.4838181
   4044,   18.0586586,         -12.,   49.1545219
   4045,   42.7298393,         -12.,   29.0804558
   4046,   16.0619202,         -12.,   39.9515533
   4047,   45.2960587,         -12.,    38.428627
   4048,   30.0240574,         -12.,   56.9995918
   4049,   39.5665016,         -12.,   45.8720093
   4050,   39.9431801,         -12.,   41.5316696
   4051,   41.6478653,         -12.,   51.7092361
   4052,   20.2647018,         -12.,   33.7511215
   4053,   38.8946495,         -12.,   54.4429703
   4054,   26.6381111,         -12.,   54.3008232
   4055,   35.2360458,         -12.,   24.5623112
   4056,   25.3021259,         -12.,   26.4573956
   4057,   20.3886414,         -12.,   47.7576981
   4058,   19.4467392,         -12.,    45.928093
   4059,   18.4310341,         -12.,   39.9533958
   4060,   42.3614578,         -12.,   36.7779274
   4061,   40.4175301,         -12.,   30.5028172
   4062,   18.6384201,         -12.,   37.9219398
   4063,   42.5809326,         -12.,   38.9799614
   4064,    24.251873,         -12.,   23.9265919
   4065,   31.6336575,         -12.,   20.7074661
   4066,   18.3259888,         -12.,   30.6974602
   4067,   38.5882263,         -12.,   50.8829918
   4068,   21.6896973,         -12.,   36.8436432
   4069,   39.4129448,         -12.,   28.6734772
   4070,   38.0190811,         -12.,   31.8150158
   4071,   22.6797657,         -12.,   46.1203918
   4072,   21.0524826,         -12.,   40.0544167
   4073,   34.4004326,         -12.,   26.6138744
   4074,   34.7173729,         -12.,   56.7128143
   4075,   39.8928375,         -12.,   39.4223747
   4076,   24.6112556,         -12.,   49.6536942
   4077,    33.114994,         -12.,   23.8423576
   4078,   25.7848186,         -12.,   28.8157082
   4079,   39.4416504,         -12.,   35.4520683
   4080,   29.0234013,         -12.,   19.8313503
   4081,   19.2207165,         -12.,   51.1720695
   4082,   20.7411098,         -12.,   43.0665627
   4083,   39.7117348,         -12.,   37.3734665
   4084,   16.0851936,         -12.,   42.3188591
   4085,   44.9959717,         -12.,   35.9589806
   4086,   32.9440346,         -12.,   54.3063126
   4087,   30.5561295,         -12.,   23.2213154
   4088,   37.2250748,         -12.,   39.7688637
   4089,    23.457798,         -12.,   38.5438499
   4090,   21.0173435,         -12.,   31.5930691
   4091,   37.0821991,         -12.,   30.1235905
   4092,   36.4120445,         -12.,   28.2987118
   4093,   23.6959667,         -12.,   29.4766159
   4094,   37.0460434,         -12.,   34.3682327
   4095,   23.6906319,         -12.,   47.8316803
   4096,   25.3729115,         -12.,   51.2028389
   4097,   21.6898441,         -12.,    27.874918
   4098,    33.700882,         -12.,   35.8084259
   4099,   27.6412849,         -12.,   25.8088379
   4100,    22.459877,         -12.,   41.7454948
   4101,   23.0583363,         -12.,   34.7927742
   4102,   32.0913773,         -12.,   28.5445156
   4103,   28.1216354,         -12.,   31.1247272
   4104,   34.0762215,         -12.,   31.5197182
   4105,    26.758112,         -12.,   48.6181526
   4106,    36.616848,         -12.,   53.6079063
   4107,   32.7417946,         -12.,   51.1080208
   4108,   28.9708576,         -12.,   47.9528656
   4109,   36.6401215,         -12.,   47.9853821
   4110,   29.4342346,         -12.,   50.5949821
   4111,   31.8972225,         -12.,   33.9840126
   4112,   24.6360207,         -12.,   40.7450409
   4113,   29.9786987,         -12.,   28.2318897
   4114,    27.863039,         -12.,   28.4355125
   4115,   24.1607113,         -12.,   32.1828766
   4116,   25.9998379,         -12.,   36.4857674
   4117,   24.9751968,         -12.,   43.8064461
   4118,   30.1250343,         -12.,   25.8118172
   4119,    30.487751,         -12.,   37.4079857
   4120,    31.549942,         -12.,     30.72999
   4121,   30.3088684,         -12.,   53.4915237
   4122,   27.6231098,         -12.,   39.4395218
   4123,   32.4344177,         -12.,   26.1753578
   4124,   26.6951866,         -12.,   33.4985199
   4125,   26.0616112,         -12.,    46.257122
   4126,   34.2076454,         -12.,   38.1687813
   4127,   30.1376209,         -12.,   32.5049324
   4128,   27.8019104,         -12.,   42.6107407
   4129,   29.3253269,         -12.,   35.5853043
   4130,   31.7547493,         -12.,   49.4026489
   4131,   31.5970364,         -12.,   39.0636826
   4132,   36.9948463,         -12.,   37.8067436
   4133,   34.0874748,         -12.,   47.9485397
   4134,   31.0933552,         -12.,   47.5320969
   4135,   32.7889824,         -12.,    42.442028
   4136,   34.6634254,         -12.,   40.1502228
   4137,   35.0707092,         -12.,   43.8224716
   4138,   37.3663597,         -12.,   41.7274704
   4139,   28.8057709,         -12.,   45.1335449
   4140,   32.9790192,         -12.,   45.5736122
   4141,   29.9219513,         -12.,   30.0071621
   4142,   40.0245514,         -12.,   21.4620895
   4143,   36.3994789,         -12.,   22.4168568
   4144,   43.3260994,         -12.,   52.3860054
   4145,   37.2923622,         -12.,   58.2860184
   4146,   30.2276917,         -12.,   59.9167747
   4147,   37.0102768,         -12.,   25.5184689
   4148,   32.5280609,         -12.,   56.9018707
   4149,    41.931778,         -12.,   34.5723343
   4150,   41.5280533,         -12.,   50.1894951
   4151,   38.2148285,         -12.,   55.9376831
   4152,   21.4039345,         -12.,   29.4642048
   4153,   18.7029305,         -12.,   43.9977837
   4154,   22.6641254,         -12.,    51.295826
   4155,   35.9104881,         -12.,   26.8536263
   4156,   38.9417572,         -12.,   33.5216064
   4157,   39.8456841,         -12.,   43.6602364
   4158,    39.132328,         -12.,   48.1976166
   4159,   40.2337265,         -12.,   52.8141937
   4160,   34.1568298,         -12.,   28.7974796
   4161,   35.6276207,         -12.,    33.285965
   4162,   37.3415375,         -12.,   43.7332268
   4163,   37.0937805,         -12.,   45.8339767
   4164,   36.0610237,         -12.,   50.1656151
   4165,   34.5701637,         -12.,   52.2902756
   4166,   34.6558571,         -12.,   54.9091721
   4167,   26.0785313,         -12.,   30.6707191
   4168,    36.847599,         -12.,   35.9541016
   4169,   21.5575619,         -12.,   44.6630936
   4170,   20.0434723,         -12.,   41.7723618
   4171,   20.4942055,         -12.,   38.2921906
   4172,   34.9749336,         -12.,   41.9913177
   4173,    34.858799,         -12.,   45.7603683
   4174,   34.3687477,         -12.,   49.6646118
   4175,   23.0653572,         -12.,   43.3450699
   4176,    27.110178,         -12.,   51.2019768
   4177,   28.7252502,         -12.,   33.9481201
   4178,   32.7763634,         -12.,   47.0093422
   4179,   33.1065483,         -12.,   43.9973755
   4180,   31.0755863,         -12.,   45.6767426
   4181,   29.6995735,         -12.,   40.1781197
   4182,   30.0708847,         -12.,   41.7780838
   4183,   32.2932472,         -12.,   40.8355827
   4184,   30.7825565,         -12.,   43.3141975
   4185,   31.5710831,         -12.,   44.2993355
   4186,   33.9376984,         -15.,   64.7288361
   4187,   36.7789841,         -15.,    63.933609
   4188,   39.4425545,         -15.,   62.6634102
   4189,   44.0270042,         -15.,   58.9694328
   4190,   45.8951683,         -15.,   56.6833572
   4191,   48.7484741,         -15.,   51.5238647
   4192,   50.4402733,         -15.,   45.8731003
   4193,          51.,         -15.,   39.9999886
   4194,   50.4402695,         -15.,   34.1268806
   4195,   48.7484703,         -15.,   28.4761238
   4196,   45.8951645,         -15.,   23.3166409
   4197,   44.0270004,         -15.,   21.0305672
   4198,   39.4425507,         -15.,   17.3365898
   4199,   36.7789841,         -15.,   16.0663891
   4200,   33.9377022,         -15.,   15.2711611
   4201,          31.,         -15.,          65.
   4202,          31.,         -15.,          15.
   4203,   28.0622997,         -15.,   15.2711611
   4204,   25.2210159,         -15.,   16.0663891
   4205,   22.5574474,         -15.,   17.3365898
   4206,   17.9729958,         -15.,   21.0305691
   4207,   16.1048317,         -15.,   23.3166447
   4208,   13.2515259,         -15.,   28.4761353
   4209,   11.5597258,         -15.,   34.1268997
   4210,          11.,         -15.,   40.0000114
   4211,   11.5597286,         -15.,   45.8731194
   4212,   13.2515297,         -15.,   51.5238762
   4213,   16.1048336,         -15.,   56.6833572
   4214,   17.9729977,         -15.,   58.9694328
   4215,   22.5574493,         -15.,   62.6634102
   4216,   25.2210159,         -15.,    63.933609
   4217,   28.0622978,         -15.,   64.7288361
   4218,   41.8702965,         -15.,   60.9849892
   4219,   47.4688263,         -15.,   54.1850395
   4220,   49.7375603,         -15.,   48.7414093
   4221,   50.8602791,         -15.,   42.9499207
   4222,   50.8602791,         -15.,   37.0500603
   4223,   49.7375565,         -15.,   31.2585735
   4224,   47.4688225,         -15.,   25.8149586
   4225,   41.8702965,         -15.,   19.0150108
   4226,   20.1297016,         -15.,   19.0150127
   4227,   14.5311747,         -15.,   25.8149624
   4228,   12.2624388,         -15.,   31.2585926
   4229,     11.13972,         -15.,   37.0500793
   4230,   11.1397219,         -15.,   42.9499397
   4231,   12.2624445,         -15.,   48.7414246
   4232,   14.5311766,         -15.,   54.1850395
   4233,   20.1297035,         -15.,   60.9849892
   4234,   35.8506927,         -15.,   61.3840866
   4235,   20.1137028,         -15.,   56.9514732
   4236,   14.0589342,         -15.,   45.3280487
   4237,   14.2330503,         -15.,   34.6853294
   4238,   18.4136066,         -15.,    25.135313
   4239,    43.654007,         -15.,   25.2684174
   4240,    30.376503,         -15.,   17.4907131
   4241,   28.3944874,         -15.,   16.9384403
   4242,   26.7967663,         -15.,    18.281271
   4243,   41.9787254,         -15.,   23.2325726
   4244,   20.2512589,         -15.,   23.2181435
   4245,   47.6804771,         -15.,   35.0948792
   4246,    47.709938,         -15.,   45.8206329
   4247,   46.4044838,         -15.,   50.8802338
   4248,     43.96521,         -15.,   55.4129105
   4249,   18.3931103,         -15.,   54.9371758
   4250,   38.2421875,         -15.,   60.3938789
   4251,   24.2130451,         -15.,   60.1130714
   4252,   40.4269257,         -15.,   59.0532265
   4253,    45.350647,         -15.,   53.2467499
   4254,   47.1681824,         -15.,   48.3968887
   4255,   48.0449257,         -15.,   43.1612473
   4256,   48.0384789,         -15.,   37.7708664
   4257,   47.0660248,         -15.,   32.4690781
   4258,   45.0503731,         -15.,   27.5126762
   4259,    37.823597,         -15.,   20.0284119
   4260,   22.3990707,         -15.,   21.5301189
   4261,   16.9380283,         -15.,   27.2958775
   4262,    14.914031,         -15.,   32.1125793
   4263,   13.7777681,         -15.,   37.3135948
   4264,   13.6770897,         -15.,    42.650547
   4265,   14.7319555,         -15.,   47.9198799
   4266,   16.9113045,         -15.,   52.7339096
   4267,    22.008379,         -15.,    58.673275
   4268,   25.1309128,         -15.,   57.9968758
   4269,    39.164917,         -15.,   57.2873764
   4270,   23.9053497,         -15.,   56.4820251
   4271,   38.4122009,         -15.,   23.6598701
   4272,   40.6916237,         -15.,   55.8211136
   4273,   22.2300701,         -15.,   54.9191971
   4274,   40.1156197,         -15.,   25.2361946
   4275,   22.0712624,         -15.,   25.2693825
   4276,   20.3188229,         -15.,    26.728138
   4277,     20.59869,         -15.,   53.1271019
   4278,   41.5349731,         -15.,   27.0620575
   4279,   44.0336494,         -15.,   50.3471947
   4280,    19.168766,         -15.,   28.5945034
   4281,   44.5310135,         -15.,   48.1669731
   4282,   17.1278324,         -15.,   47.0113411
   4283,   43.7292252,         -15.,    31.295742
   4284,   44.9610138,         -15.,   45.8239937
   4285,   44.4750328,         -15.,   33.5904922
   4286,   16.4605904,         -15.,    44.710144
   4287,   45.2611351,         -15.,   43.3849335
   4288,   16.8440762,         -15.,   35.2332458
   4289,   16.3088894,         -15.,   37.5874176
   4290,   45.3765984,         -15.,   40.9177017
   4291,   30.8139629,         -15.,   62.4362259
   4292,   28.6142521,         -15.,   62.7278328
   4293,   32.8744011,         -15.,   18.1324444
   4294,   33.3486557,         -15.,   62.0417557
   4295,   27.0511417,         -15.,   60.8572235
   4296,   24.7342777,         -15.,   19.9571056
   4297,   35.4192162,         -15.,   18.9348793
   4298,   42.3347626,         -15.,   57.3661957
   4299,     46.18507,         -15.,   29.9156284
   4300,   15.6940012,         -15.,   50.3850098
   4301,   15.8044987,         -15.,   29.6351147
   4302,   48.1602898,         -15.,   40.4500542
   4303,   13.5868387,         -15.,   39.9720306
   4304,   36.6611862,         -15.,   56.1189041
   4305,   24.2208557,         -15.,   52.9407768
   4306,   38.3359375,         -15.,   26.9777622
   4307,   21.4455433,         -15.,   49.5551338
   4308,   23.2750568,         -15.,   27.3199577
   4309,   35.1216774,         -15.,   58.9908066
   4310,   27.2803497,         -15.,   57.5437584
   4311,    42.085495,         -15.,   54.1679611
   4312,   41.7923203,         -15.,   48.1166687
   4313,   42.2060394,         -15.,    45.854126
   4314,    41.296936,         -15.,   32.4966278
   4315,   18.3183212,         -15.,   41.9948616
   4316,   42.5049973,         -15.,   43.5582008
   4317,    42.626873,         -15.,   41.2700729
   4318,   19.3637943,         -15.,   35.8571243
   4319,   32.7821159,         -15.,   59.4940033
   4320,   27.2446766,         -15.,   22.5592175
   4321,   17.5510845,         -15.,   32.9234543
   4322,   34.1535606,         -15.,   21.4838181
   4323,   18.0586586,         -15.,   49.1545219
   4324,   42.7298393,         -15.,   29.0804558
   4325,   16.0619202,         -15.,   39.9515533
   4326,   45.2960587,         -15.,    38.428627
   4327,   30.0240574,         -15.,   56.9995918
   4328,   39.5665016,         -15.,   45.8720093
   4329,   39.9431801,         -15.,   41.5316696
   4330,   41.6478653,         -15.,   51.7092361
   4331,   20.2647018,         -15.,   33.7511215
   4332,   38.8946495,         -15.,   54.4429703
   4333,   26.6381111,         -15.,   54.3008232
   4334,   35.2360458,         -15.,   24.5623112
   4335,   25.3021259,         -15.,   26.4573956
   4336,   20.3886414,         -15.,   47.7576981
   4337,   19.4467392,         -15.,    45.928093
   4338,   18.4310341,         -15.,   39.9533958
   4339,   42.3614578,         -15.,   36.7779274
   4340,   40.4175301,         -15.,   30.5028172
   4341,   18.6384201,         -15.,   37.9219398
   4342,   42.5809326,         -15.,   38.9799614
   4343,    24.251873,         -15.,   23.9265919
   4344,   31.6336575,         -15.,   20.7074661
   4345,   18.3259888,         -15.,   30.6974602
   4346,   38.5882263,         -15.,   50.8829918
   4347,   21.6896973,         -15.,   36.8436432
   4348,   39.4129448,         -15.,   28.6734772
   4349,   38.0190811,         -15.,   31.8150158
   4350,   22.6797657,         -15.,   46.1203918
   4351,   21.0524826,         -15.,   40.0544167
   4352,   34.4004326,         -15.,   26.6138744
   4353,   34.7173729,         -15.,   56.7128143
   4354,   39.8928375,         -15.,   39.4223747
   4355,   24.6112556,         -15.,   49.6536942
   4356,    33.114994,         -15.,   23.8423576
   4357,   25.7848186,         -15.,   28.8157082
   4358,   39.4416504,         -15.,   35.4520683
   4359,   29.0234013,         -15.,   19.8313503
   4360,   19.2207165,         -15.,   51.1720695
   4361,   20.7411098,         -15.,   43.0665627
   4362,   39.7117348,         -15.,   37.3734665
   4363,   16.0851936,         -15.,   42.3188591
   4364,   44.9959717,         -15.,   35.9589806
   4365,   32.9440346,         -15.,   54.3063126
   4366,   30.5561295,         -15.,   23.2213154
   4367,   37.2250748,         -15.,   39.7688637
   4368,    23.457798,         -15.,   38.5438499
   4369,   21.0173435,         -15.,   31.5930691
   4370,   37.0821991,         -15.,   30.1235905
   4371,   36.4120445,         -15.,   28.2987118
   4372,   23.6959667,         -15.,   29.4766159
   4373,   37.0460434,         -15.,   34.3682327
   4374,   23.6906319,         -15.,   47.8316803
   4375,   25.3729115,         -15.,   51.2028389
   4376,   21.6898441,         -15.,    27.874918
   4377,    33.700882,         -15.,   35.8084259
   4378,   27.6412849,         -15.,   25.8088379
   4379,    22.459877,         -15.,   41.7454948
   4380,   23.0583363,         -15.,   34.7927742
   4381,   32.0913773,         -15.,   28.5445156
   4382,   28.1216354,         -15.,   31.1247272
   4383,   34.0762215,         -15.,   31.5197182
   4384,    26.758112,         -15.,   48.6181526
   4385,    36.616848,         -15.,   53.6079063
   4386,   32.7417946,         -15.,   51.1080208
   4387,   28.9708576,         -15.,   47.9528656
   4388,   36.6401215,         -15.,   47.9853821
   4389,   29.4342346,         -15.,   50.5949821
   4390,   31.8972225,         -15.,   33.9840126
   4391,   24.6360207,         -15.,   40.7450409
   4392,   29.9786987,         -15.,   28.2318897
   4393,    27.863039,         -15.,   28.4355125
   4394,   24.1607113,         -15.,   32.1828766
   4395,   25.9998379,         -15.,   36.4857674
   4396,   24.9751968,         -15.,   43.8064461
   4397,   30.1250343,         -15.,   25.8118172
   4398,    30.487751,         -15.,   37.4079857
   4399,    31.549942,         -15.,     30.72999
   4400,   30.3088684,         -15.,   53.4915237
   4401,   27.6231098,         -15.,   39.4395218
   4402,   32.4344177,         -15.,   26.1753578
   4403,   26.6951866,         -15.,   33.4985199
   4404,   26.0616112,         -15.,    46.257122
   4405,   34.2076454,         -15.,   38.1687813
   4406,   30.1376209,         -15.,   32.5049324
   4407,   27.8019104,         -15.,   42.6107407
   4408,   29.3253269,         -15.,   35.5853043
   4409,   31.7547493,         -15.,   49.4026489
   4410,   31.5970364,         -15.,   39.0636826
   4411,   36.9948463,         -15.,   37.8067436
   4412,   34.0874748,         -15.,   47.9485397
   4413,   31.0933552,         -15.,   47.5320969
   4414,   32.7889824,         -15.,    42.442028
   4415,   34.6634254,         -15.,   40.1502228
   4416,   35.0707092,         -15.,   43.8224716
   4417,   37.3663597,         -15.,   41.7274704
   4418,   28.8057709,         -15.,   45.1335449
   4419,   32.9790192,         -15.,   45.5736122
   4420,   29.9219513,         -15.,   30.0071621
   4421,   40.0245514,         -15.,   21.4620895
   4422,   36.3994789,         -15.,   22.4168568
   4423,   43.3260994,         -15.,   52.3860054
   4424,   37.2923622,         -15.,   58.2860184
   4425,   30.2276917,         -15.,   59.9167747
   4426,   37.0102768,         -15.,   25.5184689
   4427,   32.5280609,         -15.,   56.9018707
   4428,    41.931778,         -15.,   34.5723343
   4429,   41.5280533,         -15.,   50.1894951
   4430,   38.2148285,         -15.,   55.9376831
   4431,   21.4039345,         -15.,   29.4642048
   4432,   18.7029305,         -15.,   43.9977837
   4433,   22.6641254,         -15.,    51.295826
   4434,   35.9104881,         -15.,   26.8536263
   4435,   38.9417572,         -15.,   33.5216064
   4436,   39.8456841,         -15.,   43.6602364
   4437,    39.132328,         -15.,   48.1976166
   4438,   40.2337265,         -15.,   52.8141937
   4439,   34.1568298,         -15.,   28.7974796
   4440,   35.6276207,         -15.,    33.285965
   4441,   37.3415375,         -15.,   43.7332268
   4442,   37.0937805,         -15.,   45.8339767
   4443,   36.0610237,         -15.,   50.1656151
   4444,   34.5701637,         -15.,   52.2902756
   4445,   34.6558571,         -15.,   54.9091721
   4446,   26.0785313,         -15.,   30.6707191
   4447,    36.847599,         -15.,   35.9541016
   4448,   21.5575619,         -15.,   44.6630936
   4449,   20.0434723,         -15.,   41.7723618
   4450,   20.4942055,         -15.,   38.2921906
   4451,   34.9749336,         -15.,   41.9913177
   4452,    34.858799,         -15.,   45.7603683
   4453,   34.3687477,         -15.,   49.6646118
   4454,   23.0653572,         -15.,   43.3450699
   4455,    27.110178,         -15.,   51.2019768
   4456,   28.7252502,         -15.,   33.9481201
   4457,   32.7763634,         -15.,   47.0093422
   4458,   33.1065483,         -15.,   43.9973755
   4459,   31.0755863,         -15.,   45.6767426
   4460,   29.6995735,         -15.,   40.1781197
   4461,   30.0708847,         -15.,   41.7780838
   4462,   32.2932472,         -15.,   40.8355827
   4463,   30.7825565,         -15.,   43.3141975
   4464,   31.5710831,         -15.,   44.2993355
   4465,   33.9376984,         -18.,   64.7288361
   4466,   36.7789841,         -18.,    63.933609
   4467,   39.4425545,         -18.,   62.6634102
   4468,   44.0270042,         -18.,   58.9694328
   4469,   45.8951683,         -18.,   56.6833572
   4470,   48.7484741,         -18.,   51.5238647
   4471,   50.4402733,         -18.,   45.8731003
   4472,          51.,         -18.,   39.9999886
   4473,   50.4402695,         -18.,   34.1268806
   4474,   48.7484703,         -18.,   28.4761238
   4475,   45.8951645,         -18.,   23.3166409
   4476,   44.0270004,         -18.,   21.0305672
   4477,   39.4425507,         -18.,   17.3365898
   4478,   36.7789841,         -18.,   16.0663891
   4479,   33.9377022,         -18.,   15.2711611
   4480,          31.,         -18.,          65.
   4481,          31.,         -18.,          15.
   4482,   28.0622997,         -18.,   15.2711611
   4483,   25.2210159,         -18.,   16.0663891
   4484,   22.5574474,         -18.,   17.3365898
   4485,   17.9729958,         -18.,   21.0305691
   4486,   16.1048317,         -18.,   23.3166447
   4487,   13.2515259,         -18.,   28.4761353
   4488,   11.5597258,         -18.,   34.1268997
   4489,          11.,         -18.,   40.0000114
   4490,   11.5597286,         -18.,   45.8731194
   4491,   13.2515297,         -18.,   51.5238762
   4492,   16.1048336,         -18.,   56.6833572
   4493,   17.9729977,         -18.,   58.9694328
   4494,   22.5574493,         -18.,   62.6634102
   4495,   25.2210159,         -18.,    63.933609
   4496,   28.0622978,         -18.,   64.7288361
   4497,   41.8702965,         -18.,   60.9849892
   4498,   47.4688263,         -18.,   54.1850395
   4499,   49.7375603,         -18.,   48.7414093
   4500,   50.8602791,         -18.,   42.9499207
   4501,   50.8602791,         -18.,   37.0500603
   4502,   49.7375565,         -18.,   31.2585735
   4503,   47.4688225,         -18.,   25.8149586
   4504,   41.8702965,         -18.,   19.0150108
   4505,   20.1297016,         -18.,   19.0150127
   4506,   14.5311747,         -18.,   25.8149624
   4507,   12.2624388,         -18.,   31.2585926
   4508,     11.13972,         -18.,   37.0500793
   4509,   11.1397219,         -18.,   42.9499397
   4510,   12.2624445,         -18.,   48.7414246
   4511,   14.5311766,         -18.,   54.1850395
   4512,   20.1297035,         -18.,   60.9849892
   4513,   35.8506927,         -18.,   61.3840866
   4514,   20.1137028,         -18.,   56.9514732
   4515,   14.0589342,         -18.,   45.3280487
   4516,   14.2330503,         -18.,   34.6853294
   4517,   18.4136066,         -18.,    25.135313
   4518,    43.654007,         -18.,   25.2684174
   4519,    30.376503,         -18.,   17.4907131
   4520,   28.3944874,         -18.,   16.9384403
   4521,   26.7967663,         -18.,    18.281271
   4522,   41.9787254,         -18.,   23.2325726
   4523,   20.2512589,         -18.,   23.2181435
   4524,   47.6804771,         -18.,   35.0948792
   4525,    47.709938,         -18.,   45.8206329
   4526,   46.4044838,         -18.,   50.8802338
   4527,     43.96521,         -18.,   55.4129105
   4528,   18.3931103,         -18.,   54.9371758
   4529,   38.2421875,         -18.,   60.3938789
   4530,   24.2130451,         -18.,   60.1130714
   4531,   40.4269257,         -18.,   59.0532265
   4532,    45.350647,         -18.,   53.2467499
   4533,   47.1681824,         -18.,   48.3968887
   4534,   48.0449257,         -18.,   43.1612473
   4535,   48.0384789,         -18.,   37.7708664
   4536,   47.0660248,         -18.,   32.4690781
   4537,   45.0503731,         -18.,   27.5126762
   4538,    37.823597,         -18.,   20.0284119
   4539,   22.3990707,         -18.,   21.5301189
   4540,   16.9380283,         -18.,   27.2958775
   4541,    14.914031,         -18.,   32.1125793
   4542,   13.7777681,         -18.,   37.3135948
   4543,   13.6770897,         -18.,    42.650547
   4544,   14.7319555,         -18.,   47.9198799
   4545,   16.9113045,         -18.,   52.7339096
   4546,    22.008379,         -18.,    58.673275
   4547,   25.1309128,         -18.,   57.9968758
   4548,    39.164917,         -18.,   57.2873764
   4549,   23.9053497,         -18.,   56.4820251
   4550,   38.4122009,         -18.,   23.6598701
   4551,   40.6916237,         -18.,   55.8211136
   4552,   22.2300701,         -18.,   54.9191971
   4553,   40.1156197,         -18.,   25.2361946
   4554,   22.0712624,         -18.,   25.2693825
   4555,   20.3188229,         -18.,    26.728138
   4556,     20.59869,         -18.,   53.1271019
   4557,   41.5349731,         -18.,   27.0620575
   4558,   44.0336494,         -18.,   50.3471947
   4559,    19.168766,         -18.,   28.5945034
   4560,   44.5310135,         -18.,   48.1669731
   4561,   17.1278324,         -18.,   47.0113411
   4562,   43.7292252,         -18.,    31.295742
   4563,   44.9610138,         -18.,   45.8239937
   4564,   44.4750328,         -18.,   33.5904922
   4565,   16.4605904,         -18.,    44.710144
   4566,   45.2611351,         -18.,   43.3849335
   4567,   16.8440762,         -18.,   35.2332458
   4568,   16.3088894,         -18.,   37.5874176
   4569,   45.3765984,         -18.,   40.9177017
   4570,   30.8139629,         -18.,   62.4362259
   4571,   28.6142521,         -18.,   62.7278328
   4572,   32.8744011,         -18.,   18.1324444
   4573,   33.3486557,         -18.,   62.0417557
   4574,   27.0511417,         -18.,   60.8572235
   4575,   24.7342777,         -18.,   19.9571056
   4576,   35.4192162,         -18.,   18.9348793
   4577,   42.3347626,         -18.,   57.3661957
   4578,     46.18507,         -18.,   29.9156284
   4579,   15.6940012,         -18.,   50.3850098
   4580,   15.8044987,         -18.,   29.6351147
   4581,   48.1602898,         -18.,   40.4500542
   4582,   13.5868387,         -18.,   39.9720306
   4583,   36.6611862,         -18.,   56.1189041
   4584,   24.2208557,         -18.,   52.9407768
   4585,   38.3359375,         -18.,   26.9777622
   4586,   21.4455433,         -18.,   49.5551338
   4587,   23.2750568,         -18.,   27.3199577
   4588,   35.1216774,         -18.,   58.9908066
   4589,   27.2803497,         -18.,   57.5437584
   4590,    42.085495,         -18.,   54.1679611
   4591,   41.7923203,         -18.,   48.1166687
   4592,   42.2060394,         -18.,    45.854126
   4593,    41.296936,         -18.,   32.4966278
   4594,   18.3183212,         -18.,   41.9948616
   4595,   42.5049973,         -18.,   43.5582008
   4596,    42.626873,         -18.,   41.2700729
   4597,   19.3637943,         -18.,   35.8571243
   4598,   32.7821159,         -18.,   59.4940033
   4599,   27.2446766,         -18.,   22.5592175
   4600,   17.5510845,         -18.,   32.9234543
   4601,   34.1535606,         -18.,   21.4838181
   4602,   18.0586586,         -18.,   49.1545219
   4603,   42.7298393,         -18.,   29.0804558
   4604,   16.0619202,         -18.,   39.9515533
   4605,   45.2960587,         -18.,    38.428627
   4606,   30.0240574,         -18.,   56.9995918
   4607,   39.5665016,         -18.,   45.8720093
   4608,   39.9431801,         -18.,   41.5316696
   4609,   41.6478653,         -18.,   51.7092361
   4610,   20.2647018,         -18.,   33.7511215
   4611,   38.8946495,         -18.,   54.4429703
   4612,   26.6381111,         -18.,   54.3008232
   4613,   35.2360458,         -18.,   24.5623112
   4614,   25.3021259,         -18.,   26.4573956
   4615,   20.3886414,         -18.,   47.7576981
   4616,   19.4467392,         -18.,    45.928093
   4617,   18.4310341,         -18.,   39.9533958
   4618,   42.3614578,         -18.,   36.7779274
   4619,   40.4175301,         -18.,   30.5028172
   4620,   18.6384201,         -18.,   37.9219398
   4621,   42.5809326,         -18.,   38.9799614
   4622,    24.251873,         -18.,   23.9265919
   4623,   31.6336575,         -18.,   20.7074661
   4624,   18.3259888,         -18.,   30.6974602
   4625,   38.5882263,         -18.,   50.8829918
   4626,   21.6896973,         -18.,   36.8436432
   4627,   39.4129448,         -18.,   28.6734772
   4628,   38.0190811,         -18.,   31.8150158
   4629,   22.6797657,         -18.,   46.1203918
   4630,   21.0524826,         -18.,   40.0544167
   4631,   34.4004326,         -18.,   26.6138744
   4632,   34.7173729,         -18.,   56.7128143
   4633,   39.8928375,         -18.,   39.4223747
   4634,   24.6112556,         -18.,   49.6536942
   4635,    33.114994,         -18.,   23.8423576
   4636,   25.7848186,         -18.,   28.8157082
   4637,   39.4416504,         -18.,   35.4520683
   4638,   29.0234013,         -18.,   19.8313503
   4639,   19.2207165,         -18.,   51.1720695
   4640,   20.7411098,         -18.,   43.0665627
   4641,   39.7117348,         -18.,   37.3734665
   4642,   16.0851936,         -18.,   42.3188591
   4643,   44.9959717,         -18.,   35.9589806
   4644,   32.9440346,         -18.,   54.3063126
   4645,   30.5561295,         -18.,   23.2213154
   4646,   37.2250748,         -18.,   39.7688637
   4647,    23.457798,         -18.,   38.5438499
   4648,   21.0173435,         -18.,   31.5930691
   4649,   37.0821991,         -18.,   30.1235905
   4650,   36.4120445,         -18.,   28.2987118
   4651,   23.6959667,         -18.,   29.4766159
   4652,   37.0460434,         -18.,   34.3682327
   4653,   23.6906319,         -18.,   47.8316803
   4654,   25.3729115,         -18.,   51.2028389
   4655,   21.6898441,         -18.,    27.874918
   4656,    33.700882,         -18.,   35.8084259
   4657,   27.6412849,         -18.,   25.8088379
   4658,    22.459877,         -18.,   41.7454948
   4659,   23.0583363,         -18.,   34.7927742
   4660,   32.0913773,         -18.,   28.5445156
   4661,   28.1216354,         -18.,   31.1247272
   4662,   34.0762215,         -18.,   31.5197182
   4663,    26.758112,         -18.,   48.6181526
   4664,    36.616848,         -18.,   53.6079063
   4665,   32.7417946,         -18.,   51.1080208
   4666,   28.9708576,         -18.,   47.9528656
   4667,   36.6401215,         -18.,   47.9853821
   4668,   29.4342346,         -18.,   50.5949821
   4669,   31.8972225,         -18.,   33.9840126
   4670,   24.6360207,         -18.,   40.7450409
   4671,   29.9786987,         -18.,   28.2318897
   4672,    27.863039,         -18.,   28.4355125
   4673,   24.1607113,         -18.,   32.1828766
   4674,   25.9998379,         -18.,   36.4857674
   4675,   24.9751968,         -18.,   43.8064461
   4676,   30.1250343,         -18.,   25.8118172
   4677,    30.487751,         -18.,   37.4079857
   4678,    31.549942,         -18.,     30.72999
   4679,   30.3088684,         -18.,   53.4915237
   4680,   27.6231098,         -18.,   39.4395218
   4681,   32.4344177,         -18.,   26.1753578
   4682,   26.6951866,         -18.,   33.4985199
   4683,   26.0616112,         -18.,    46.257122
   4684,   34.2076454,         -18.,   38.1687813
   4685,   30.1376209,         -18.,   32.5049324
   4686,   27.8019104,         -18.,   42.6107407
   4687,   29.3253269,         -18.,   35.5853043
   4688,   31.7547493,         -18.,   49.4026489
   4689,   31.5970364,         -18.,   39.0636826
   4690,   36.9948463,         -18.,   37.8067436
   4691,   34.0874748,         -18.,   47.9485397
   4692,   31.0933552,         -18.,   47.5320969
   4693,   32.7889824,         -18.,    42.442028
   4694,   34.6634254,         -18.,   40.1502228
   4695,   35.0707092,         -18.,   43.8224716
   4696,   37.3663597,         -18.,   41.7274704
   4697,   28.8057709,         -18.,   45.1335449
   4698,   32.9790192,         -18.,   45.5736122
   4699,   29.9219513,         -18.,   30.0071621
   4700,   40.0245514,         -18.,   21.4620895
   4701,   36.3994789,         -18.,   22.4168568
   4702,   43.3260994,         -18.,   52.3860054
   4703,   37.2923622,         -18.,   58.2860184
   4704,   30.2276917,         -18.,   59.9167747
   4705,   37.0102768,         -18.,   25.5184689
   4706,   32.5280609,         -18.,   56.9018707
   4707,    41.931778,         -18.,   34.5723343
   4708,   41.5280533,         -18.,   50.1894951
   4709,   38.2148285,         -18.,   55.9376831
   4710,   21.4039345,         -18.,   29.4642048
   4711,   18.7029305,         -18.,   43.9977837
   4712,   22.6641254,         -18.,    51.295826
   4713,   35.9104881,         -18.,   26.8536263
   4714,   38.9417572,         -18.,   33.5216064
   4715,   39.8456841,         -18.,   43.6602364
   4716,    39.132328,         -18.,   48.1976166
   4717,   40.2337265,         -18.,   52.8141937
   4718,   34.1568298,         -18.,   28.7974796
   4719,   35.6276207,         -18.,    33.285965
   4720,   37.3415375,         -18.,   43.7332268
   4721,   37.0937805,         -18.,   45.8339767
   4722,   36.0610237,         -18.,   50.1656151
   4723,   34.5701637,         -18.,   52.2902756
   4724,   34.6558571,         -18.,   54.9091721
   4725,   26.0785313,         -18.,   30.6707191
   4726,    36.847599,         -18.,   35.9541016
   4727,   21.5575619,         -18.,   44.6630936
   4728,   20.0434723,         -18.,   41.7723618
   4729,   20.4942055,         -18.,   38.2921906
   4730,   34.9749336,         -18.,   41.9913177
   4731,    34.858799,         -18.,   45.7603683
   4732,   34.3687477,         -18.,   49.6646118
   4733,   23.0653572,         -18.,   43.3450699
   4734,    27.110178,         -18.,   51.2019768
   4735,   28.7252502,         -18.,   33.9481201
   4736,   32.7763634,         -18.,   47.0093422
   4737,   33.1065483,         -18.,   43.9973755
   4738,   31.0755863,         -18.,   45.6767426
   4739,   29.6995735,         -18.,   40.1781197
   4740,   30.0708847,         -18.,   41.7780838
   4741,   32.2932472,         -18.,   40.8355827
   4742,   30.7825565,         -18.,   43.3141975
   4743,   31.5710831,         -18.,   44.2993355
   4744,   33.9376984,         -21.,   64.7288361
   4745,   36.7789841,         -21.,    63.933609
   4746,   39.4425545,         -21.,   62.6634102
   4747,   44.0270042,         -21.,   58.9694328
   4748,   45.8951683,         -21.,   56.6833572
   4749,   48.7484741,         -21.,   51.5238647
   4750,   50.4402733,         -21.,   45.8731003
   4751,          51.,         -21.,   39.9999886
   4752,   50.4402695,         -21.,   34.1268806
   4753,   48.7484703,         -21.,   28.4761238
   4754,   45.8951645,         -21.,   23.3166409
   4755,   44.0270004,         -21.,   21.0305672
   4756,   39.4425507,         -21.,   17.3365898
   4757,   36.7789841,         -21.,   16.0663891
   4758,   33.9377022,         -21.,   15.2711611
   4759,          31.,         -21.,          65.
   4760,          31.,         -21.,          15.
   4761,   28.0622997,         -21.,   15.2711611
   4762,   25.2210159,         -21.,   16.0663891
   4763,   22.5574474,         -21.,   17.3365898
   4764,   17.9729958,         -21.,   21.0305691
   4765,   16.1048317,         -21.,   23.3166447
   4766,   13.2515259,         -21.,   28.4761353
   4767,   11.5597258,         -21.,   34.1268997
   4768,          11.,         -21.,   40.0000114
   4769,   11.5597286,         -21.,   45.8731194
   4770,   13.2515297,         -21.,   51.5238762
   4771,   16.1048336,         -21.,   56.6833572
   4772,   17.9729977,         -21.,   58.9694328
   4773,   22.5574493,         -21.,   62.6634102
   4774,   25.2210159,         -21.,    63.933609
   4775,   28.0622978,         -21.,   64.7288361
   4776,   41.8702965,         -21.,   60.9849892
   4777,   47.4688263,         -21.,   54.1850395
   4778,   49.7375603,         -21.,   48.7414093
   4779,   50.8602791,         -21.,   42.9499207
   4780,   50.8602791,         -21.,   37.0500603
   4781,   49.7375565,         -21.,   31.2585735
   4782,   47.4688225,         -21.,   25.8149586
   4783,   41.8702965,         -21.,   19.0150108
   4784,   20.1297016,         -21.,   19.0150127
   4785,   14.5311747,         -21.,   25.8149624
   4786,   12.2624388,         -21.,   31.2585926
   4787,     11.13972,         -21.,   37.0500793
   4788,   11.1397219,         -21.,   42.9499397
   4789,   12.2624445,         -21.,   48.7414246
   4790,   14.5311766,         -21.,   54.1850395
   4791,   20.1297035,         -21.,   60.9849892
   4792,   35.8506927,         -21.,   61.3840866
   4793,   20.1137028,         -21.,   56.9514732
   4794,   14.0589342,         -21.,   45.3280487
   4795,   14.2330503,         -21.,   34.6853294
   4796,   18.4136066,         -21.,    25.135313
   4797,    43.654007,         -21.,   25.2684174
   4798,    30.376503,         -21.,   17.4907131
   4799,   28.3944874,         -21.,   16.9384403
   4800,   26.7967663,         -21.,    18.281271
   4801,   41.9787254,         -21.,   23.2325726
   4802,   20.2512589,         -21.,   23.2181435
   4803,   47.6804771,         -21.,   35.0948792
   4804,    47.709938,         -21.,   45.8206329
   4805,   46.4044838,         -21.,   50.8802338
   4806,     43.96521,         -21.,   55.4129105
   4807,   18.3931103,         -21.,   54.9371758
   4808,   38.2421875,         -21.,   60.3938789
   4809,   24.2130451,         -21.,   60.1130714
   4810,   40.4269257,         -21.,   59.0532265
   4811,    45.350647,         -21.,   53.2467499
   4812,   47.1681824,         -21.,   48.3968887
   4813,   48.0449257,         -21.,   43.1612473
   4814,   48.0384789,         -21.,   37.7708664
   4815,   47.0660248,         -21.,   32.4690781
   4816,   45.0503731,         -21.,   27.5126762
   4817,    37.823597,         -21.,   20.0284119
   4818,   22.3990707,         -21.,   21.5301189
   4819,   16.9380283,         -21.,   27.2958775
   4820,    14.914031,         -21.,   32.1125793
   4821,   13.7777681,         -21.,   37.3135948
   4822,   13.6770897,         -21.,    42.650547
   4823,   14.7319555,         -21.,   47.9198799
   4824,   16.9113045,         -21.,   52.7339096
   4825,    22.008379,         -21.,    58.673275
   4826,   25.1309128,         -21.,   57.9968758
   4827,    39.164917,         -21.,   57.2873764
   4828,   23.9053497,         -21.,   56.4820251
   4829,   38.4122009,         -21.,   23.6598701
   4830,   40.6916237,         -21.,   55.8211136
   4831,   22.2300701,         -21.,   54.9191971
   4832,   40.1156197,         -21.,   25.2361946
   4833,   22.0712624,         -21.,   25.2693825
   4834,   20.3188229,         -21.,    26.728138
   4835,     20.59869,         -21.,   53.1271019
   4836,   41.5349731,         -21.,   27.0620575
   4837,   44.0336494,         -21.,   50.3471947
   4838,    19.168766,         -21.,   28.5945034
   4839,   44.5310135,         -21.,   48.1669731
   4840,   17.1278324,         -21.,   47.0113411
   4841,   43.7292252,         -21.,    31.295742
   4842,   44.9610138,         -21.,   45.8239937
   4843,   44.4750328,         -21.,   33.5904922
   4844,   16.4605904,         -21.,    44.710144
   4845,   45.2611351,         -21.,   43.3849335
   4846,   16.8440762,         -21.,   35.2332458
   4847,   16.3088894,         -21.,   37.5874176
   4848,   45.3765984,         -21.,   40.9177017
   4849,   30.8139629,         -21.,   62.4362259
   4850,   28.6142521,         -21.,   62.7278328
   4851,   32.8744011,         -21.,   18.1324444
   4852,   33.3486557,         -21.,   62.0417557
   4853,   27.0511417,         -21.,   60.8572235
   4854,   24.7342777,         -21.,   19.9571056
   4855,   35.4192162,         -21.,   18.9348793
   4856,   42.3347626,         -21.,   57.3661957
   4857,     46.18507,         -21.,   29.9156284
   4858,   15.6940012,         -21.,   50.3850098
   4859,   15.8044987,         -21.,   29.6351147
   4860,   48.1602898,         -21.,   40.4500542
   4861,   13.5868387,         -21.,   39.9720306
   4862,   36.6611862,         -21.,   56.1189041
   4863,   24.2208557,         -21.,   52.9407768
   4864,   38.3359375,         -21.,   26.9777622
   4865,   21.4455433,         -21.,   49.5551338
   4866,   23.2750568,         -21.,   27.3199577
   4867,   35.1216774,         -21.,   58.9908066
   4868,   27.2803497,         -21.,   57.5437584
   4869,    42.085495,         -21.,   54.1679611
   4870,   41.7923203,         -21.,   48.1166687
   4871,   42.2060394,         -21.,    45.854126
   4872,    41.296936,         -21.,   32.4966278
   4873,   18.3183212,         -21.,   41.9948616
   4874,   42.5049973,         -21.,   43.5582008
   4875,    42.626873,         -21.,   41.2700729
   4876,   19.3637943,         -21.,   35.8571243
   4877,   32.7821159,         -21.,   59.4940033
   4878,   27.2446766,         -21.,   22.5592175
   4879,   17.5510845,         -21.,   32.9234543
   4880,   34.1535606,         -21.,   21.4838181
   4881,   18.0586586,         -21.,   49.1545219
   4882,   42.7298393,         -21.,   29.0804558
   4883,   16.0619202,         -21.,   39.9515533
   4884,   45.2960587,         -21.,    38.428627
   4885,   30.0240574,         -21.,   56.9995918
   4886,   39.5665016,         -21.,   45.8720093
   4887,   39.9431801,         -21.,   41.5316696
   4888,   41.6478653,         -21.,   51.7092361
   4889,   20.2647018,         -21.,   33.7511215
   4890,   38.8946495,         -21.,   54.4429703
   4891,   26.6381111,         -21.,   54.3008232
   4892,   35.2360458,         -21.,   24.5623112
   4893,   25.3021259,         -21.,   26.4573956
   4894,   20.3886414,         -21.,   47.7576981
   4895,   19.4467392,         -21.,    45.928093
   4896,   18.4310341,         -21.,   39.9533958
   4897,   42.3614578,         -21.,   36.7779274
   4898,   40.4175301,         -21.,   30.5028172
   4899,   18.6384201,         -21.,   37.9219398
   4900,   42.5809326,         -21.,   38.9799614
   4901,    24.251873,         -21.,   23.9265919
   4902,   31.6336575,         -21.,   20.7074661
   4903,   18.3259888,         -21.,   30.6974602
   4904,   38.5882263,         -21.,   50.8829918
   4905,   21.6896973,         -21.,   36.8436432
   4906,   39.4129448,         -21.,   28.6734772
   4907,   38.0190811,         -21.,   31.8150158
   4908,   22.6797657,         -21.,   46.1203918
   4909,   21.0524826,         -21.,   40.0544167
   4910,   34.4004326,         -21.,   26.6138744
   4911,   34.7173729,         -21.,   56.7128143
   4912,   39.8928375,         -21.,   39.4223747
   4913,   24.6112556,         -21.,   49.6536942
   4914,    33.114994,         -21.,   23.8423576
   4915,   25.7848186,         -21.,   28.8157082
   4916,   39.4416504,         -21.,   35.4520683
   4917,   29.0234013,         -21.,   19.8313503
   4918,   19.2207165,         -21.,   51.1720695
   4919,   20.7411098,         -21.,   43.0665627
   4920,   39.7117348,         -21.,   37.3734665
   4921,   16.0851936,         -21.,   42.3188591
   4922,   44.9959717,         -21.,   35.9589806
   4923,   32.9440346,         -21.,   54.3063126
   4924,   30.5561295,         -21.,   23.2213154
   4925,   37.2250748,         -21.,   39.7688637
   4926,    23.457798,         -21.,   38.5438499
   4927,   21.0173435,         -21.,   31.5930691
   4928,   37.0821991,         -21.,   30.1235905
   4929,   36.4120445,         -21.,   28.2987118
   4930,   23.6959667,         -21.,   29.4766159
   4931,   37.0460434,         -21.,   34.3682327
   4932,   23.6906319,         -21.,   47.8316803
   4933,   25.3729115,         -21.,   51.2028389
   4934,   21.6898441,         -21.,    27.874918
   4935,    33.700882,         -21.,   35.8084259
   4936,   27.6412849,         -21.,   25.8088379
   4937,    22.459877,         -21.,   41.7454948
   4938,   23.0583363,         -21.,   34.7927742
   4939,   32.0913773,         -21.,   28.5445156
   4940,   28.1216354,         -21.,   31.1247272
   4941,   34.0762215,         -21.,   31.5197182
   4942,    26.758112,         -21.,   48.6181526
   4943,    36.616848,         -21.,   53.6079063
   4944,   32.7417946,         -21.,   51.1080208
   4945,   28.9708576,         -21.,   47.9528656
   4946,   36.6401215,         -21.,   47.9853821
   4947,   29.4342346,         -21.,   50.5949821
   4948,   31.8972225,         -21.,   33.9840126
   4949,   24.6360207,         -21.,   40.7450409
   4950,   29.9786987,         -21.,   28.2318897
   4951,    27.863039,         -21.,   28.4355125
   4952,   24.1607113,         -21.,   32.1828766
   4953,   25.9998379,         -21.,   36.4857674
   4954,   24.9751968,         -21.,   43.8064461
   4955,   30.1250343,         -21.,   25.8118172
   4956,    30.487751,         -21.,   37.4079857
   4957,    31.549942,         -21.,     30.72999
   4958,   30.3088684,         -21.,   53.4915237
   4959,   27.6231098,         -21.,   39.4395218
   4960,   32.4344177,         -21.,   26.1753578
   4961,   26.6951866,         -21.,   33.4985199
   4962,   26.0616112,         -21.,    46.257122
   4963,   34.2076454,         -21.,   38.1687813
   4964,   30.1376209,         -21.,   32.5049324
   4965,   27.8019104,         -21.,   42.6107407
   4966,   29.3253269,         -21.,   35.5853043
   4967,   31.7547493,         -21.,   49.4026489
   4968,   31.5970364,         -21.,   39.0636826
   4969,   36.9948463,         -21.,   37.8067436
   4970,   34.0874748,         -21.,   47.9485397
   4971,   31.0933552,         -21.,   47.5320969
   4972,   32.7889824,         -21.,    42.442028
   4973,   34.6634254,         -21.,   40.1502228
   4974,   35.0707092,         -21.,   43.8224716
   4975,   37.3663597,         -21.,   41.7274704
   4976,   28.8057709,         -21.,   45.1335449
   4977,   32.9790192,         -21.,   45.5736122
   4978,   29.9219513,         -21.,   30.0071621
   4979,   40.0245514,         -21.,   21.4620895
   4980,   36.3994789,         -21.,   22.4168568
   4981,   43.3260994,         -21.,   52.3860054
   4982,   37.2923622,         -21.,   58.2860184
   4983,   30.2276917,         -21.,   59.9167747
   4984,   37.0102768,         -21.,   25.5184689
   4985,   32.5280609,         -21.,   56.9018707
   4986,    41.931778,         -21.,   34.5723343
   4987,   41.5280533,         -21.,   50.1894951
   4988,   38.2148285,         -21.,   55.9376831
   4989,   21.4039345,         -21.,   29.4642048
   4990,   18.7029305,         -21.,   43.9977837
   4991,   22.6641254,         -21.,    51.295826
   4992,   35.9104881,         -21.,   26.8536263
   4993,   38.9417572,         -21.,   33.5216064
   4994,   39.8456841,         -21.,   43.6602364
   4995,    39.132328,         -21.,   48.1976166
   4996,   40.2337265,         -21.,   52.8141937
   4997,   34.1568298,         -21.,   28.7974796
   4998,   35.6276207,         -21.,    33.285965
   4999,   37.3415375,         -21.,   43.7332268
   5000,   37.0937805,         -21.,   45.8339767
   5001,   36.0610237,         -21.,   50.1656151
   5002,   34.5701637,         -21.,   52.2902756
   5003,   34.6558571,         -21.,   54.9091721
   5004,   26.0785313,         -21.,   30.6707191
   5005,    36.847599,         -21.,   35.9541016
   5006,   21.5575619,         -21.,   44.6630936
   5007,   20.0434723,         -21.,   41.7723618
   5008,   20.4942055,         -21.,   38.2921906
   5009,   34.9749336,         -21.,   41.9913177
   5010,    34.858799,         -21.,   45.7603683
   5011,   34.3687477,         -21.,   49.6646118
   5012,   23.0653572,         -21.,   43.3450699
   5013,    27.110178,         -21.,   51.2019768
   5014,   28.7252502,         -21.,   33.9481201
   5015,   32.7763634,         -21.,   47.0093422
   5016,   33.1065483,         -21.,   43.9973755
   5017,   31.0755863,         -21.,   45.6767426
   5018,   29.6995735,         -21.,   40.1781197
   5019,   30.0708847,         -21.,   41.7780838
   5020,   32.2932472,         -21.,   40.8355827
   5021,   30.7825565,         -21.,   43.3141975
   5022,   31.5710831,         -21.,   44.2993355
   5023,   33.9376984,         -24.,   64.7288361
   5024,   36.7789841,         -24.,    63.933609
   5025,   39.4425545,         -24.,   62.6634102
   5026,   44.0270042,         -24.,   58.9694328
   5027,   45.8951683,         -24.,   56.6833572
   5028,   48.7484741,         -24.,   51.5238647
   5029,   50.4402733,         -24.,   45.8731003
   5030,          51.,         -24.,   39.9999886
   5031,   50.4402695,         -24.,   34.1268806
   5032,   48.7484703,         -24.,   28.4761238
   5033,   45.8951645,         -24.,   23.3166409
   5034,   44.0270004,         -24.,   21.0305672
   5035,   39.4425507,         -24.,   17.3365898
   5036,   36.7789841,         -24.,   16.0663891
   5037,   33.9377022,         -24.,   15.2711611
   5038,          31.,         -24.,          65.
   5039,          31.,         -24.,          15.
   5040,   28.0622997,         -24.,   15.2711611
   5041,   25.2210159,         -24.,   16.0663891
   5042,   22.5574474,         -24.,   17.3365898
   5043,   17.9729958,         -24.,   21.0305691
   5044,   16.1048317,         -24.,   23.3166447
   5045,   13.2515259,         -24.,   28.4761353
   5046,   11.5597258,         -24.,   34.1268997
   5047,          11.,         -24.,   40.0000114
   5048,   11.5597286,         -24.,   45.8731194
   5049,   13.2515297,         -24.,   51.5238762
   5050,   16.1048336,         -24.,   56.6833572
   5051,   17.9729977,         -24.,   58.9694328
   5052,   22.5574493,         -24.,   62.6634102
   5053,   25.2210159,         -24.,    63.933609
   5054,   28.0622978,         -24.,   64.7288361
   5055,   41.8702965,         -24.,   60.9849892
   5056,   47.4688263,         -24.,   54.1850395
   5057,   49.7375603,         -24.,   48.7414093
   5058,   50.8602791,         -24.,   42.9499207
   5059,   50.8602791,         -24.,   37.0500603
   5060,   49.7375565,         -24.,   31.2585735
   5061,   47.4688225,         -24.,   25.8149586
   5062,   41.8702965,         -24.,   19.0150108
   5063,   20.1297016,         -24.,   19.0150127
   5064,   14.5311747,         -24.,   25.8149624
   5065,   12.2624388,         -24.,   31.2585926
   5066,     11.13972,         -24.,   37.0500793
   5067,   11.1397219,         -24.,   42.9499397
   5068,   12.2624445,         -24.,   48.7414246
   5069,   14.5311766,         -24.,   54.1850395
   5070,   20.1297035,         -24.,   60.9849892
   5071,   35.8506927,         -24.,   61.3840866
   5072,   20.1137028,         -24.,   56.9514732
   5073,   14.0589342,         -24.,   45.3280487
   5074,   14.2330503,         -24.,   34.6853294
   5075,   18.4136066,         -24.,    25.135313
   5076,    43.654007,         -24.,   25.2684174
   5077,    30.376503,         -24.,   17.4907131
   5078,   28.3944874,         -24.,   16.9384403
   5079,   26.7967663,         -24.,    18.281271
   5080,   41.9787254,         -24.,   23.2325726
   5081,   20.2512589,         -24.,   23.2181435
   5082,   47.6804771,         -24.,   35.0948792
   5083,    47.709938,         -24.,   45.8206329
   5084,   46.4044838,         -24.,   50.8802338
   5085,     43.96521,         -24.,   55.4129105
   5086,   18.3931103,         -24.,   54.9371758
   5087,   38.2421875,         -24.,   60.3938789
   5088,   24.2130451,         -24.,   60.1130714
   5089,   40.4269257,         -24.,   59.0532265
   5090,    45.350647,         -24.,   53.2467499
   5091,   47.1681824,         -24.,   48.3968887
   5092,   48.0449257,         -24.,   43.1612473
   5093,   48.0384789,         -24.,   37.7708664
   5094,   47.0660248,         -24.,   32.4690781
   5095,   45.0503731,         -24.,   27.5126762
   5096,    37.823597,         -24.,   20.0284119
   5097,   22.3990707,         -24.,   21.5301189
   5098,   16.9380283,         -24.,   27.2958775
   5099,    14.914031,         -24.,   32.1125793
   5100,   13.7777681,         -24.,   37.3135948
   5101,   13.6770897,         -24.,    42.650547
   5102,   14.7319555,         -24.,   47.9198799
   5103,   16.9113045,         -24.,   52.7339096
   5104,    22.008379,         -24.,    58.673275
   5105,   25.1309128,         -24.,   57.9968758
   5106,    39.164917,         -24.,   57.2873764
   5107,   23.9053497,         -24.,   56.4820251
   5108,   38.4122009,         -24.,   23.6598701
   5109,   40.6916237,         -24.,   55.8211136
   5110,   22.2300701,         -24.,   54.9191971
   5111,   40.1156197,         -24.,   25.2361946
   5112,   22.0712624,         -24.,   25.2693825
   5113,   20.3188229,         -24.,    26.728138
   5114,     20.59869,         -24.,   53.1271019
   5115,   41.5349731,         -24.,   27.0620575
   5116,   44.0336494,         -24.,   50.3471947
   5117,    19.168766,         -24.,   28.5945034
   5118,   44.5310135,         -24.,   48.1669731
   5119,   17.1278324,         -24.,   47.0113411
   5120,   43.7292252,         -24.,    31.295742
   5121,   44.9610138,         -24.,   45.8239937
   5122,   44.4750328,         -24.,   33.5904922
   5123,   16.4605904,         -24.,    44.710144
   5124,   45.2611351,         -24.,   43.3849335
   5125,   16.8440762,         -24.,   35.2332458
   5126,   16.3088894,         -24.,   37.5874176
   5127,   45.3765984,         -24.,   40.9177017
   5128,   30.8139629,         -24.,   62.4362259
   5129,   28.6142521,         -24.,   62.7278328
   5130,   32.8744011,         -24.,   18.1324444
   5131,   33.3486557,         -24.,   62.0417557
   5132,   27.0511417,         -24.,   60.8572235
   5133,   24.7342777,         -24.,   19.9571056
   5134,   35.4192162,         -24.,   18.9348793
   5135,   42.3347626,         -24.,   57.3661957
   5136,     46.18507,         -24.,   29.9156284
   5137,   15.6940012,         -24.,   50.3850098
   5138,   15.8044987,         -24.,   29.6351147
   5139,   48.1602898,         -24.,   40.4500542
   5140,   13.5868387,         -24.,   39.9720306
   5141,   36.6611862,         -24.,   56.1189041
   5142,   24.2208557,         -24.,   52.9407768
   5143,   38.3359375,         -24.,   26.9777622
   5144,   21.4455433,         -24.,   49.5551338
   5145,   23.2750568,         -24.,   27.3199577
   5146,   35.1216774,         -24.,   58.9908066
   5147,   27.2803497,         -24.,   57.5437584
   5148,    42.085495,         -24.,   54.1679611
   5149,   41.7923203,         -24.,   48.1166687
   5150,   42.2060394,         -24.,    45.854126
   5151,    41.296936,         -24.,   32.4966278
   5152,   18.3183212,         -24.,   41.9948616
   5153,   42.5049973,         -24.,   43.5582008
   5154,    42.626873,         -24.,   41.2700729
   5155,   19.3637943,         -24.,   35.8571243
   5156,   32.7821159,         -24.,   59.4940033
   5157,   27.2446766,         -24.,   22.5592175
   5158,   17.5510845,         -24.,   32.9234543
   5159,   34.1535606,         -24.,   21.4838181
   5160,   18.0586586,         -24.,   49.1545219
   5161,   42.7298393,         -24.,   29.0804558
   5162,   16.0619202,         -24.,   39.9515533
   5163,   45.2960587,         -24.,    38.428627
   5164,   30.0240574,         -24.,   56.9995918
   5165,   39.5665016,         -24.,   45.8720093
   5166,   39.9431801,         -24.,   41.5316696
   5167,   41.6478653,         -24.,   51.7092361
   5168,   20.2647018,         -24.,   33.7511215
   5169,   38.8946495,         -24.,   54.4429703
   5170,   26.6381111,         -24.,   54.3008232
   5171,   35.2360458,         -24.,   24.5623112
   5172,   25.3021259,         -24.,   26.4573956
   5173,   20.3886414,         -24.,   47.7576981
   5174,   19.4467392,         -24.,    45.928093
   5175,   18.4310341,         -24.,   39.9533958
   5176,   42.3614578,         -24.,   36.7779274
   5177,   40.4175301,         -24.,   30.5028172
   5178,   18.6384201,         -24.,   37.9219398
   5179,   42.5809326,         -24.,   38.9799614
   5180,    24.251873,         -24.,   23.9265919
   5181,   31.6336575,         -24.,   20.7074661
   5182,   18.3259888,         -24.,   30.6974602
   5183,   38.5882263,         -24.,   50.8829918
   5184,   21.6896973,         -24.,   36.8436432
   5185,   39.4129448,         -24.,   28.6734772
   5186,   38.0190811,         -24.,   31.8150158
   5187,   22.6797657,         -24.,   46.1203918
   5188,   21.0524826,         -24.,   40.0544167
   5189,   34.4004326,         -24.,   26.6138744
   5190,   34.7173729,         -24.,   56.7128143
   5191,   39.8928375,         -24.,   39.4223747
   5192,   24.6112556,         -24.,   49.6536942
   5193,    33.114994,         -24.,   23.8423576
   5194,   25.7848186,         -24.,   28.8157082
   5195,   39.4416504,         -24.,   35.4520683
   5196,   29.0234013,         -24.,   19.8313503
   5197,   19.2207165,         -24.,   51.1720695
   5198,   20.7411098,         -24.,   43.0665627
   5199,   39.7117348,         -24.,   37.3734665
   5200,   16.0851936,         -24.,   42.3188591
   5201,   44.9959717,         -24.,   35.9589806
   5202,   32.9440346,         -24.,   54.3063126
   5203,   30.5561295,         -24.,   23.2213154
   5204,   37.2250748,         -24.,   39.7688637
   5205,    23.457798,         -24.,   38.5438499
   5206,   21.0173435,         -24.,   31.5930691
   5207,   37.0821991,         -24.,   30.1235905
   5208,   36.4120445,         -24.,   28.2987118
   5209,   23.6959667,         -24.,   29.4766159
   5210,   37.0460434,         -24.,   34.3682327
   5211,   23.6906319,         -24.,   47.8316803
   5212,   25.3729115,         -24.,   51.2028389
   5213,   21.6898441,         -24.,    27.874918
   5214,    33.700882,         -24.,   35.8084259
   5215,   27.6412849,         -24.,   25.8088379
   5216,    22.459877,         -24.,   41.7454948
   5217,   23.0583363,         -24.,   34.7927742
   5218,   32.0913773,         -24.,   28.5445156
   5219,   28.1216354,         -24.,   31.1247272
   5220,   34.0762215,         -24.,   31.5197182
   5221,    26.758112,         -24.,   48.6181526
   5222,    36.616848,         -24.,   53.6079063
   5223,   32.7417946,         -24.,   51.1080208
   5224,   28.9708576,         -24.,   47.9528656
   5225,   36.6401215,         -24.,   47.9853821
   5226,   29.4342346,         -24.,   50.5949821
   5227,   31.8972225,         -24.,   33.9840126
   5228,   24.6360207,         -24.,   40.7450409
   5229,   29.9786987,         -24.,   28.2318897
   5230,    27.863039,         -24.,   28.4355125
   5231,   24.1607113,         -24.,   32.1828766
   5232,   25.9998379,         -24.,   36.4857674
   5233,   24.9751968,         -24.,   43.8064461
   5234,   30.1250343,         -24.,   25.8118172
   5235,    30.487751,         -24.,   37.4079857
   5236,    31.549942,         -24.,     30.72999
   5237,   30.3088684,         -24.,   53.4915237
   5238,   27.6231098,         -24.,   39.4395218
   5239,   32.4344177,         -24.,   26.1753578
   5240,   26.6951866,         -24.,   33.4985199
   5241,   26.0616112,         -24.,    46.257122
   5242,   34.2076454,         -24.,   38.1687813
   5243,   30.1376209,         -24.,   32.5049324
   5244,   27.8019104,         -24.,   42.6107407
   5245,   29.3253269,         -24.,   35.5853043
   5246,   31.7547493,         -24.,   49.4026489
   5247,   31.5970364,         -24.,   39.0636826
   5248,   36.9948463,         -24.,   37.8067436
   5249,   34.0874748,         -24.,   47.9485397
   5250,   31.0933552,         -24.,   47.5320969
   5251,   32.7889824,         -24.,    42.442028
   5252,   34.6634254,         -24.,   40.1502228
   5253,   35.0707092,         -24.,   43.8224716
   5254,   37.3663597,         -24.,   41.7274704
   5255,   28.8057709,         -24.,   45.1335449
   5256,   32.9790192,         -24.,   45.5736122
   5257,   29.9219513,         -24.,   30.0071621
   5258,   40.0245514,         -24.,   21.4620895
   5259,   36.3994789,         -24.,   22.4168568
   5260,   43.3260994,         -24.,   52.3860054
   5261,   37.2923622,         -24.,   58.2860184
   5262,   30.2276917,         -24.,   59.9167747
   5263,   37.0102768,         -24.,   25.5184689
   5264,   32.5280609,         -24.,   56.9018707
   5265,    41.931778,         -24.,   34.5723343
   5266,   41.5280533,         -24.,   50.1894951
   5267,   38.2148285,         -24.,   55.9376831
   5268,   21.4039345,         -24.,   29.4642048
   5269,   18.7029305,         -24.,   43.9977837
   5270,   22.6641254,         -24.,    51.295826
   5271,   35.9104881,         -24.,   26.8536263
   5272,   38.9417572,         -24.,   33.5216064
   5273,   39.8456841,         -24.,   43.6602364
   5274,    39.132328,         -24.,   48.1976166
   5275,   40.2337265,         -24.,   52.8141937
   5276,   34.1568298,         -24.,   28.7974796
   5277,   35.6276207,         -24.,    33.285965
   5278,   37.3415375,         -24.,   43.7332268
   5279,   37.0937805,         -24.,   45.8339767
   5280,   36.0610237,         -24.,   50.1656151
   5281,   34.5701637,         -24.,   52.2902756
   5282,   34.6558571,         -24.,   54.9091721
   5283,   26.0785313,         -24.,   30.6707191
   5284,    36.847599,         -24.,   35.9541016
   5285,   21.5575619,         -24.,   44.6630936
   5286,   20.0434723,         -24.,   41.7723618
   5287,   20.4942055,         -24.,   38.2921906
   5288,   34.9749336,         -24.,   41.9913177
   5289,    34.858799,         -24.,   45.7603683
   5290,   34.3687477,         -24.,   49.6646118
   5291,   23.0653572,         -24.,   43.3450699
   5292,    27.110178,         -24.,   51.2019768
   5293,   28.7252502,         -24.,   33.9481201
   5294,   32.7763634,         -24.,   47.0093422
   5295,   33.1065483,         -24.,   43.9973755
   5296,   31.0755863,         -24.,   45.6767426
   5297,   29.6995735,         -24.,   40.1781197
   5298,   30.0708847,         -24.,   41.7780838
   5299,   32.2932472,         -24.,   40.8355827
   5300,   30.7825565,         -24.,   43.3141975
   5301,   31.5710831,         -24.,   44.2993355
   5302,   33.9376984,         -27.,   64.7288361
   5303,   36.7789841,         -27.,    63.933609
   5304,   39.4425545,         -27.,   62.6634102
   5305,   44.0270042,         -27.,   58.9694328
   5306,   45.8951683,         -27.,   56.6833572
   5307,   48.7484741,         -27.,   51.5238647
   5308,   50.4402733,         -27.,   45.8731003
   5309,          51.,         -27.,   39.9999886
   5310,   50.4402695,         -27.,   34.1268806
   5311,   48.7484703,         -27.,   28.4761238
   5312,   45.8951645,         -27.,   23.3166409
   5313,   44.0270004,         -27.,   21.0305672
   5314,   39.4425507,         -27.,   17.3365898
   5315,   36.7789841,         -27.,   16.0663891
   5316,   33.9377022,         -27.,   15.2711611
   5317,          31.,         -27.,          65.
   5318,          31.,         -27.,          15.
   5319,   28.0622997,         -27.,   15.2711611
   5320,   25.2210159,         -27.,   16.0663891
   5321,   22.5574474,         -27.,   17.3365898
   5322,   17.9729958,         -27.,   21.0305691
   5323,   16.1048317,         -27.,   23.3166447
   5324,   13.2515259,         -27.,   28.4761353
   5325,   11.5597258,         -27.,   34.1268997
   5326,          11.,         -27.,   40.0000114
   5327,   11.5597286,         -27.,   45.8731194
   5328,   13.2515297,         -27.,   51.5238762
   5329,   16.1048336,         -27.,   56.6833572
   5330,   17.9729977,         -27.,   58.9694328
   5331,   22.5574493,         -27.,   62.6634102
   5332,   25.2210159,         -27.,    63.933609
   5333,   28.0622978,         -27.,   64.7288361
   5334,   41.8702965,         -27.,   60.9849892
   5335,   47.4688263,         -27.,   54.1850395
   5336,   49.7375603,         -27.,   48.7414093
   5337,   50.8602791,         -27.,   42.9499207
   5338,   50.8602791,         -27.,   37.0500603
   5339,   49.7375565,         -27.,   31.2585735
   5340,   47.4688225,         -27.,   25.8149586
   5341,   41.8702965,         -27.,   19.0150108
   5342,   20.1297016,         -27.,   19.0150127
   5343,   14.5311747,         -27.,   25.8149624
   5344,   12.2624388,         -27.,   31.2585926
   5345,     11.13972,         -27.,   37.0500793
   5346,   11.1397219,         -27.,   42.9499397
   5347,   12.2624445,         -27.,   48.7414246
   5348,   14.5311766,         -27.,   54.1850395
   5349,   20.1297035,         -27.,   60.9849892
   5350,   35.8506927,         -27.,   61.3840866
   5351,   20.1137028,         -27.,   56.9514732
   5352,   14.0589342,         -27.,   45.3280487
   5353,   14.2330503,         -27.,   34.6853294
   5354,   18.4136066,         -27.,    25.135313
   5355,    43.654007,         -27.,   25.2684174
   5356,    30.376503,         -27.,   17.4907131
   5357,   28.3944874,         -27.,   16.9384403
   5358,   26.7967663,         -27.,    18.281271
   5359,   41.9787254,         -27.,   23.2325726
   5360,   20.2512589,         -27.,   23.2181435
   5361,   47.6804771,         -27.,   35.0948792
   5362,    47.709938,         -27.,   45.8206329
   5363,   46.4044838,         -27.,   50.8802338
   5364,     43.96521,         -27.,   55.4129105
   5365,   18.3931103,         -27.,   54.9371758
   5366,   38.2421875,         -27.,   60.3938789
   5367,   24.2130451,         -27.,   60.1130714
   5368,   40.4269257,         -27.,   59.0532265
   5369,    45.350647,         -27.,   53.2467499
   5370,   47.1681824,         -27.,   48.3968887
   5371,   48.0449257,         -27.,   43.1612473
   5372,   48.0384789,         -27.,   37.7708664
   5373,   47.0660248,         -27.,   32.4690781
   5374,   45.0503731,         -27.,   27.5126762
   5375,    37.823597,         -27.,   20.0284119
   5376,   22.3990707,         -27.,   21.5301189
   5377,   16.9380283,         -27.,   27.2958775
   5378,    14.914031,         -27.,   32.1125793
   5379,   13.7777681,         -27.,   37.3135948
   5380,   13.6770897,         -27.,    42.650547
   5381,   14.7319555,         -27.,   47.9198799
   5382,   16.9113045,         -27.,   52.7339096
   5383,    22.008379,         -27.,    58.673275
   5384,   25.1309128,         -27.,   57.9968758
   5385,    39.164917,         -27.,   57.2873764
   5386,   23.9053497,         -27.,   56.4820251
   5387,   38.4122009,         -27.,   23.6598701
   5388,   40.6916237,         -27.,   55.8211136
   5389,   22.2300701,         -27.,   54.9191971
   5390,   40.1156197,         -27.,   25.2361946
   5391,   22.0712624,         -27.,   25.2693825
   5392,   20.3188229,         -27.,    26.728138
   5393,     20.59869,         -27.,   53.1271019
   5394,   41.5349731,         -27.,   27.0620575
   5395,   44.0336494,         -27.,   50.3471947
   5396,    19.168766,         -27.,   28.5945034
   5397,   44.5310135,         -27.,   48.1669731
   5398,   17.1278324,         -27.,   47.0113411
   5399,   43.7292252,         -27.,    31.295742
   5400,   44.9610138,         -27.,   45.8239937
   5401,   44.4750328,         -27.,   33.5904922
   5402,   16.4605904,         -27.,    44.710144
   5403,   45.2611351,         -27.,   43.3849335
   5404,   16.8440762,         -27.,   35.2332458
   5405,   16.3088894,         -27.,   37.5874176
   5406,   45.3765984,         -27.,   40.9177017
   5407,   30.8139629,         -27.,   62.4362259
   5408,   28.6142521,         -27.,   62.7278328
   5409,   32.8744011,         -27.,   18.1324444
   5410,   33.3486557,         -27.,   62.0417557
   5411,   27.0511417,         -27.,   60.8572235
   5412,   24.7342777,         -27.,   19.9571056
   5413,   35.4192162,         -27.,   18.9348793
   5414,   42.3347626,         -27.,   57.3661957
   5415,     46.18507,         -27.,   29.9156284
   5416,   15.6940012,         -27.,   50.3850098
   5417,   15.8044987,         -27.,   29.6351147
   5418,   48.1602898,         -27.,   40.4500542
   5419,   13.5868387,         -27.,   39.9720306
   5420,   36.6611862,         -27.,   56.1189041
   5421,   24.2208557,         -27.,   52.9407768
   5422,   38.3359375,         -27.,   26.9777622
   5423,   21.4455433,         -27.,   49.5551338
   5424,   23.2750568,         -27.,   27.3199577
   5425,   35.1216774,         -27.,   58.9908066
   5426,   27.2803497,         -27.,   57.5437584
   5427,    42.085495,         -27.,   54.1679611
   5428,   41.7923203,         -27.,   48.1166687
   5429,   42.2060394,         -27.,    45.854126
   5430,    41.296936,         -27.,   32.4966278
   5431,   18.3183212,         -27.,   41.9948616
   5432,   42.5049973,         -27.,   43.5582008
   5433,    42.626873,         -27.,   41.2700729
   5434,   19.3637943,         -27.,   35.8571243
   5435,   32.7821159,         -27.,   59.4940033
   5436,   27.2446766,         -27.,   22.5592175
   5437,   17.5510845,         -27.,   32.9234543
   5438,   34.1535606,         -27.,   21.4838181
   5439,   18.0586586,         -27.,   49.1545219
   5440,   42.7298393,         -27.,   29.0804558
   5441,   16.0619202,         -27.,   39.9515533
   5442,   45.2960587,         -27.,    38.428627
   5443,   30.0240574,         -27.,   56.9995918
   5444,   39.5665016,         -27.,   45.8720093
   5445,   39.9431801,         -27.,   41.5316696
   5446,   41.6478653,         -27.,   51.7092361
   5447,   20.2647018,         -27.,   33.7511215
   5448,   38.8946495,         -27.,   54.4429703
   5449,   26.6381111,         -27.,   54.3008232
   5450,   35.2360458,         -27.,   24.5623112
   5451,   25.3021259,         -27.,   26.4573956
   5452,   20.3886414,         -27.,   47.7576981
   5453,   19.4467392,         -27.,    45.928093
   5454,   18.4310341,         -27.,   39.9533958
   5455,   42.3614578,         -27.,   36.7779274
   5456,   40.4175301,         -27.,   30.5028172
   5457,   18.6384201,         -27.,   37.9219398
   5458,   42.5809326,         -27.,   38.9799614
   5459,    24.251873,         -27.,   23.9265919
   5460,   31.6336575,         -27.,   20.7074661
   5461,   18.3259888,         -27.,   30.6974602
   5462,   38.5882263,         -27.,   50.8829918
   5463,   21.6896973,         -27.,   36.8436432
   5464,   39.4129448,         -27.,   28.6734772
   5465,   38.0190811,         -27.,   31.8150158
   5466,   22.6797657,         -27.,   46.1203918
   5467,   21.0524826,         -27.,   40.0544167
   5468,   34.4004326,         -27.,   26.6138744
   5469,   34.7173729,         -27.,   56.7128143
   5470,   39.8928375,         -27.,   39.4223747
   5471,   24.6112556,         -27.,   49.6536942
   5472,    33.114994,         -27.,   23.8423576
   5473,   25.7848186,         -27.,   28.8157082
   5474,   39.4416504,         -27.,   35.4520683
   5475,   29.0234013,         -27.,   19.8313503
   5476,   19.2207165,         -27.,   51.1720695
   5477,   20.7411098,         -27.,   43.0665627
   5478,   39.7117348,         -27.,   37.3734665
   5479,   16.0851936,         -27.,   42.3188591
   5480,   44.9959717,         -27.,   35.9589806
   5481,   32.9440346,         -27.,   54.3063126
   5482,   30.5561295,         -27.,   23.2213154
   5483,   37.2250748,         -27.,   39.7688637
   5484,    23.457798,         -27.,   38.5438499
   5485,   21.0173435,         -27.,   31.5930691
   5486,   37.0821991,         -27.,   30.1235905
   5487,   36.4120445,         -27.,   28.2987118
   5488,   23.6959667,         -27.,   29.4766159
   5489,   37.0460434,         -27.,   34.3682327
   5490,   23.6906319,         -27.,   47.8316803
   5491,   25.3729115,         -27.,   51.2028389
   5492,   21.6898441,         -27.,    27.874918
   5493,    33.700882,         -27.,   35.8084259
   5494,   27.6412849,         -27.,   25.8088379
   5495,    22.459877,         -27.,   41.7454948
   5496,   23.0583363,         -27.,   34.7927742
   5497,   32.0913773,         -27.,   28.5445156
   5498,   28.1216354,         -27.,   31.1247272
   5499,   34.0762215,         -27.,   31.5197182
   5500,    26.758112,         -27.,   48.6181526
   5501,    36.616848,         -27.,   53.6079063
   5502,   32.7417946,         -27.,   51.1080208
   5503,   28.9708576,         -27.,   47.9528656
   5504,   36.6401215,         -27.,   47.9853821
   5505,   29.4342346,         -27.,   50.5949821
   5506,   31.8972225,         -27.,   33.9840126
   5507,   24.6360207,         -27.,   40.7450409
   5508,   29.9786987,         -27.,   28.2318897
   5509,    27.863039,         -27.,   28.4355125
   5510,   24.1607113,         -27.,   32.1828766
   5511,   25.9998379,         -27.,   36.4857674
   5512,   24.9751968,         -27.,   43.8064461
   5513,   30.1250343,         -27.,   25.8118172
   5514,    30.487751,         -27.,   37.4079857
   5515,    31.549942,         -27.,     30.72999
   5516,   30.3088684,         -27.,   53.4915237
   5517,   27.6231098,         -27.,   39.4395218
   5518,   32.4344177,         -27.,   26.1753578
   5519,   26.6951866,         -27.,   33.4985199
   5520,   26.0616112,         -27.,    46.257122
   5521,   34.2076454,         -27.,   38.1687813
   5522,   30.1376209,         -27.,   32.5049324
   5523,   27.8019104,         -27.,   42.6107407
   5524,   29.3253269,         -27.,   35.5853043
   5525,   31.7547493,         -27.,   49.4026489
   5526,   31.5970364,         -27.,   39.0636826
   5527,   36.9948463,         -27.,   37.8067436
   5528,   34.0874748,         -27.,   47.9485397
   5529,   31.0933552,         -27.,   47.5320969
   5530,   32.7889824,         -27.,    42.442028
   5531,   34.6634254,         -27.,   40.1502228
   5532,   35.0707092,         -27.,   43.8224716
   5533,   37.3663597,         -27.,   41.7274704
   5534,   28.8057709,         -27.,   45.1335449
   5535,   32.9790192,         -27.,   45.5736122
   5536,   29.9219513,         -27.,   30.0071621
   5537,   40.0245514,         -27.,   21.4620895
   5538,   36.3994789,         -27.,   22.4168568
   5539,   43.3260994,         -27.,   52.3860054
   5540,   37.2923622,         -27.,   58.2860184
   5541,   30.2276917,         -27.,   59.9167747
   5542,   37.0102768,         -27.,   25.5184689
   5543,   32.5280609,         -27.,   56.9018707
   5544,    41.931778,         -27.,   34.5723343
   5545,   41.5280533,         -27.,   50.1894951
   5546,   38.2148285,         -27.,   55.9376831
   5547,   21.4039345,         -27.,   29.4642048
   5548,   18.7029305,         -27.,   43.9977837
   5549,   22.6641254,         -27.,    51.295826
   5550,   35.9104881,         -27.,   26.8536263
   5551,   38.9417572,         -27.,   33.5216064
   5552,   39.8456841,         -27.,   43.6602364
   5553,    39.132328,         -27.,   48.1976166
   5554,   40.2337265,         -27.,   52.8141937
   5555,   34.1568298,         -27.,   28.7974796
   5556,   35.6276207,         -27.,    33.285965
   5557,   37.3415375,         -27.,   43.7332268
   5558,   37.0937805,         -27.,   45.8339767
   5559,   36.0610237,         -27.,   50.1656151
   5560,   34.5701637,         -27.,   52.2902756
   5561,   34.6558571,         -27.,   54.9091721
   5562,   26.0785313,         -27.,   30.6707191
   5563,    36.847599,         -27.,   35.9541016
   5564,   21.5575619,         -27.,   44.6630936
   5565,   20.0434723,         -27.,   41.7723618
   5566,   20.4942055,         -27.,   38.2921906
   5567,   34.9749336,         -27.,   41.9913177
   5568,    34.858799,         -27.,   45.7603683
   5569,   34.3687477,         -27.,   49.6646118
   5570,   23.0653572,         -27.,   43.3450699
   5571,    27.110178,         -27.,   51.2019768
   5572,   28.7252502,         -27.,   33.9481201
   5573,   32.7763634,         -27.,   47.0093422
   5574,   33.1065483,         -27.,   43.9973755
   5575,   31.0755863,         -27.,   45.6767426
   5576,   29.6995735,         -27.,   40.1781197
   5577,   30.0708847,         -27.,   41.7780838
   5578,   32.2932472,         -27.,   40.8355827
   5579,   30.7825565,         -27.,   43.3141975
   5580,   31.5710831,         -27.,   44.2993355
   5581,   33.9376984,         -30.,   64.7288361
   5582,   36.7789841,         -30.,    63.933609
   5583,   39.4425545,         -30.,   62.6634102
   5584,   44.0270042,         -30.,   58.9694328
   5585,   45.8951683,         -30.,   56.6833572
   5586,   48.7484741,         -30.,   51.5238647
   5587,   50.4402733,         -30.,   45.8731003
   5588,          51.,         -30.,   39.9999886
   5589,   50.4402695,         -30.,   34.1268806
   5590,   48.7484703,         -30.,   28.4761238
   5591,   45.8951645,         -30.,   23.3166409
   5592,   44.0270004,         -30.,   21.0305672
   5593,   39.4425507,         -30.,   17.3365898
   5594,   36.7789841,         -30.,   16.0663891
   5595,   33.9377022,         -30.,   15.2711611
   5596,          31.,         -30.,          65.
   5597,          31.,         -30.,          15.
   5598,   28.0622997,         -30.,   15.2711611
   5599,   25.2210159,         -30.,   16.0663891
   5600,   22.5574474,         -30.,   17.3365898
   5601,   17.9729958,         -30.,   21.0305691
   5602,   16.1048317,         -30.,   23.3166447
   5603,   13.2515259,         -30.,   28.4761353
   5604,   11.5597258,         -30.,   34.1268997
   5605,          11.,         -30.,   40.0000114
   5606,   11.5597286,         -30.,   45.8731194
   5607,   13.2515297,         -30.,   51.5238762
   5608,   16.1048336,         -30.,   56.6833572
   5609,   17.9729977,         -30.,   58.9694328
   5610,   22.5574493,         -30.,   62.6634102
   5611,   25.2210159,         -30.,    63.933609
   5612,   28.0622978,         -30.,   64.7288361
   5613,   41.8702965,         -30.,   60.9849892
   5614,   47.4688263,         -30.,   54.1850395
   5615,   49.7375603,         -30.,   48.7414093
   5616,   50.8602791,         -30.,   42.9499207
   5617,   50.8602791,         -30.,   37.0500603
   5618,   49.7375565,         -30.,   31.2585735
   5619,   47.4688225,         -30.,   25.8149586
   5620,   41.8702965,         -30.,   19.0150108
   5621,   20.1297016,         -30.,   19.0150127
   5622,   14.5311747,         -30.,   25.8149624
   5623,   12.2624388,         -30.,   31.2585926
   5624,     11.13972,         -30.,   37.0500793
   5625,   11.1397219,         -30.,   42.9499397
   5626,   12.2624445,         -30.,   48.7414246
   5627,   14.5311766,         -30.,   54.1850395
   5628,   20.1297035,         -30.,   60.9849892
   5629,   35.8506927,         -30.,   61.3840866
   5630,   20.1137028,         -30.,   56.9514732
   5631,   14.0589342,         -30.,   45.3280487
   5632,   14.2330503,         -30.,   34.6853294
   5633,   18.4136066,         -30.,    25.135313
   5634,    43.654007,         -30.,   25.2684174
   5635,    30.376503,         -30.,   17.4907131
   5636,   28.3944874,         -30.,   16.9384403
   5637,   26.7967663,         -30.,    18.281271
   5638,   41.9787254,         -30.,   23.2325726
   5639,   20.2512589,         -30.,   23.2181435
   5640,   47.6804771,         -30.,   35.0948792
   5641,    47.709938,         -30.,   45.8206329
   5642,   46.4044838,         -30.,   50.8802338
   5643,     43.96521,         -30.,   55.4129105
   5644,   18.3931103,         -30.,   54.9371758
   5645,   38.2421875,         -30.,   60.3938789
   5646,   24.2130451,         -30.,   60.1130714
   5647,   40.4269257,         -30.,   59.0532265
   5648,    45.350647,         -30.,   53.2467499
   5649,   47.1681824,         -30.,   48.3968887
   5650,   48.0449257,         -30.,   43.1612473
   5651,   48.0384789,         -30.,   37.7708664
   5652,   47.0660248,         -30.,   32.4690781
   5653,   45.0503731,         -30.,   27.5126762
   5654,    37.823597,         -30.,   20.0284119
   5655,   22.3990707,         -30.,   21.5301189
   5656,   16.9380283,         -30.,   27.2958775
   5657,    14.914031,         -30.,   32.1125793
   5658,   13.7777681,         -30.,   37.3135948
   5659,   13.6770897,         -30.,    42.650547
   5660,   14.7319555,         -30.,   47.9198799
   5661,   16.9113045,         -30.,   52.7339096
   5662,    22.008379,         -30.,    58.673275
   5663,   25.1309128,         -30.,   57.9968758
   5664,    39.164917,         -30.,   57.2873764
   5665,   23.9053497,         -30.,   56.4820251
   5666,   38.4122009,         -30.,   23.6598701
   5667,   40.6916237,         -30.,   55.8211136
   5668,   22.2300701,         -30.,   54.9191971
   5669,   40.1156197,         -30.,   25.2361946
   5670,   22.0712624,         -30.,   25.2693825
   5671,   20.3188229,         -30.,    26.728138
   5672,     20.59869,         -30.,   53.1271019
   5673,   41.5349731,         -30.,   27.0620575
   5674,   44.0336494,         -30.,   50.3471947
   5675,    19.168766,         -30.,   28.5945034
   5676,   44.5310135,         -30.,   48.1669731
   5677,   17.1278324,         -30.,   47.0113411
   5678,   43.7292252,         -30.,    31.295742
   5679,   44.9610138,         -30.,   45.8239937
   5680,   44.4750328,         -30.,   33.5904922
   5681,   16.4605904,         -30.,    44.710144
   5682,   45.2611351,         -30.,   43.3849335
   5683,   16.8440762,         -30.,   35.2332458
   5684,   16.3088894,         -30.,   37.5874176
   5685,   45.3765984,         -30.,   40.9177017
   5686,   30.8139629,         -30.,   62.4362259
   5687,   28.6142521,         -30.,   62.7278328
   5688,   32.8744011,         -30.,   18.1324444
   5689,   33.3486557,         -30.,   62.0417557
   5690,   27.0511417,         -30.,   60.8572235
   5691,   24.7342777,         -30.,   19.9571056
   5692,   35.4192162,         -30.,   18.9348793
   5693,   42.3347626,         -30.,   57.3661957
   5694,     46.18507,         -30.,   29.9156284
   5695,   15.6940012,         -30.,   50.3850098
   5696,   15.8044987,         -30.,   29.6351147
   5697,   48.1602898,         -30.,   40.4500542
   5698,   13.5868387,         -30.,   39.9720306
   5699,   36.6611862,         -30.,   56.1189041
   5700,   24.2208557,         -30.,   52.9407768
   5701,   38.3359375,         -30.,   26.9777622
   5702,   21.4455433,         -30.,   49.5551338
   5703,   23.2750568,         -30.,   27.3199577
   5704,   35.1216774,         -30.,   58.9908066
   5705,   27.2803497,         -30.,   57.5437584
   5706,    42.085495,         -30.,   54.1679611
   5707,   41.7923203,         -30.,   48.1166687
   5708,   42.2060394,         -30.,    45.854126
   5709,    41.296936,         -30.,   32.4966278
   5710,   18.3183212,         -30.,   41.9948616
   5711,   42.5049973,         -30.,   43.5582008
   5712,    42.626873,         -30.,   41.2700729
   5713,   19.3637943,         -30.,   35.8571243
   5714,   32.7821159,         -30.,   59.4940033
   5715,   27.2446766,         -30.,   22.5592175
   5716,   17.5510845,         -30.,   32.9234543
   5717,   34.1535606,         -30.,   21.4838181
   5718,   18.0586586,         -30.,   49.1545219
   5719,   42.7298393,         -30.,   29.0804558
   5720,   16.0619202,         -30.,   39.9515533
   5721,   45.2960587,         -30.,    38.428627
   5722,   30.0240574,         -30.,   56.9995918
   5723,   39.5665016,         -30.,   45.8720093
   5724,   39.9431801,         -30.,   41.5316696
   5725,   41.6478653,         -30.,   51.7092361
   5726,   20.2647018,         -30.,   33.7511215
   5727,   38.8946495,         -30.,   54.4429703
   5728,   26.6381111,         -30.,   54.3008232
   5729,   35.2360458,         -30.,   24.5623112
   5730,   25.3021259,         -30.,   26.4573956
   5731,   20.3886414,         -30.,   47.7576981
   5732,   19.4467392,         -30.,    45.928093
   5733,   18.4310341,         -30.,   39.9533958
   5734,   42.3614578,         -30.,   36.7779274
   5735,   40.4175301,         -30.,   30.5028172
   5736,   18.6384201,         -30.,   37.9219398
   5737,   42.5809326,         -30.,   38.9799614
   5738,    24.251873,         -30.,   23.9265919
   5739,   31.6336575,         -30.,   20.7074661
   5740,   18.3259888,         -30.,   30.6974602
   5741,   38.5882263,         -30.,   50.8829918
   5742,   21.6896973,         -30.,   36.8436432
   5743,   39.4129448,         -30.,   28.6734772
   5744,   38.0190811,         -30.,   31.8150158
   5745,   22.6797657,         -30.,   46.1203918
   5746,   21.0524826,         -30.,   40.0544167
   5747,   34.4004326,         -30.,   26.6138744
   5748,   34.7173729,         -30.,   56.7128143
   5749,   39.8928375,         -30.,   39.4223747
   5750,   24.6112556,         -30.,   49.6536942
   5751,    33.114994,         -30.,   23.8423576
   5752,   25.7848186,         -30.,   28.8157082
   5753,   39.4416504,         -30.,   35.4520683
   5754,   29.0234013,         -30.,   19.8313503
   5755,   19.2207165,         -30.,   51.1720695
   5756,   20.7411098,         -30.,   43.0665627
   5757,   39.7117348,         -30.,   37.3734665
   5758,   16.0851936,         -30.,   42.3188591
   5759,   44.9959717,         -30.,   35.9589806
   5760,   32.9440346,         -30.,   54.3063126
   5761,   30.5561295,         -30.,   23.2213154
   5762,   37.2250748,         -30.,   39.7688637
   5763,    23.457798,         -30.,   38.5438499
   5764,   21.0173435,         -30.,   31.5930691
   5765,   37.0821991,         -30.,   30.1235905
   5766,   36.4120445,         -30.,   28.2987118
   5767,   23.6959667,         -30.,   29.4766159
   5768,   37.0460434,         -30.,   34.3682327
   5769,   23.6906319,         -30.,   47.8316803
   5770,   25.3729115,         -30.,   51.2028389
   5771,   21.6898441,         -30.,    27.874918
   5772,    33.700882,         -30.,   35.8084259
   5773,   27.6412849,         -30.,   25.8088379
   5774,    22.459877,         -30.,   41.7454948
   5775,   23.0583363,         -30.,   34.7927742
   5776,   32.0913773,         -30.,   28.5445156
   5777,   28.1216354,         -30.,   31.1247272
   5778,   34.0762215,         -30.,   31.5197182
   5779,    26.758112,         -30.,   48.6181526
   5780,    36.616848,         -30.,   53.6079063
   5781,   32.7417946,         -30.,   51.1080208
   5782,   28.9708576,         -30.,   47.9528656
   5783,   36.6401215,         -30.,   47.9853821
   5784,   29.4342346,         -30.,   50.5949821
   5785,   31.8972225,         -30.,   33.9840126
   5786,   24.6360207,         -30.,   40.7450409
   5787,   29.9786987,         -30.,   28.2318897
   5788,    27.863039,         -30.,   28.4355125
   5789,   24.1607113,         -30.,   32.1828766
   5790,   25.9998379,         -30.,   36.4857674
   5791,   24.9751968,         -30.,   43.8064461
   5792,   30.1250343,         -30.,   25.8118172
   5793,    30.487751,         -30.,   37.4079857
   5794,    31.549942,         -30.,     30.72999
   5795,   30.3088684,         -30.,   53.4915237
   5796,   27.6231098,         -30.,   39.4395218
   5797,   32.4344177,         -30.,   26.1753578
   5798,   26.6951866,         -30.,   33.4985199
   5799,   26.0616112,         -30.,    46.257122
   5800,   34.2076454,         -30.,   38.1687813
   5801,   30.1376209,         -30.,   32.5049324
   5802,   27.8019104,         -30.,   42.6107407
   5803,   29.3253269,         -30.,   35.5853043
   5804,   31.7547493,         -30.,   49.4026489
   5805,   31.5970364,         -30.,   39.0636826
   5806,   36.9948463,         -30.,   37.8067436
   5807,   34.0874748,         -30.,   47.9485397
   5808,   31.0933552,         -30.,   47.5320969
   5809,   32.7889824,         -30.,    42.442028
   5810,   34.6634254,         -30.,   40.1502228
   5811,   35.0707092,         -30.,   43.8224716
   5812,   37.3663597,         -30.,   41.7274704
   5813,   28.8057709,         -30.,   45.1335449
   5814,   32.9790192,         -30.,   45.5736122
   5815,   29.9219513,         -30.,   30.0071621
   5816,   40.0245514,         -30.,   21.4620895
   5817,   36.3994789,         -30.,   22.4168568
   5818,   43.3260994,         -30.,   52.3860054
   5819,   37.2923622,         -30.,   58.2860184
   5820,   30.2276917,         -30.,   59.9167747
   5821,   37.0102768,         -30.,   25.5184689
   5822,   32.5280609,         -30.,   56.9018707
   5823,    41.931778,         -30.,   34.5723343
   5824,   41.5280533,         -30.,   50.1894951
   5825,   38.2148285,         -30.,   55.9376831
   5826,   21.4039345,         -30.,   29.4642048
   5827,   18.7029305,         -30.,   43.9977837
   5828,   22.6641254,         -30.,    51.295826
   5829,   35.9104881,         -30.,   26.8536263
   5830,   38.9417572,         -30.,   33.5216064
   5831,   39.8456841,         -30.,   43.6602364
   5832,    39.132328,         -30.,   48.1976166
   5833,   40.2337265,         -30.,   52.8141937
   5834,   34.1568298,         -30.,   28.7974796
   5835,   35.6276207,         -30.,    33.285965
   5836,   37.3415375,         -30.,   43.7332268
   5837,   37.0937805,         -30.,   45.8339767
   5838,   36.0610237,         -30.,   50.1656151
   5839,   34.5701637,         -30.,   52.2902756
   5840,   34.6558571,         -30.,   54.9091721
   5841,   26.0785313,         -30.,   30.6707191
   5842,    36.847599,         -30.,   35.9541016
   5843,   21.5575619,         -30.,   44.6630936
   5844,   20.0434723,         -30.,   41.7723618
   5845,   20.4942055,         -30.,   38.2921906
   5846,   34.9749336,         -30.,   41.9913177
   5847,    34.858799,         -30.,   45.7603683
   5848,   34.3687477,         -30.,   49.6646118
   5849,   23.0653572,         -30.,   43.3450699
   5850,    27.110178,         -30.,   51.2019768
   5851,   28.7252502,         -30.,   33.9481201
   5852,   32.7763634,         -30.,   47.0093422
   5853,   33.1065483,         -30.,   43.9973755
   5854,   31.0755863,         -30.,   45.6767426
   5855,   29.6995735,         -30.,   40.1781197
   5856,   30.0708847,         -30.,   41.7780838
   5857,   32.2932472,         -30.,   40.8355827
   5858,   30.7825565,         -30.,   43.3141975
   5859,   31.5710831,         -30.,   44.2993355
*Element, type=C3D8
   1,   16,  106,  109,    1,  295,  385,  388,  280
   2,  134,  124,   49,  109,  413,  403,  328,  388
   3,    1,  109,   49,    2,  280,  388,  328,  281
   4,   65,    3,    2,   49,  344,  282,  281,  328
   5,   48,   82,   66,   30,  327,  361,  345,  309
   6,    5,   63,   68,   34,  284,  342,  347,  313
   7,   83,   85,  148,  125,  362,  364,  427,  404
   8,  115,   27,   46,   80,  394,  306,  325,  359
   9,   79,  118,  140,  178,  358,  397,  419,  457
  10,  118,   25,   44,   78,  397,  304,  323,  357
  11,   22,   53,   76,   42,  301,  332,  355,  321
  12,  116,   23,   42,   76,  395,  302,  321,  355
  13,   58,   54,   93,   89,  337,  333,  372,  368
  14,   18,   56,   57,   19,  297,  335,  336,  298
  15,   15,  108,   55,   17,  294,  387,  334,  296
  16,   56,   18,   17,   55,  335,  297,  296,  334
  17,  123,   90,  158,  150,  402,  369,  437,  429
  18,  111,   20,   19,   57,  390,  299,  298,  336
  19,  237,   74,  236,   86,  516,  353,  515,  365
  20,  149,  171,  137,  237,  428,  450,  416,  516
  21,   99,   96,  127,  128,  378,  375,  406,  407
  22,   72,   38,    9,   60,  351,  317,  288,  339
  23,   85,   83,   66,   82,  364,  362,  345,  361
  24,   70,   36,    7,   61,  349,  315,  286,  340
  25,   69,   35,    6,   62,  348,  314,  285,  341
  26,   84,  239,  119,  245,  363,  518,  398,  524
  27,  113,    4,   33,   67,  392,  283,  312,  346
  28,  134,  240,  142,  242,  413,  519,  421,  521
  29,    4,  113,   63,    5,  283,  392,  342,  284
  30,  117,    8,   36,   70,  396,  287,  315,  349
  31,  105,  141,   71,  117,  384,  420,  350,  396
  32,  114,   10,   38,   72,  393,  289,  317,  351
  33,   54,   73,  139,   93,  333,  352,  418,  372
  34,   58,  236,   40,   12,  337,  515,  319,  291
  35,  158,   90,   59,   75,  437,  369,  338,  354
  36,   77,   43,   23,  116,  356,  322,  302,  395
  37,   78,   44,   24,   52,  357,  323,  303,  331
  38,   80,   46,   26,   51,  359,  325,  305,  330
  39,   81,  115,  138,  175,  360,  394,  417,  454
  40,   50,   29,   28,   64,  329,  308,  307,  343
  41,  107,   32,   31,  110,  386,  311,  310,  389
  42,  110,   31,   30,   66,  389,  310,  309,  345
  43,   67,   33,    3,   65,  346,  312,  282,  344
  44,   82,   48,   29,   50,  361,  327,  308,  329
  45,   45,   79,   51,   26,  324,  358,  330,  305
  46,   43,   77,   52,   24,  322,  356,  331,  303
  47,  236,   74,   13,   40,  515,  353,  292,  319
  48,   21,   59,   53,   22,  300,  338,  332,  301
  49,   39,   73,   54,   11,  318,  352,  333,  290
  50,   58,   12,   11,   54,  337,  291,  290,  333
  51,   74,  237,  137,  112,  353,  516,  416,  391
  52,   75,   41,   20,  111,  354,  320,  299,  390
  53,   41,   75,   59,   21,  320,  354,  338,  300
  54,   74,  112,   14,   13,  353,  391,  293,  292
  55,   77,  116,  160,  136,  356,  395,  439,  415
  56,  128,  131,  102,   99,  407,  410,  381,  378
  57,   37,   71,   60,    9,  316,  350,  339,  288
  58,   87,  126,   63,  113,  366,  405,  342,  392
  59,   35,   69,   61,    7,  314,  348,  340,  286
  60,  244,  127,   96,   94,  523,  406,  375,  373
  61,   34,   68,   62,    6,  313,  347,  341,  285
  62,  239,   84,   67,   65,  518,  363,  346,  344
  63,   47,   81,   64,   28,  326,  360,  343,  307
  64,   88,   85,   82,   50,  367,  364,  361,  329
  65,   16,   32,  107,  106,  295,  311,  386,  385
  66,   61,   69,   96,   99,  340,  348,  375,  378
  67,  238,   94,   62,   68,  517,  373,  341,  347
  68,   71,   37,    8,  117,  350,  316,  287,  396
  69,  153,  140,  104,  156,  432,  419,  383,  435
  70,  163,  121,   89,   93,  442,  400,  368,  372
  71,   73,   39,   10,  114,  352,  318,  289,  393
  72,   53,   59,   90,   91,  332,  338,  369,  370
  73,  159,  108,  112,  137,  438,  387,  391,  416
  74,   75,  111,  135,  158,  354,  390,  414,  437
  75,   52,   77,  136,  103,  331,  356,  415,  382
  76,  191,   91,   90,  123,  470,  370,  369,  402
  77,   79,   45,   25,  118,  358,  324,  304,  397
  78,  226,  182,  230,  220,  505,  461,  509,  499
  79,   81,   47,   27,  115,  360,  326,  306,  394
  80,  180,  260,  168,  242,  459,  539,  447,  521
  81,  113,   67,   84,   87,  392,  346,  363,  366
  82,   50,   64,   92,   88,  329,  343,  371,  367
  83,  236,   58,   89,   86,  515,  337,  368,  365
  84,   69,   62,   94,   96,  348,  341,  373,  375
  85,  175,   92,   64,   81,  454,  371,  343,  360
  86,   98,  139,   73,  114,  377,  418,  352,  393
  87,   91,   95,   76,   53,  370,  374,  355,  332
  88,  101,   97,   80,   51,  380,  376,  359,  330
  89,   97,  138,  115,   80,  376,  417,  394,  359
  90,  114,   72,  100,   98,  393,  351,  379,  377
  91,   70,   61,   99,  102,  349,  340,  378,  381
  92,  117,   70,  102,  105,  396,  349,  381,  384
  93,   78,   52,  103,  104,  357,  331,  382,  383
  94,  151,  138,   97,  152,  430,  417,  376,  431
  95,   72,   60,  179,  100,  351,  339,  458,  379
  96,  129,  155,  139,   98,  408,  434,  418,  377
  97,  178,  101,   51,   79,  457,  380,  330,  358
  98,  155,  163,   93,  139,  434,  442,  372,  418
  99,   60,   71,  141,  179,  339,  350,  420,  458
 100,  130,  178,  140,  153,  409,  457,  419,  432
 101,  169,  182,  226,  177,  448,  461,  505,  456
 102,  104,  140,  118,   78,  383,  419,  397,  357
 103,  251,  144,  132,  131,  530,  423,  411,  410
 104,   66,   83,  125,  110,  345,  362,  404,  389
 105,  106,  107,  110,  240,  385,  386,  389,  519
 106,  112,  108,   15,   14,  391,  387,  294,  293
 107,   65,   49,  124,  239,  344,  328,  403,  518
 108,   68,   63,  126,  238,  347,  342,  405,  517
 109,  175,  122,  248,   92,  454,  401,  527,  371
 110,  126,   87,  147,  253,  405,  366,  426,  532
 111,  148,   85,   88,  120,  427,  364,  367,  399
 112,  241,   86,   89,  121,  520,  365,  368,  400
 113,  181,  159,  137,  171,  460,  438,  416,  450
 114,  122,  175,  138,  151,  401,  454,  417,  430
 115,  120,   88,   92,  248,  399,  367,  371,  527
 116,  246,   95,   91,  191,  525,  374,  370,  470
 117,  133,  103,  136,  146,  412,  382,  415,  425
 118,  240,  134,  109,  106,  519,  413,  388,  385
 119,  142,  240,  110,  125,  421,  519,  389,  404
 120,  128,  127,  252,  143,  407,  406,  531,  422
 121,  131,  132,  105,  102,  410,  411,  384,  381
 122,  157,  154,  179,  141,  436,  433,  458,  420
 123,  243,  129,   98,  100,  522,  408,  377,  379
 124,  255,  198,  185,  164,  534,  477,  464,  443
 125,  152,   97,  101,  247,  431,  376,  380,  526
 126,  270,  199,  202,  204,  549,  478,  481,  483
 127,  132,  157,  141,  105,  411,  436,  420,  384
 128,  166,  153,  156,  265,  445,  432,  435,  544
 129,  136,  160,  184,  146,  415,  439,  463,  425
 130,  156,  104,  103,  133,  435,  383,  382,  412
 131,  119,  239,  124,  168,  398,  518,  403,  447
 132,   55,  174,   57,   56,  334,  453,  336,  335
 133,  111,   57,  174,  135,  390,  336,  453,  414
 134,   95,  160,  116,   76,  374,  439,  395,  355
 135,   86,  241,  149,  237,  365,  520,  428,  516
 136,  174,   55,  108,  159,  453,  334,  387,  438
 137,  225,  220,  230,  277,  504,  499,  509,  556
 138,  180,  242,  142,  215,  459,  521,  421,  494
 139,  143,  251,  131,  128,  422,  530,  410,  407
 140,  144,  169,  157,  132,  423,  448,  436,  411
 141,  217,  167,  254,  196,  496,  446,  533,  475
 142,  145,  253,  161,  244,  424,  532,  440,  523
 143,  253,  145,  238,  126,  532,  424,  517,  405
 144,  195,  162,  133,  146,  474,  441,  412,  425
 145,  187,  209,  184,  246,  466,  488,  463,  525
 146,  200,  147,  245,  119,  479,  426,  524,  398
 147,  215,  142,  125,  148,  494,  421,  404,  427
 148,  167,  217,  171,  149,  446,  496,  450,  428
 149,  135,  193,  150,  158,  414,  472,  429,  437
 150,  187,  123,  150,  172,  466,  402,  429,  451
 151,  151,  152,  263,  165,  430,  431,  542,  444
 152,  189,  170,  248,  122,  468,  449,  527,  401
 153,  130,  264,  176,  247,  409,  543,  455,  526
 154,  155,  129,  250,  164,  434,  408,  529,  443
 155,  169,  177,  154,  157,  448,  456,  433,  436
 156,  193,  212,  207,  208,  472,  491,  486,  487
 157,  253,  147,  200,  161,  532,  426,  479,  440
 158,  173,  177,  226,  262,  452,  456,  505,  541
 159,  121,  163,  185,  186,  400,  442,  464,  465
 160,  164,  185,  163,  155,  443,  464,  442,  434
 161,  232,  182,  169,  144,  511,  461,  448,  423
 162,  176,  263,  152,  247,  455,  542,  431,  526
 163,  162,  183,  166,  265,  441,  462,  445,  544
 164,  194,  176,  264,  166,  473,  455,  543,  445
 165,  241,  249,  167,  149,  520,  528,  446,  428
 166,  217,  212,  181,  171,  496,  491,  460,  450
 167,  120,  248,  170,  190,  399,  527,  449,  469
 168,  199,  270,  190,  170,  478,  549,  469,  449
 169,  135,  174,  159,  181,  414,  453,  438,  460
 170,  212,  193,  135,  181,  491,  472,  414,  460
 171,  209,  195,  146,  184,  488,  474,  425,  463
 172,  177,  173,  243,  154,  456,  452,  522,  433
 173,  186,  185,  198,  254,  465,  464,  477,  533
 174,  247,  101,  178,  130,  526,  380,  457,  409
 175,  154,  243,  100,  179,  433,  522,  379,  458
 176,  262,  188,  250,  173,  541,  467,  529,  452
 177,  263,  176,  194,  269,  542,  455,  473,  548
 178,  204,  215,  148,  270,  483,  494,  427,  549
 179,  279,  274,  233,  278,  558,  553,  512,  557
 180,  266,  230,  182,  232,  545,  509,  461,  511
 181,  246,  191,  123,  187,  525,  470,  402,  466
 182,  241,  121,  186,  249,  520,  400,  465,  528
 183,  261,  172,  208,  197,  540,  451,  487,  476
 184,  214,  221,  197,  235,  493,  500,  476,  514
 185,  196,  254,  198,  214,  475,  533,  477,  493
 186,  192,  255,  188,  262,  471,  534,  467,  541
 187,  208,  172,  150,  193,  487,  451,  429,  472
 188,  206,  194,  166,  183,  485,  473,  445,  462
 189,  206,  211,  269,  194,  485,  490,  548,  473
 190,  209,  218,  210,  195,  488,  497,  489,  474
 191,  198,  255,  192,  205,  477,  534,  471,  484
 192,  235,  207,  196,  214,  514,  486,  475,  493
 193,  197,  218,  209,  261,  476,  497,  488,  540
 194,  210,  216,  206,  183,  489,  495,  485,  462
 195,  258,  268,  227,  203,  537,  547,  506,  482
 196,  219,  199,  170,  189,  498,  478,  449,  468
 197,  180,  259,  200,  260,  459,  538,  479,  539
 198,  258,  203,  252,  161,  537,  482,  531,  440
 199,  215,  204,  224,  201,  494,  483,  503,  480
 200,  215,  201,  259,  180,  494,  480,  538,  459
 201,  225,  275,  216,  213,  504,  554,  495,  492
 202,  233,  202,  199,  219,  512,  481,  478,  498
 203,  201,  268,  258,  259,  480,  547,  537,  538
 204,  270,  148,  120,  190,  549,  427,  399,  469
 205,  205,  223,  271,  221,  484,  502,  550,  500
 206,  192,  213,  223,  205,  471,  492,  502,  484
 207,  162,  195,  210,  183,  441,  474,  489,  462
 208,  272,  227,  224,  228,  551,  506,  503,  507
 209,  165,  211,  219,  189,  444,  490,  498,  468
 210,  196,  207,  212,  217,  475,  486,  491,  496
 211,  198,  205,  221,  214,  477,  484,  500,  493
 212,  216,  222,  211,  206,  495,  501,  490,  485
 213,  274,  228,  202,  233,  553,  507,  481,  512
 214,  197,  208,  207,  235,  476,  487,  486,  514
 215,  210,  223,  213,  216,  489,  502,  492,  495
 216,  204,  202,  228,  224,  483,  481,  507,  503
 217,  229,  277,  230,  266,  508,  556,  509,  545
 218,  225,  213,  192,  220,  504,  492,  471,  499
 219,  211,  222,  233,  219,  490,  501,  512,  498
 220,  218,  271,  223,  210,  497,  550,  502,  489
 221,  262,  226,  220,  192,  541,  505,  499,  471
 222,  201,  224,  227,  268,  480,  503,  506,  547
 223,  257,  267,  231,  256,  536,  546,  510,  535
 224,  278,  229,  273,  279,  557,  508,  552,  558
 225,  234,  272,  228,  274,  513,  551,  507,  553
 226,  229,  278,  276,  277,  508,  557,  555,  556
 227,  227,  272,  234,  267,  506,  551,  513,  546
 228,  234,  273,  231,  267,  513,  552,  510,  546
 229,  251,  143,  257,  256,  530,  422,  536,  535
 230,  144,  251,  256,  232,  423,  530,  535,  511
 231,  271,  218,  197,  221,  550,  497,  476,  500
 232,  145,  244,   94,  238,  424,  523,  373,  517
 233,  254,  167,  249,  186,  533,  446,  528,  465
 234,  168,  124,  134,  242,  447,  403,  413,  521
 235,  173,  250,  129,  243,  452,  529,  408,  522
 236,  161,  252,  127,  244,  440,  531,  406,  523
 237,  147,   87,   84,  245,  426,  366,  363,  524
 238,  184,  160,   95,  246,  463,  439,  374,  525
 239,  188,  255,  164,  250,  467,  534,  443,  529
 240,  203,  257,  143,  252,  482,  536,  422,  531
 241,  231,  266,  232,  256,  510,  545,  511,  535
 242,  259,  258,  161,  200,  538,  537,  440,  479
 243,  200,  119,  168,  260,  479,  398,  447,  539
 244,  261,  209,  187,  172,  540,  488,  466,  451
 245,  122,  151,  165,  189,  401,  430,  444,  468
 246,  263,  269,  211,  165,  542,  548,  490,  444
 247,  130,  153,  166,  264,  409,  432,  445,  543
 248,  156,  133,  162,  265,  435,  412,  441,  544
 249,  231,  273,  229,  266,  510,  552,  508,  545
 250,  257,  203,  227,  267,  536,  482,  506,  546
 251,  276,  222,  216,  275,  555,  501,  495,  554
 252,  233,  222,  276,  278,  512,  501,  555,  557
 253,  277,  276,  275,  225,  556,  555,  554,  504
 254,  273,  234,  274,  279,  552,  513,  553,  558
 255,  295,  385,  388,  280,  574,  664,  667,  559
 256,  413,  403,  328,  388,  692,  682,  607,  667
 257,  280,  388,  328,  281,  559,  667,  607,  560
 258,  344,  282,  281,  328,  623,  561,  560,  607
 259,  327,  361,  345,  309,  606,  640,  624,  588
 260,  284,  342,  347,  313,  563,  621,  626,  592
 261,  362,  364,  427,  404,  641,  643,  706,  683
 262,  394,  306,  325,  359,  673,  585,  604,  638
 263,  358,  397,  419,  457,  637,  676,  698,  736
 264,  397,  304,  323,  357,  676,  583,  602,  636
 265,  301,  332,  355,  321,  580,  611,  634,  600
 266,  395,  302,  321,  355,  674,  581,  600,  634
 267,  337,  333,  372,  368,  616,  612,  651,  647
 268,  297,  335,  336,  298,  576,  614,  615,  577
 269,  294,  387,  334,  296,  573,  666,  613,  575
 270,  335,  297,  296,  334,  614,  576,  575,  613
 271,  402,  369,  437,  429,  681,  648,  716,  708
 272,  390,  299,  298,  336,  669,  578,  577,  615
 273,  516,  353,  515,  365,  795,  632,  794,  644
 274,  428,  450,  416,  516,  707,  729,  695,  795
 275,  378,  375,  406,  407,  657,  654,  685,  686
 276,  351,  317,  288,  339,  630,  596,  567,  618
 277,  364,  362,  345,  361,  643,  641,  624,  640
 278,  349,  315,  286,  340,  628,  594,  565,  619
 279,  348,  314,  285,  341,  627,  593,  564,  620
 280,  363,  518,  398,  524,  642,  797,  677,  803
 281,  392,  283,  312,  346,  671,  562,  591,  625
 282,  413,  519,  421,  521,  692,  798,  700,  800
 283,  283,  392,  342,  284,  562,  671,  621,  563
 284,  396,  287,  315,  349,  675,  566,  594,  628
 285,  384,  420,  350,  396,  663,  699,  629,  675
 286,  393,  289,  317,  351,  672,  568,  596,  630
 287,  333,  352,  418,  372,  612,  631,  697,  651
 288,  337,  515,  319,  291,  616,  794,  598,  570
 289,  437,  369,  338,  354,  716,  648,  617,  633
 290,  356,  322,  302,  395,  635,  601,  581,  674
 291,  357,  323,  303,  331,  636,  602,  582,  610
 292,  359,  325,  305,  330,  638,  604,  584,  609
 293,  360,  394,  417,  454,  639,  673,  696,  733
 294,  329,  308,  307,  343,  608,  587,  586,  622
 295,  386,  311,  310,  389,  665,  590,  589,  668
 296,  389,  310,  309,  345,  668,  589,  588,  624
 297,  346,  312,  282,  344,  625,  591,  561,  623
 298,  361,  327,  308,  329,  640,  606,  587,  608
 299,  324,  358,  330,  305,  603,  637,  609,  584
 300,  322,  356,  331,  303,  601,  635,  610,  582
 301,  515,  353,  292,  319,  794,  632,  571,  598
 302,  300,  338,  332,  301,  579,  617,  611,  580
 303,  318,  352,  333,  290,  597,  631,  612,  569
 304,  337,  291,  290,  333,  616,  570,  569,  612
 305,  353,  516,  416,  391,  632,  795,  695,  670
 306,  354,  320,  299,  390,  633,  599,  578,  669
 307,  320,  354,  338,  300,  599,  633,  617,  579
 308,  353,  391,  293,  292,  632,  670,  572,  571
 309,  356,  395,  439,  415,  635,  674,  718,  694
 310,  407,  410,  381,  378,  686,  689,  660,  657
 311,  316,  350,  339,  288,  595,  629,  618,  567
 312,  366,  405,  342,  392,  645,  684,  621,  671
 313,  314,  348,  340,  286,  593,  627,  619,  565
 314,  523,  406,  375,  373,  802,  685,  654,  652
 315,  313,  347,  341,  285,  592,  626,  620,  564
 316,  518,  363,  346,  344,  797,  642,  625,  623
 317,  326,  360,  343,  307,  605,  639,  622,  586
 318,  367,  364,  361,  329,  646,  643,  640,  608
 319,  295,  311,  386,  385,  574,  590,  665,  664
 320,  340,  348,  375,  378,  619,  627,  654,  657
 321,  517,  373,  341,  347,  796,  652,  620,  626
 322,  350,  316,  287,  396,  629,  595,  566,  675
 323,  432,  419,  383,  435,  711,  698,  662,  714
 324,  442,  400,  368,  372,  721,  679,  647,  651
 325,  352,  318,  289,  393,  631,  597,  568,  672
 326,  332,  338,  369,  370,  611,  617,  648,  649
 327,  438,  387,  391,  416,  717,  666,  670,  695
 328,  354,  390,  414,  437,  633,  669,  693,  716
 329,  331,  356,  415,  382,  610,  635,  694,  661
 330,  470,  370,  369,  402,  749,  649,  648,  681
 331,  358,  324,  304,  397,  637,  603,  583,  676
 332,  505,  461,  509,  499,  784,  740,  788,  778
 333,  360,  326,  306,  394,  639,  605,  585,  673
 334,  459,  539,  447,  521,  738,  818,  726,  800
 335,  392,  346,  363,  366,  671,  625,  642,  645
 336,  329,  343,  371,  367,  608,  622,  650,  646
 337,  515,  337,  368,  365,  794,  616,  647,  644
 338,  348,  341,  373,  375,  627,  620,  652,  654
 339,  454,  371,  343,  360,  733,  650,  622,  639
 340,  377,  418,  352,  393,  656,  697,  631,  672
 341,  370,  374,  355,  332,  649,  653,  634,  611
 342,  380,  376,  359,  330,  659,  655,  638,  609
 343,  376,  417,  394,  359,  655,  696,  673,  638
 344,  393,  351,  379,  377,  672,  630,  658,  656
 345,  349,  340,  378,  381,  628,  619,  657,  660
 346,  396,  349,  381,  384,  675,  628,  660,  663
 347,  357,  331,  382,  383,  636,  610,  661,  662
 348,  430,  417,  376,  431,  709,  696,  655,  710
 349,  351,  339,  458,  379,  630,  618,  737,  658
 350,  408,  434,  418,  377,  687,  713,  697,  656
 351,  457,  380,  330,  358,  736,  659,  609,  637
 352,  434,  442,  372,  418,  713,  721,  651,  697
 353,  339,  350,  420,  458,  618,  629,  699,  737
 354,  409,  457,  419,  432,  688,  736,  698,  711
 355,  448,  461,  505,  456,  727,  740,  784,  735
 356,  383,  419,  397,  357,  662,  698,  676,  636
 357,  530,  423,  411,  410,  809,  702,  690,  689
 358,  345,  362,  404,  389,  624,  641,  683,  668
 359,  385,  386,  389,  519,  664,  665,  668,  798
 360,  391,  387,  294,  293,  670,  666,  573,  572
 361,  344,  328,  403,  518,  623,  607,  682,  797
 362,  347,  342,  405,  517,  626,  621,  684,  796
 363,  454,  401,  527,  371,  733,  680,  806,  650
 364,  405,  366,  426,  532,  684,  645,  705,  811
 365,  427,  364,  367,  399,  706,  643,  646,  678
 366,  520,  365,  368,  400,  799,  644,  647,  679
 367,  460,  438,  416,  450,  739,  717,  695,  729
 368,  401,  454,  417,  430,  680,  733,  696,  709
 369,  399,  367,  371,  527,  678,  646,  650,  806
 370,  525,  374,  370,  470,  804,  653,  649,  749
 371,  412,  382,  415,  425,  691,  661,  694,  704
 372,  519,  413,  388,  385,  798,  692,  667,  664
 373,  421,  519,  389,  404,  700,  798,  668,  683
 374,  407,  406,  531,  422,  686,  685,  810,  701
 375,  410,  411,  384,  381,  689,  690,  663,  660
 376,  436,  433,  458,  420,  715,  712,  737,  699
 377,  522,  408,  377,  379,  801,  687,  656,  658
 378,  534,  477,  464,  443,  813,  756,  743,  722
 379,  431,  376,  380,  526,  710,  655,  659,  805
 380,  549,  478,  481,  483,  828,  757,  760,  762
 381,  411,  436,  420,  384,  690,  715,  699,  663
 382,  445,  432,  435,  544,  724,  711,  714,  823
 383,  415,  439,  463,  425,  694,  718,  742,  704
 384,  435,  383,  382,  412,  714,  662,  661,  691
 385,  398,  518,  403,  447,  677,  797,  682,  726
 386,  334,  453,  336,  335,  613,  732,  615,  614
 387,  390,  336,  453,  414,  669,  615,  732,  693
 388,  374,  439,  395,  355,  653,  718,  674,  634
 389,  365,  520,  428,  516,  644,  799,  707,  795
 390,  453,  334,  387,  438,  732,  613,  666,  717
 391,  504,  499,  509,  556,  783,  778,  788,  835
 392,  459,  521,  421,  494,  738,  800,  700,  773
 393,  422,  530,  410,  407,  701,  809,  689,  686
 394,  423,  448,  436,  411,  702,  727,  715,  690
 395,  496,  446,  533,  475,  775,  725,  812,  754
 396,  424,  532,  440,  523,  703,  811,  719,  802
 397,  532,  424,  517,  405,  811,  703,  796,  684
 398,  474,  441,  412,  425,  753,  720,  691,  704
 399,  466,  488,  463,  525,  745,  767,  742,  804
 400,  479,  426,  524,  398,  758,  705,  803,  677
 401,  494,  421,  404,  427,  773,  700,  683,  706
 402,  446,  496,  450,  428,  725,  775,  729,  707
 403,  414,  472,  429,  437,  693,  751,  708,  716
 404,  466,  402,  429,  451,  745,  681,  708,  730
 405,  430,  431,  542,  444,  709,  710,  821,  723
 406,  468,  449,  527,  401,  747,  728,  806,  680
 407,  409,  543,  455,  526,  688,  822,  734,  805
 408,  434,  408,  529,  443,  713,  687,  808,  722
 409,  448,  456,  433,  436,  727,  735,  712,  715
 410,  472,  491,  486,  487,  751,  770,  765,  766
 411,  532,  426,  479,  440,  811,  705,  758,  719
 412,  452,  456,  505,  541,  731,  735,  784,  820
 413,  400,  442,  464,  465,  679,  721,  743,  744
 414,  443,  464,  442,  434,  722,  743,  721,  713
 415,  511,  461,  448,  423,  790,  740,  727,  702
 416,  455,  542,  431,  526,  734,  821,  710,  805
 417,  441,  462,  445,  544,  720,  741,  724,  823
 418,  473,  455,  543,  445,  752,  734,  822,  724
 419,  520,  528,  446,  428,  799,  807,  725,  707
 420,  496,  491,  460,  450,  775,  770,  739,  729
 421,  399,  527,  449,  469,  678,  806,  728,  748
 422,  478,  549,  469,  449,  757,  828,  748,  728
 423,  414,  453,  438,  460,  693,  732,  717,  739
 424,  491,  472,  414,  460,  770,  751,  693,  739
 425,  488,  474,  425,  463,  767,  753,  704,  742
 426,  456,  452,  522,  433,  735,  731,  801,  712
 427,  465,  464,  477,  533,  744,  743,  756,  812
 428,  526,  380,  457,  409,  805,  659,  736,  688
 429,  433,  522,  379,  458,  712,  801,  658,  737
 430,  541,  467,  529,  452,  820,  746,  808,  731
 431,  542,  455,  473,  548,  821,  734,  752,  827
 432,  483,  494,  427,  549,  762,  773,  706,  828
 433,  558,  553,  512,  557,  837,  832,  791,  836
 434,  545,  509,  461,  511,  824,  788,  740,  790
 435,  525,  470,  402,  466,  804,  749,  681,  745
 436,  520,  400,  465,  528,  799,  679,  744,  807
 437,  540,  451,  487,  476,  819,  730,  766,  755
 438,  493,  500,  476,  514,  772,  779,  755,  793
 439,  475,  533,  477,  493,  754,  812,  756,  772
 440,  471,  534,  467,  541,  750,  813,  746,  820
 441,  487,  451,  429,  472,  766,  730,  708,  751
 442,  485,  473,  445,  462,  764,  752,  724,  741
 443,  485,  490,  548,  473,  764,  769,  827,  752
 444,  488,  497,  489,  474,  767,  776,  768,  753
 445,  477,  534,  471,  484,  756,  813,  750,  763
 446,  514,  486,  475,  493,  793,  765,  754,  772
 447,  476,  497,  488,  540,  755,  776,  767,  819
 448,  489,  495,  485,  462,  768,  774,  764,  741
 449,  537,  547,  506,  482,  816,  826,  785,  761
 450,  498,  478,  449,  468,  777,  757,  728,  747
 451,  459,  538,  479,  539,  738,  817,  758,  818
 452,  537,  482,  531,  440,  816,  761,  810,  719
 453,  494,  483,  503,  480,  773,  762,  782,  759
 454,  494,  480,  538,  459,  773,  759,  817,  738
 455,  504,  554,  495,  492,  783,  833,  774,  771
 456,  512,  481,  478,  498,  791,  760,  757,  777
 457,  480,  547,  537,  538,  759,  826,  816,  817
 458,  549,  427,  399,  469,  828,  706,  678,  748
 459,  484,  502,  550,  500,  763,  781,  829,  779
 460,  471,  492,  502,  484,  750,  771,  781,  763
 461,  441,  474,  489,  462,  720,  753,  768,  741
 462,  551,  506,  503,  507,  830,  785,  782,  786
 463,  444,  490,  498,  468,  723,  769,  777,  747
 464,  475,  486,  491,  496,  754,  765,  770,  775
 465,  477,  484,  500,  493,  756,  763,  779,  772
 466,  495,  501,  490,  485,  774,  780,  769,  764
 467,  553,  507,  481,  512,  832,  786,  760,  791
 468,  476,  487,  486,  514,  755,  766,  765,  793
 469,  489,  502,  492,  495,  768,  781,  771,  774
 470,  483,  481,  507,  503,  762,  760,  786,  782
 471,  508,  556,  509,  545,  787,  835,  788,  824
 472,  504,  492,  471,  499,  783,  771,  750,  778
 473,  490,  501,  512,  498,  769,  780,  791,  777
 474,  497,  550,  502,  489,  776,  829,  781,  768
 475,  541,  505,  499,  471,  820,  784,  778,  750
 476,  480,  503,  506,  547,  759,  782,  785,  826
 477,  536,  546,  510,  535,  815,  825,  789,  814
 478,  557,  508,  552,  558,  836,  787,  831,  837
 479,  513,  551,  507,  553,  792,  830,  786,  832
 480,  508,  557,  555,  556,  787,  836,  834,  835
 481,  506,  551,  513,  546,  785,  830,  792,  825
 482,  513,  552,  510,  546,  792,  831,  789,  825
 483,  530,  422,  536,  535,  809,  701,  815,  814
 484,  423,  530,  535,  511,  702,  809,  814,  790
 485,  550,  497,  476,  500,  829,  776,  755,  779
 486,  424,  523,  373,  517,  703,  802,  652,  796
 487,  533,  446,  528,  465,  812,  725,  807,  744
 488,  447,  403,  413,  521,  726,  682,  692,  800
 489,  452,  529,  408,  522,  731,  808,  687,  801
 490,  440,  531,  406,  523,  719,  810,  685,  802
 491,  426,  366,  363,  524,  705,  645,  642,  803
 492,  463,  439,  374,  525,  742,  718,  653,  804
 493,  467,  534,  443,  529,  746,  813,  722,  808
 494,  482,  536,  422,  531,  761,  815,  701,  810
 495,  510,  545,  511,  535,  789,  824,  790,  814
 496,  538,  537,  440,  479,  817,  816,  719,  758
 497,  479,  398,  447,  539,  758,  677,  726,  818
 498,  540,  488,  466,  451,  819,  767,  745,  730
 499,  401,  430,  444,  468,  680,  709,  723,  747
 500,  542,  548,  490,  444,  821,  827,  769,  723
 501,  409,  432,  445,  543,  688,  711,  724,  822
 502,  435,  412,  441,  544,  714,  691,  720,  823
 503,  510,  552,  508,  545,  789,  831,  787,  824
 504,  536,  482,  506,  546,  815,  761,  785,  825
 505,  555,  501,  495,  554,  834,  780,  774,  833
 506,  512,  501,  555,  557,  791,  780,  834,  836
 507,  556,  555,  554,  504,  835,  834,  833,  783
 508,  552,  513,  553,  558,  831,  792,  832,  837
 509,  574,  664,  667,  559,  853,  943,  946,  838
 510,  692,  682,  607,  667,  971,  961,  886,  946
 511,  559,  667,  607,  560,  838,  946,  886,  839
 512,  623,  561,  560,  607,  902,  840,  839,  886
 513,  606,  640,  624,  588,  885,  919,  903,  867
 514,  563,  621,  626,  592,  842,  900,  905,  871
 515,  641,  643,  706,  683,  920,  922,  985,  962
 516,  673,  585,  604,  638,  952,  864,  883,  917
 517,  637,  676,  698,  736,  916,  955,  977, 1015
 518,  676,  583,  602,  636,  955,  862,  881,  915
 519,  580,  611,  634,  600,  859,  890,  913,  879
 520,  674,  581,  600,  634,  953,  860,  879,  913
 521,  616,  612,  651,  647,  895,  891,  930,  926
 522,  576,  614,  615,  577,  855,  893,  894,  856
 523,  573,  666,  613,  575,  852,  945,  892,  854
 524,  614,  576,  575,  613,  893,  855,  854,  892
 525,  681,  648,  716,  708,  960,  927,  995,  987
 526,  669,  578,  577,  615,  948,  857,  856,  894
 527,  795,  632,  794,  644, 1074,  911, 1073,  923
 528,  707,  729,  695,  795,  986, 1008,  974, 1074
 529,  657,  654,  685,  686,  936,  933,  964,  965
 530,  630,  596,  567,  618,  909,  875,  846,  897
 531,  643,  641,  624,  640,  922,  920,  903,  919
 532,  628,  594,  565,  619,  907,  873,  844,  898
 533,  627,  593,  564,  620,  906,  872,  843,  899
 534,  642,  797,  677,  803,  921, 1076,  956, 1082
 535,  671,  562,  591,  625,  950,  841,  870,  904
 536,  692,  798,  700,  800,  971, 1077,  979, 1079
 537,  562,  671,  621,  563,  841,  950,  900,  842
 538,  675,  566,  594,  628,  954,  845,  873,  907
 539,  663,  699,  629,  675,  942,  978,  908,  954
 540,  672,  568,  596,  630,  951,  847,  875,  909
 541,  612,  631,  697,  651,  891,  910,  976,  930
 542,  616,  794,  598,  570,  895, 1073,  877,  849
 543,  716,  648,  617,  633,  995,  927,  896,  912
 544,  635,  601,  581,  674,  914,  880,  860,  953
 545,  636,  602,  582,  610,  915,  881,  861,  889
 546,  638,  604,  584,  609,  917,  883,  863,  888
 547,  639,  673,  696,  733,  918,  952,  975, 1012
 548,  608,  587,  586,  622,  887,  866,  865,  901
 549,  665,  590,  589,  668,  944,  869,  868,  947
 550,  668,  589,  588,  624,  947,  868,  867,  903
 551,  625,  591,  561,  623,  904,  870,  840,  902
 552,  640,  606,  587,  608,  919,  885,  866,  887
 553,  603,  637,  609,  584,  882,  916,  888,  863
 554,  601,  635,  610,  582,  880,  914,  889,  861
 555,  794,  632,  571,  598, 1073,  911,  850,  877
 556,  579,  617,  611,  580,  858,  896,  890,  859
 557,  597,  631,  612,  569,  876,  910,  891,  848
 558,  616,  570,  569,  612,  895,  849,  848,  891
 559,  632,  795,  695,  670,  911, 1074,  974,  949
 560,  633,  599,  578,  669,  912,  878,  857,  948
 561,  599,  633,  617,  579,  878,  912,  896,  858
 562,  632,  670,  572,  571,  911,  949,  851,  850
 563,  635,  674,  718,  694,  914,  953,  997,  973
 564,  686,  689,  660,  657,  965,  968,  939,  936
 565,  595,  629,  618,  567,  874,  908,  897,  846
 566,  645,  684,  621,  671,  924,  963,  900,  950
 567,  593,  627,  619,  565,  872,  906,  898,  844
 568,  802,  685,  654,  652, 1081,  964,  933,  931
 569,  592,  626,  620,  564,  871,  905,  899,  843
 570,  797,  642,  625,  623, 1076,  921,  904,  902
 571,  605,  639,  622,  586,  884,  918,  901,  865
 572,  646,  643,  640,  608,  925,  922,  919,  887
 573,  574,  590,  665,  664,  853,  869,  944,  943
 574,  619,  627,  654,  657,  898,  906,  933,  936
 575,  796,  652,  620,  626, 1075,  931,  899,  905
 576,  629,  595,  566,  675,  908,  874,  845,  954
 577,  711,  698,  662,  714,  990,  977,  941,  993
 578,  721,  679,  647,  651, 1000,  958,  926,  930
 579,  631,  597,  568,  672,  910,  876,  847,  951
 580,  611,  617,  648,  649,  890,  896,  927,  928
 581,  717,  666,  670,  695,  996,  945,  949,  974
 582,  633,  669,  693,  716,  912,  948,  972,  995
 583,  610,  635,  694,  661,  889,  914,  973,  940
 584,  749,  649,  648,  681, 1028,  928,  927,  960
 585,  637,  603,  583,  676,  916,  882,  862,  955
 586,  784,  740,  788,  778, 1063, 1019, 1067, 1057
 587,  639,  605,  585,  673,  918,  884,  864,  952
 588,  738,  818,  726,  800, 1017, 1097, 1005, 1079
 589,  671,  625,  642,  645,  950,  904,  921,  924
 590,  608,  622,  650,  646,  887,  901,  929,  925
 591,  794,  616,  647,  644, 1073,  895,  926,  923
 592,  627,  620,  652,  654,  906,  899,  931,  933
 593,  733,  650,  622,  639, 1012,  929,  901,  918
 594,  656,  697,  631,  672,  935,  976,  910,  951
 595,  649,  653,  634,  611,  928,  932,  913,  890
 596,  659,  655,  638,  609,  938,  934,  917,  888
 597,  655,  696,  673,  638,  934,  975,  952,  917
 598,  672,  630,  658,  656,  951,  909,  937,  935
 599,  628,  619,  657,  660,  907,  898,  936,  939
 600,  675,  628,  660,  663,  954,  907,  939,  942
 601,  636,  610,  661,  662,  915,  889,  940,  941
 602,  709,  696,  655,  710,  988,  975,  934,  989
 603,  630,  618,  737,  658,  909,  897, 1016,  937
 604,  687,  713,  697,  656,  966,  992,  976,  935
 605,  736,  659,  609,  637, 1015,  938,  888,  916
 606,  713,  721,  651,  697,  992, 1000,  930,  976
 607,  618,  629,  699,  737,  897,  908,  978, 1016
 608,  688,  736,  698,  711,  967, 1015,  977,  990
 609,  727,  740,  784,  735, 1006, 1019, 1063, 1014
 610,  662,  698,  676,  636,  941,  977,  955,  915
 611,  809,  702,  690,  689, 1088,  981,  969,  968
 612,  624,  641,  683,  668,  903,  920,  962,  947
 613,  664,  665,  668,  798,  943,  944,  947, 1077
 614,  670,  666,  573,  572,  949,  945,  852,  851
 615,  623,  607,  682,  797,  902,  886,  961, 1076
 616,  626,  621,  684,  796,  905,  900,  963, 1075
 617,  733,  680,  806,  650, 1012,  959, 1085,  929
 618,  684,  645,  705,  811,  963,  924,  984, 1090
 619,  706,  643,  646,  678,  985,  922,  925,  957
 620,  799,  644,  647,  679, 1078,  923,  926,  958
 621,  739,  717,  695,  729, 1018,  996,  974, 1008
 622,  680,  733,  696,  709,  959, 1012,  975,  988
 623,  678,  646,  650,  806,  957,  925,  929, 1085
 624,  804,  653,  649,  749, 1083,  932,  928, 1028
 625,  691,  661,  694,  704,  970,  940,  973,  983
 626,  798,  692,  667,  664, 1077,  971,  946,  943
 627,  700,  798,  668,  683,  979, 1077,  947,  962
 628,  686,  685,  810,  701,  965,  964, 1089,  980
 629,  689,  690,  663,  660,  968,  969,  942,  939
 630,  715,  712,  737,  699,  994,  991, 1016,  978
 631,  801,  687,  656,  658, 1080,  966,  935,  937
 632,  813,  756,  743,  722, 1092, 1035, 1022, 1001
 633,  710,  655,  659,  805,  989,  934,  938, 1084
 634,  828,  757,  760,  762, 1107, 1036, 1039, 1041
 635,  690,  715,  699,  663,  969,  994,  978,  942
 636,  724,  711,  714,  823, 1003,  990,  993, 1102
 637,  694,  718,  742,  704,  973,  997, 1021,  983
 638,  714,  662,  661,  691,  993,  941,  940,  970
 639,  677,  797,  682,  726,  956, 1076,  961, 1005
 640,  613,  732,  615,  614,  892, 1011,  894,  893
 641,  669,  615,  732,  693,  948,  894, 1011,  972
 642,  653,  718,  674,  634,  932,  997,  953,  913
 643,  644,  799,  707,  795,  923, 1078,  986, 1074
 644,  732,  613,  666,  717, 1011,  892,  945,  996
 645,  783,  778,  788,  835, 1062, 1057, 1067, 1114
 646,  738,  800,  700,  773, 1017, 1079,  979, 1052
 647,  701,  809,  689,  686,  980, 1088,  968,  965
 648,  702,  727,  715,  690,  981, 1006,  994,  969
 649,  775,  725,  812,  754, 1054, 1004, 1091, 1033
 650,  703,  811,  719,  802,  982, 1090,  998, 1081
 651,  811,  703,  796,  684, 1090,  982, 1075,  963
 652,  753,  720,  691,  704, 1032,  999,  970,  983
 653,  745,  767,  742,  804, 1024, 1046, 1021, 1083
 654,  758,  705,  803,  677, 1037,  984, 1082,  956
 655,  773,  700,  683,  706, 1052,  979,  962,  985
 656,  725,  775,  729,  707, 1004, 1054, 1008,  986
 657,  693,  751,  708,  716,  972, 1030,  987,  995
 658,  745,  681,  708,  730, 1024,  960,  987, 1009
 659,  709,  710,  821,  723,  988,  989, 1100, 1002
 660,  747,  728,  806,  680, 1026, 1007, 1085,  959
 661,  688,  822,  734,  805,  967, 1101, 1013, 1084
 662,  713,  687,  808,  722,  992,  966, 1087, 1001
 663,  727,  735,  712,  715, 1006, 1014,  991,  994
 664,  751,  770,  765,  766, 1030, 1049, 1044, 1045
 665,  811,  705,  758,  719, 1090,  984, 1037,  998
 666,  731,  735,  784,  820, 1010, 1014, 1063, 1099
 667,  679,  721,  743,  744,  958, 1000, 1022, 1023
 668,  722,  743,  721,  713, 1001, 1022, 1000,  992
 669,  790,  740,  727,  702, 1069, 1019, 1006,  981
 670,  734,  821,  710,  805, 1013, 1100,  989, 1084
 671,  720,  741,  724,  823,  999, 1020, 1003, 1102
 672,  752,  734,  822,  724, 1031, 1013, 1101, 1003
 673,  799,  807,  725,  707, 1078, 1086, 1004,  986
 674,  775,  770,  739,  729, 1054, 1049, 1018, 1008
 675,  678,  806,  728,  748,  957, 1085, 1007, 1027
 676,  757,  828,  748,  728, 1036, 1107, 1027, 1007
 677,  693,  732,  717,  739,  972, 1011,  996, 1018
 678,  770,  751,  693,  739, 1049, 1030,  972, 1018
 679,  767,  753,  704,  742, 1046, 1032,  983, 1021
 680,  735,  731,  801,  712, 1014, 1010, 1080,  991
 681,  744,  743,  756,  812, 1023, 1022, 1035, 1091
 682,  805,  659,  736,  688, 1084,  938, 1015,  967
 683,  712,  801,  658,  737,  991, 1080,  937, 1016
 684,  820,  746,  808,  731, 1099, 1025, 1087, 1010
 685,  821,  734,  752,  827, 1100, 1013, 1031, 1106
 686,  762,  773,  706,  828, 1041, 1052,  985, 1107
 687,  837,  832,  791,  836, 1116, 1111, 1070, 1115
 688,  824,  788,  740,  790, 1103, 1067, 1019, 1069
 689,  804,  749,  681,  745, 1083, 1028,  960, 1024
 690,  799,  679,  744,  807, 1078,  958, 1023, 1086
 691,  819,  730,  766,  755, 1098, 1009, 1045, 1034
 692,  772,  779,  755,  793, 1051, 1058, 1034, 1072
 693,  754,  812,  756,  772, 1033, 1091, 1035, 1051
 694,  750,  813,  746,  820, 1029, 1092, 1025, 1099
 695,  766,  730,  708,  751, 1045, 1009,  987, 1030
 696,  764,  752,  724,  741, 1043, 1031, 1003, 1020
 697,  764,  769,  827,  752, 1043, 1048, 1106, 1031
 698,  767,  776,  768,  753, 1046, 1055, 1047, 1032
 699,  756,  813,  750,  763, 1035, 1092, 1029, 1042
 700,  793,  765,  754,  772, 1072, 1044, 1033, 1051
 701,  755,  776,  767,  819, 1034, 1055, 1046, 1098
 702,  768,  774,  764,  741, 1047, 1053, 1043, 1020
 703,  816,  826,  785,  761, 1095, 1105, 1064, 1040
 704,  777,  757,  728,  747, 1056, 1036, 1007, 1026
 705,  738,  817,  758,  818, 1017, 1096, 1037, 1097
 706,  816,  761,  810,  719, 1095, 1040, 1089,  998
 707,  773,  762,  782,  759, 1052, 1041, 1061, 1038
 708,  773,  759,  817,  738, 1052, 1038, 1096, 1017
 709,  783,  833,  774,  771, 1062, 1112, 1053, 1050
 710,  791,  760,  757,  777, 1070, 1039, 1036, 1056
 711,  759,  826,  816,  817, 1038, 1105, 1095, 1096
 712,  828,  706,  678,  748, 1107,  985,  957, 1027
 713,  763,  781,  829,  779, 1042, 1060, 1108, 1058
 714,  750,  771,  781,  763, 1029, 1050, 1060, 1042
 715,  720,  753,  768,  741,  999, 1032, 1047, 1020
 716,  830,  785,  782,  786, 1109, 1064, 1061, 1065
 717,  723,  769,  777,  747, 1002, 1048, 1056, 1026
 718,  754,  765,  770,  775, 1033, 1044, 1049, 1054
 719,  756,  763,  779,  772, 1035, 1042, 1058, 1051
 720,  774,  780,  769,  764, 1053, 1059, 1048, 1043
 721,  832,  786,  760,  791, 1111, 1065, 1039, 1070
 722,  755,  766,  765,  793, 1034, 1045, 1044, 1072
 723,  768,  781,  771,  774, 1047, 1060, 1050, 1053
 724,  762,  760,  786,  782, 1041, 1039, 1065, 1061
 725,  787,  835,  788,  824, 1066, 1114, 1067, 1103
 726,  783,  771,  750,  778, 1062, 1050, 1029, 1057
 727,  769,  780,  791,  777, 1048, 1059, 1070, 1056
 728,  776,  829,  781,  768, 1055, 1108, 1060, 1047
 729,  820,  784,  778,  750, 1099, 1063, 1057, 1029
 730,  759,  782,  785,  826, 1038, 1061, 1064, 1105
 731,  815,  825,  789,  814, 1094, 1104, 1068, 1093
 732,  836,  787,  831,  837, 1115, 1066, 1110, 1116
 733,  792,  830,  786,  832, 1071, 1109, 1065, 1111
 734,  787,  836,  834,  835, 1066, 1115, 1113, 1114
 735,  785,  830,  792,  825, 1064, 1109, 1071, 1104
 736,  792,  831,  789,  825, 1071, 1110, 1068, 1104
 737,  809,  701,  815,  814, 1088,  980, 1094, 1093
 738,  702,  809,  814,  790,  981, 1088, 1093, 1069
 739,  829,  776,  755,  779, 1108, 1055, 1034, 1058
 740,  703,  802,  652,  796,  982, 1081,  931, 1075
 741,  812,  725,  807,  744, 1091, 1004, 1086, 1023
 742,  726,  682,  692,  800, 1005,  961,  971, 1079
 743,  731,  808,  687,  801, 1010, 1087,  966, 1080
 744,  719,  810,  685,  802,  998, 1089,  964, 1081
 745,  705,  645,  642,  803,  984,  924,  921, 1082
 746,  742,  718,  653,  804, 1021,  997,  932, 1083
 747,  746,  813,  722,  808, 1025, 1092, 1001, 1087
 748,  761,  815,  701,  810, 1040, 1094,  980, 1089
 749,  789,  824,  790,  814, 1068, 1103, 1069, 1093
 750,  817,  816,  719,  758, 1096, 1095,  998, 1037
 751,  758,  677,  726,  818, 1037,  956, 1005, 1097
 752,  819,  767,  745,  730, 1098, 1046, 1024, 1009
 753,  680,  709,  723,  747,  959,  988, 1002, 1026
 754,  821,  827,  769,  723, 1100, 1106, 1048, 1002
 755,  688,  711,  724,  822,  967,  990, 1003, 1101
 756,  714,  691,  720,  823,  993,  970,  999, 1102
 757,  789,  831,  787,  824, 1068, 1110, 1066, 1103
 758,  815,  761,  785,  825, 1094, 1040, 1064, 1104
 759,  834,  780,  774,  833, 1113, 1059, 1053, 1112
 760,  791,  780,  834,  836, 1070, 1059, 1113, 1115
 761,  835,  834,  833,  783, 1114, 1113, 1112, 1062
 762,  831,  792,  832,  837, 1110, 1071, 1111, 1116
 763,  853,  943,  946,  838, 1132, 1222, 1225, 1117
 764,  971,  961,  886,  946, 1250, 1240, 1165, 1225
 765,  838,  946,  886,  839, 1117, 1225, 1165, 1118
 766,  902,  840,  839,  886, 1181, 1119, 1118, 1165
 767,  885,  919,  903,  867, 1164, 1198, 1182, 1146
 768,  842,  900,  905,  871, 1121, 1179, 1184, 1150
 769,  920,  922,  985,  962, 1199, 1201, 1264, 1241
 770,  952,  864,  883,  917, 1231, 1143, 1162, 1196
 771,  916,  955,  977, 1015, 1195, 1234, 1256, 1294
 772,  955,  862,  881,  915, 1234, 1141, 1160, 1194
 773,  859,  890,  913,  879, 1138, 1169, 1192, 1158
 774,  953,  860,  879,  913, 1232, 1139, 1158, 1192
 775,  895,  891,  930,  926, 1174, 1170, 1209, 1205
 776,  855,  893,  894,  856, 1134, 1172, 1173, 1135
 777,  852,  945,  892,  854, 1131, 1224, 1171, 1133
 778,  893,  855,  854,  892, 1172, 1134, 1133, 1171
 779,  960,  927,  995,  987, 1239, 1206, 1274, 1266
 780,  948,  857,  856,  894, 1227, 1136, 1135, 1173
 781, 1074,  911, 1073,  923, 1353, 1190, 1352, 1202
 782,  986, 1008,  974, 1074, 1265, 1287, 1253, 1353
 783,  936,  933,  964,  965, 1215, 1212, 1243, 1244
 784,  909,  875,  846,  897, 1188, 1154, 1125, 1176
 785,  922,  920,  903,  919, 1201, 1199, 1182, 1198
 786,  907,  873,  844,  898, 1186, 1152, 1123, 1177
 787,  906,  872,  843,  899, 1185, 1151, 1122, 1178
 788,  921, 1076,  956, 1082, 1200, 1355, 1235, 1361
 789,  950,  841,  870,  904, 1229, 1120, 1149, 1183
 790,  971, 1077,  979, 1079, 1250, 1356, 1258, 1358
 791,  841,  950,  900,  842, 1120, 1229, 1179, 1121
 792,  954,  845,  873,  907, 1233, 1124, 1152, 1186
 793,  942,  978,  908,  954, 1221, 1257, 1187, 1233
 794,  951,  847,  875,  909, 1230, 1126, 1154, 1188
 795,  891,  910,  976,  930, 1170, 1189, 1255, 1209
 796,  895, 1073,  877,  849, 1174, 1352, 1156, 1128
 797,  995,  927,  896,  912, 1274, 1206, 1175, 1191
 798,  914,  880,  860,  953, 1193, 1159, 1139, 1232
 799,  915,  881,  861,  889, 1194, 1160, 1140, 1168
 800,  917,  883,  863,  888, 1196, 1162, 1142, 1167
 801,  918,  952,  975, 1012, 1197, 1231, 1254, 1291
 802,  887,  866,  865,  901, 1166, 1145, 1144, 1180
 803,  944,  869,  868,  947, 1223, 1148, 1147, 1226
 804,  947,  868,  867,  903, 1226, 1147, 1146, 1182
 805,  904,  870,  840,  902, 1183, 1149, 1119, 1181
 806,  919,  885,  866,  887, 1198, 1164, 1145, 1166
 807,  882,  916,  888,  863, 1161, 1195, 1167, 1142
 808,  880,  914,  889,  861, 1159, 1193, 1168, 1140
 809, 1073,  911,  850,  877, 1352, 1190, 1129, 1156
 810,  858,  896,  890,  859, 1137, 1175, 1169, 1138
 811,  876,  910,  891,  848, 1155, 1189, 1170, 1127
 812,  895,  849,  848,  891, 1174, 1128, 1127, 1170
 813,  911, 1074,  974,  949, 1190, 1353, 1253, 1228
 814,  912,  878,  857,  948, 1191, 1157, 1136, 1227
 815,  878,  912,  896,  858, 1157, 1191, 1175, 1137
 816,  911,  949,  851,  850, 1190, 1228, 1130, 1129
 817,  914,  953,  997,  973, 1193, 1232, 1276, 1252
 818,  965,  968,  939,  936, 1244, 1247, 1218, 1215
 819,  874,  908,  897,  846, 1153, 1187, 1176, 1125
 820,  924,  963,  900,  950, 1203, 1242, 1179, 1229
 821,  872,  906,  898,  844, 1151, 1185, 1177, 1123
 822, 1081,  964,  933,  931, 1360, 1243, 1212, 1210
 823,  871,  905,  899,  843, 1150, 1184, 1178, 1122
 824, 1076,  921,  904,  902, 1355, 1200, 1183, 1181
 825,  884,  918,  901,  865, 1163, 1197, 1180, 1144
 826,  925,  922,  919,  887, 1204, 1201, 1198, 1166
 827,  853,  869,  944,  943, 1132, 1148, 1223, 1222
 828,  898,  906,  933,  936, 1177, 1185, 1212, 1215
 829, 1075,  931,  899,  905, 1354, 1210, 1178, 1184
 830,  908,  874,  845,  954, 1187, 1153, 1124, 1233
 831,  990,  977,  941,  993, 1269, 1256, 1220, 1272
 832, 1000,  958,  926,  930, 1279, 1237, 1205, 1209
 833,  910,  876,  847,  951, 1189, 1155, 1126, 1230
 834,  890,  896,  927,  928, 1169, 1175, 1206, 1207
 835,  996,  945,  949,  974, 1275, 1224, 1228, 1253
 836,  912,  948,  972,  995, 1191, 1227, 1251, 1274
 837,  889,  914,  973,  940, 1168, 1193, 1252, 1219
 838, 1028,  928,  927,  960, 1307, 1207, 1206, 1239
 839,  916,  882,  862,  955, 1195, 1161, 1141, 1234
 840, 1063, 1019, 1067, 1057, 1342, 1298, 1346, 1336
 841,  918,  884,  864,  952, 1197, 1163, 1143, 1231
 842, 1017, 1097, 1005, 1079, 1296, 1376, 1284, 1358
 843,  950,  904,  921,  924, 1229, 1183, 1200, 1203
 844,  887,  901,  929,  925, 1166, 1180, 1208, 1204
 845, 1073,  895,  926,  923, 1352, 1174, 1205, 1202
 846,  906,  899,  931,  933, 1185, 1178, 1210, 1212
 847, 1012,  929,  901,  918, 1291, 1208, 1180, 1197
 848,  935,  976,  910,  951, 1214, 1255, 1189, 1230
 849,  928,  932,  913,  890, 1207, 1211, 1192, 1169
 850,  938,  934,  917,  888, 1217, 1213, 1196, 1167
 851,  934,  975,  952,  917, 1213, 1254, 1231, 1196
 852,  951,  909,  937,  935, 1230, 1188, 1216, 1214
 853,  907,  898,  936,  939, 1186, 1177, 1215, 1218
 854,  954,  907,  939,  942, 1233, 1186, 1218, 1221
 855,  915,  889,  940,  941, 1194, 1168, 1219, 1220
 856,  988,  975,  934,  989, 1267, 1254, 1213, 1268
 857,  909,  897, 1016,  937, 1188, 1176, 1295, 1216
 858,  966,  992,  976,  935, 1245, 1271, 1255, 1214
 859, 1015,  938,  888,  916, 1294, 1217, 1167, 1195
 860,  992, 1000,  930,  976, 1271, 1279, 1209, 1255
 861,  897,  908,  978, 1016, 1176, 1187, 1257, 1295
 862,  967, 1015,  977,  990, 1246, 1294, 1256, 1269
 863, 1006, 1019, 1063, 1014, 1285, 1298, 1342, 1293
 864,  941,  977,  955,  915, 1220, 1256, 1234, 1194
 865, 1088,  981,  969,  968, 1367, 1260, 1248, 1247
 866,  903,  920,  962,  947, 1182, 1199, 1241, 1226
 867,  943,  944,  947, 1077, 1222, 1223, 1226, 1356
 868,  949,  945,  852,  851, 1228, 1224, 1131, 1130
 869,  902,  886,  961, 1076, 1181, 1165, 1240, 1355
 870,  905,  900,  963, 1075, 1184, 1179, 1242, 1354
 871, 1012,  959, 1085,  929, 1291, 1238, 1364, 1208
 872,  963,  924,  984, 1090, 1242, 1203, 1263, 1369
 873,  985,  922,  925,  957, 1264, 1201, 1204, 1236
 874, 1078,  923,  926,  958, 1357, 1202, 1205, 1237
 875, 1018,  996,  974, 1008, 1297, 1275, 1253, 1287
 876,  959, 1012,  975,  988, 1238, 1291, 1254, 1267
 877,  957,  925,  929, 1085, 1236, 1204, 1208, 1364
 878, 1083,  932,  928, 1028, 1362, 1211, 1207, 1307
 879,  970,  940,  973,  983, 1249, 1219, 1252, 1262
 880, 1077,  971,  946,  943, 1356, 1250, 1225, 1222
 881,  979, 1077,  947,  962, 1258, 1356, 1226, 1241
 882,  965,  964, 1089,  980, 1244, 1243, 1368, 1259
 883,  968,  969,  942,  939, 1247, 1248, 1221, 1218
 884,  994,  991, 1016,  978, 1273, 1270, 1295, 1257
 885, 1080,  966,  935,  937, 1359, 1245, 1214, 1216
 886, 1092, 1035, 1022, 1001, 1371, 1314, 1301, 1280
 887,  989,  934,  938, 1084, 1268, 1213, 1217, 1363
 888, 1107, 1036, 1039, 1041, 1386, 1315, 1318, 1320
 889,  969,  994,  978,  942, 1248, 1273, 1257, 1221
 890, 1003,  990,  993, 1102, 1282, 1269, 1272, 1381
 891,  973,  997, 1021,  983, 1252, 1276, 1300, 1262
 892,  993,  941,  940,  970, 1272, 1220, 1219, 1249
 893,  956, 1076,  961, 1005, 1235, 1355, 1240, 1284
 894,  892, 1011,  894,  893, 1171, 1290, 1173, 1172
 895,  948,  894, 1011,  972, 1227, 1173, 1290, 1251
 896,  932,  997,  953,  913, 1211, 1276, 1232, 1192
 897,  923, 1078,  986, 1074, 1202, 1357, 1265, 1353
 898, 1011,  892,  945,  996, 1290, 1171, 1224, 1275
 899, 1062, 1057, 1067, 1114, 1341, 1336, 1346, 1393
 900, 1017, 1079,  979, 1052, 1296, 1358, 1258, 1331
 901,  980, 1088,  968,  965, 1259, 1367, 1247, 1244
 902,  981, 1006,  994,  969, 1260, 1285, 1273, 1248
 903, 1054, 1004, 1091, 1033, 1333, 1283, 1370, 1312
 904,  982, 1090,  998, 1081, 1261, 1369, 1277, 1360
 905, 1090,  982, 1075,  963, 1369, 1261, 1354, 1242
 906, 1032,  999,  970,  983, 1311, 1278, 1249, 1262
 907, 1024, 1046, 1021, 1083, 1303, 1325, 1300, 1362
 908, 1037,  984, 1082,  956, 1316, 1263, 1361, 1235
 909, 1052,  979,  962,  985, 1331, 1258, 1241, 1264
 910, 1004, 1054, 1008,  986, 1283, 1333, 1287, 1265
 911,  972, 1030,  987,  995, 1251, 1309, 1266, 1274
 912, 1024,  960,  987, 1009, 1303, 1239, 1266, 1288
 913,  988,  989, 1100, 1002, 1267, 1268, 1379, 1281
 914, 1026, 1007, 1085,  959, 1305, 1286, 1364, 1238
 915,  967, 1101, 1013, 1084, 1246, 1380, 1292, 1363
 916,  992,  966, 1087, 1001, 1271, 1245, 1366, 1280
 917, 1006, 1014,  991,  994, 1285, 1293, 1270, 1273
 918, 1030, 1049, 1044, 1045, 1309, 1328, 1323, 1324
 919, 1090,  984, 1037,  998, 1369, 1263, 1316, 1277
 920, 1010, 1014, 1063, 1099, 1289, 1293, 1342, 1378
 921,  958, 1000, 1022, 1023, 1237, 1279, 1301, 1302
 922, 1001, 1022, 1000,  992, 1280, 1301, 1279, 1271
 923, 1069, 1019, 1006,  981, 1348, 1298, 1285, 1260
 924, 1013, 1100,  989, 1084, 1292, 1379, 1268, 1363
 925,  999, 1020, 1003, 1102, 1278, 1299, 1282, 1381
 926, 1031, 1013, 1101, 1003, 1310, 1292, 1380, 1282
 927, 1078, 1086, 1004,  986, 1357, 1365, 1283, 1265
 928, 1054, 1049, 1018, 1008, 1333, 1328, 1297, 1287
 929,  957, 1085, 1007, 1027, 1236, 1364, 1286, 1306
 930, 1036, 1107, 1027, 1007, 1315, 1386, 1306, 1286
 931,  972, 1011,  996, 1018, 1251, 1290, 1275, 1297
 932, 1049, 1030,  972, 1018, 1328, 1309, 1251, 1297
 933, 1046, 1032,  983, 1021, 1325, 1311, 1262, 1300
 934, 1014, 1010, 1080,  991, 1293, 1289, 1359, 1270
 935, 1023, 1022, 1035, 1091, 1302, 1301, 1314, 1370
 936, 1084,  938, 1015,  967, 1363, 1217, 1294, 1246
 937,  991, 1080,  937, 1016, 1270, 1359, 1216, 1295
 938, 1099, 1025, 1087, 1010, 1378, 1304, 1366, 1289
 939, 1100, 1013, 1031, 1106, 1379, 1292, 1310, 1385
 940, 1041, 1052,  985, 1107, 1320, 1331, 1264, 1386
 941, 1116, 1111, 1070, 1115, 1395, 1390, 1349, 1394
 942, 1103, 1067, 1019, 1069, 1382, 1346, 1298, 1348
 943, 1083, 1028,  960, 1024, 1362, 1307, 1239, 1303
 944, 1078,  958, 1023, 1086, 1357, 1237, 1302, 1365
 945, 1098, 1009, 1045, 1034, 1377, 1288, 1324, 1313
 946, 1051, 1058, 1034, 1072, 1330, 1337, 1313, 1351
 947, 1033, 1091, 1035, 1051, 1312, 1370, 1314, 1330
 948, 1029, 1092, 1025, 1099, 1308, 1371, 1304, 1378
 949, 1045, 1009,  987, 1030, 1324, 1288, 1266, 1309
 950, 1043, 1031, 1003, 1020, 1322, 1310, 1282, 1299
 951, 1043, 1048, 1106, 1031, 1322, 1327, 1385, 1310
 952, 1046, 1055, 1047, 1032, 1325, 1334, 1326, 1311
 953, 1035, 1092, 1029, 1042, 1314, 1371, 1308, 1321
 954, 1072, 1044, 1033, 1051, 1351, 1323, 1312, 1330
 955, 1034, 1055, 1046, 1098, 1313, 1334, 1325, 1377
 956, 1047, 1053, 1043, 1020, 1326, 1332, 1322, 1299
 957, 1095, 1105, 1064, 1040, 1374, 1384, 1343, 1319
 958, 1056, 1036, 1007, 1026, 1335, 1315, 1286, 1305
 959, 1017, 1096, 1037, 1097, 1296, 1375, 1316, 1376
 960, 1095, 1040, 1089,  998, 1374, 1319, 1368, 1277
 961, 1052, 1041, 1061, 1038, 1331, 1320, 1340, 1317
 962, 1052, 1038, 1096, 1017, 1331, 1317, 1375, 1296
 963, 1062, 1112, 1053, 1050, 1341, 1391, 1332, 1329
 964, 1070, 1039, 1036, 1056, 1349, 1318, 1315, 1335
 965, 1038, 1105, 1095, 1096, 1317, 1384, 1374, 1375
 966, 1107,  985,  957, 1027, 1386, 1264, 1236, 1306
 967, 1042, 1060, 1108, 1058, 1321, 1339, 1387, 1337
 968, 1029, 1050, 1060, 1042, 1308, 1329, 1339, 1321
 969,  999, 1032, 1047, 1020, 1278, 1311, 1326, 1299
 970, 1109, 1064, 1061, 1065, 1388, 1343, 1340, 1344
 971, 1002, 1048, 1056, 1026, 1281, 1327, 1335, 1305
 972, 1033, 1044, 1049, 1054, 1312, 1323, 1328, 1333
 973, 1035, 1042, 1058, 1051, 1314, 1321, 1337, 1330
 974, 1053, 1059, 1048, 1043, 1332, 1338, 1327, 1322
 975, 1111, 1065, 1039, 1070, 1390, 1344, 1318, 1349
 976, 1034, 1045, 1044, 1072, 1313, 1324, 1323, 1351
 977, 1047, 1060, 1050, 1053, 1326, 1339, 1329, 1332
 978, 1041, 1039, 1065, 1061, 1320, 1318, 1344, 1340
 979, 1066, 1114, 1067, 1103, 1345, 1393, 1346, 1382
 980, 1062, 1050, 1029, 1057, 1341, 1329, 1308, 1336
 981, 1048, 1059, 1070, 1056, 1327, 1338, 1349, 1335
 982, 1055, 1108, 1060, 1047, 1334, 1387, 1339, 1326
 983, 1099, 1063, 1057, 1029, 1378, 1342, 1336, 1308
 984, 1038, 1061, 1064, 1105, 1317, 1340, 1343, 1384
 985, 1094, 1104, 1068, 1093, 1373, 1383, 1347, 1372
 986, 1115, 1066, 1110, 1116, 1394, 1345, 1389, 1395
 987, 1071, 1109, 1065, 1111, 1350, 1388, 1344, 1390
 988, 1066, 1115, 1113, 1114, 1345, 1394, 1392, 1393
 989, 1064, 1109, 1071, 1104, 1343, 1388, 1350, 1383
 990, 1071, 1110, 1068, 1104, 1350, 1389, 1347, 1383
 991, 1088,  980, 1094, 1093, 1367, 1259, 1373, 1372
 992,  981, 1088, 1093, 1069, 1260, 1367, 1372, 1348
 993, 1108, 1055, 1034, 1058, 1387, 1334, 1313, 1337
 994,  982, 1081,  931, 1075, 1261, 1360, 1210, 1354
 995, 1091, 1004, 1086, 1023, 1370, 1283, 1365, 1302
 996, 1005,  961,  971, 1079, 1284, 1240, 1250, 1358
 997, 1010, 1087,  966, 1080, 1289, 1366, 1245, 1359
 998,  998, 1089,  964, 1081, 1277, 1368, 1243, 1360
 999,  984,  924,  921, 1082, 1263, 1203, 1200, 1361
1000, 1021,  997,  932, 1083, 1300, 1276, 1211, 1362
1001, 1025, 1092, 1001, 1087, 1304, 1371, 1280, 1366
1002, 1040, 1094,  980, 1089, 1319, 1373, 1259, 1368
1003, 1068, 1103, 1069, 1093, 1347, 1382, 1348, 1372
1004, 1096, 1095,  998, 1037, 1375, 1374, 1277, 1316
1005, 1037,  956, 1005, 1097, 1316, 1235, 1284, 1376
1006, 1098, 1046, 1024, 1009, 1377, 1325, 1303, 1288
1007,  959,  988, 1002, 1026, 1238, 1267, 1281, 1305
1008, 1100, 1106, 1048, 1002, 1379, 1385, 1327, 1281
1009,  967,  990, 1003, 1101, 1246, 1269, 1282, 1380
1010,  993,  970,  999, 1102, 1272, 1249, 1278, 1381
1011, 1068, 1110, 1066, 1103, 1347, 1389, 1345, 1382
1012, 1094, 1040, 1064, 1104, 1373, 1319, 1343, 1383
1013, 1113, 1059, 1053, 1112, 1392, 1338, 1332, 1391
1014, 1070, 1059, 1113, 1115, 1349, 1338, 1392, 1394
1015, 1114, 1113, 1112, 1062, 1393, 1392, 1391, 1341
1016, 1110, 1071, 1111, 1116, 1389, 1350, 1390, 1395
1017, 1132, 1222, 1225, 1117, 1411, 1501, 1504, 1396
1018, 1250, 1240, 1165, 1225, 1529, 1519, 1444, 1504
1019, 1117, 1225, 1165, 1118, 1396, 1504, 1444, 1397
1020, 1181, 1119, 1118, 1165, 1460, 1398, 1397, 1444
1021, 1164, 1198, 1182, 1146, 1443, 1477, 1461, 1425
1022, 1121, 1179, 1184, 1150, 1400, 1458, 1463, 1429
1023, 1199, 1201, 1264, 1241, 1478, 1480, 1543, 1520
1024, 1231, 1143, 1162, 1196, 1510, 1422, 1441, 1475
1025, 1195, 1234, 1256, 1294, 1474, 1513, 1535, 1573
1026, 1234, 1141, 1160, 1194, 1513, 1420, 1439, 1473
1027, 1138, 1169, 1192, 1158, 1417, 1448, 1471, 1437
1028, 1232, 1139, 1158, 1192, 1511, 1418, 1437, 1471
1029, 1174, 1170, 1209, 1205, 1453, 1449, 1488, 1484
1030, 1134, 1172, 1173, 1135, 1413, 1451, 1452, 1414
1031, 1131, 1224, 1171, 1133, 1410, 1503, 1450, 1412
1032, 1172, 1134, 1133, 1171, 1451, 1413, 1412, 1450
1033, 1239, 1206, 1274, 1266, 1518, 1485, 1553, 1545
1034, 1227, 1136, 1135, 1173, 1506, 1415, 1414, 1452
1035, 1353, 1190, 1352, 1202, 1632, 1469, 1631, 1481
1036, 1265, 1287, 1253, 1353, 1544, 1566, 1532, 1632
1037, 1215, 1212, 1243, 1244, 1494, 1491, 1522, 1523
1038, 1188, 1154, 1125, 1176, 1467, 1433, 1404, 1455
1039, 1201, 1199, 1182, 1198, 1480, 1478, 1461, 1477
1040, 1186, 1152, 1123, 1177, 1465, 1431, 1402, 1456
1041, 1185, 1151, 1122, 1178, 1464, 1430, 1401, 1457
1042, 1200, 1355, 1235, 1361, 1479, 1634, 1514, 1640
1043, 1229, 1120, 1149, 1183, 1508, 1399, 1428, 1462
1044, 1250, 1356, 1258, 1358, 1529, 1635, 1537, 1637
1045, 1120, 1229, 1179, 1121, 1399, 1508, 1458, 1400
1046, 1233, 1124, 1152, 1186, 1512, 1403, 1431, 1465
1047, 1221, 1257, 1187, 1233, 1500, 1536, 1466, 1512
1048, 1230, 1126, 1154, 1188, 1509, 1405, 1433, 1467
1049, 1170, 1189, 1255, 1209, 1449, 1468, 1534, 1488
1050, 1174, 1352, 1156, 1128, 1453, 1631, 1435, 1407
1051, 1274, 1206, 1175, 1191, 1553, 1485, 1454, 1470
1052, 1193, 1159, 1139, 1232, 1472, 1438, 1418, 1511
1053, 1194, 1160, 1140, 1168, 1473, 1439, 1419, 1447
1054, 1196, 1162, 1142, 1167, 1475, 1441, 1421, 1446
1055, 1197, 1231, 1254, 1291, 1476, 1510, 1533, 1570
1056, 1166, 1145, 1144, 1180, 1445, 1424, 1423, 1459
1057, 1223, 1148, 1147, 1226, 1502, 1427, 1426, 1505
1058, 1226, 1147, 1146, 1182, 1505, 1426, 1425, 1461
1059, 1183, 1149, 1119, 1181, 1462, 1428, 1398, 1460
1060, 1198, 1164, 1145, 1166, 1477, 1443, 1424, 1445
1061, 1161, 1195, 1167, 1142, 1440, 1474, 1446, 1421
1062, 1159, 1193, 1168, 1140, 1438, 1472, 1447, 1419
1063, 1352, 1190, 1129, 1156, 1631, 1469, 1408, 1435
1064, 1137, 1175, 1169, 1138, 1416, 1454, 1448, 1417
1065, 1155, 1189, 1170, 1127, 1434, 1468, 1449, 1406
1066, 1174, 1128, 1127, 1170, 1453, 1407, 1406, 1449
1067, 1190, 1353, 1253, 1228, 1469, 1632, 1532, 1507
1068, 1191, 1157, 1136, 1227, 1470, 1436, 1415, 1506
1069, 1157, 1191, 1175, 1137, 1436, 1470, 1454, 1416
1070, 1190, 1228, 1130, 1129, 1469, 1507, 1409, 1408
1071, 1193, 1232, 1276, 1252, 1472, 1511, 1555, 1531
1072, 1244, 1247, 1218, 1215, 1523, 1526, 1497, 1494
1073, 1153, 1187, 1176, 1125, 1432, 1466, 1455, 1404
1074, 1203, 1242, 1179, 1229, 1482, 1521, 1458, 1508
1075, 1151, 1185, 1177, 1123, 1430, 1464, 1456, 1402
1076, 1360, 1243, 1212, 1210, 1639, 1522, 1491, 1489
1077, 1150, 1184, 1178, 1122, 1429, 1463, 1457, 1401
1078, 1355, 1200, 1183, 1181, 1634, 1479, 1462, 1460
1079, 1163, 1197, 1180, 1144, 1442, 1476, 1459, 1423
1080, 1204, 1201, 1198, 1166, 1483, 1480, 1477, 1445
1081, 1132, 1148, 1223, 1222, 1411, 1427, 1502, 1501
1082, 1177, 1185, 1212, 1215, 1456, 1464, 1491, 1494
1083, 1354, 1210, 1178, 1184, 1633, 1489, 1457, 1463
1084, 1187, 1153, 1124, 1233, 1466, 1432, 1403, 1512
1085, 1269, 1256, 1220, 1272, 1548, 1535, 1499, 1551
1086, 1279, 1237, 1205, 1209, 1558, 1516, 1484, 1488
1087, 1189, 1155, 1126, 1230, 1468, 1434, 1405, 1509
1088, 1169, 1175, 1206, 1207, 1448, 1454, 1485, 1486
1089, 1275, 1224, 1228, 1253, 1554, 1503, 1507, 1532
1090, 1191, 1227, 1251, 1274, 1470, 1506, 1530, 1553
1091, 1168, 1193, 1252, 1219, 1447, 1472, 1531, 1498
1092, 1307, 1207, 1206, 1239, 1586, 1486, 1485, 1518
1093, 1195, 1161, 1141, 1234, 1474, 1440, 1420, 1513
1094, 1342, 1298, 1346, 1336, 1621, 1577, 1625, 1615
1095, 1197, 1163, 1143, 1231, 1476, 1442, 1422, 1510
1096, 1296, 1376, 1284, 1358, 1575, 1655, 1563, 1637
1097, 1229, 1183, 1200, 1203, 1508, 1462, 1479, 1482
1098, 1166, 1180, 1208, 1204, 1445, 1459, 1487, 1483
1099, 1352, 1174, 1205, 1202, 1631, 1453, 1484, 1481
1100, 1185, 1178, 1210, 1212, 1464, 1457, 1489, 1491
1101, 1291, 1208, 1180, 1197, 1570, 1487, 1459, 1476
1102, 1214, 1255, 1189, 1230, 1493, 1534, 1468, 1509
1103, 1207, 1211, 1192, 1169, 1486, 1490, 1471, 1448
1104, 1217, 1213, 1196, 1167, 1496, 1492, 1475, 1446
1105, 1213, 1254, 1231, 1196, 1492, 1533, 1510, 1475
1106, 1230, 1188, 1216, 1214, 1509, 1467, 1495, 1493
1107, 1186, 1177, 1215, 1218, 1465, 1456, 1494, 1497
1108, 1233, 1186, 1218, 1221, 1512, 1465, 1497, 1500
1109, 1194, 1168, 1219, 1220, 1473, 1447, 1498, 1499
1110, 1267, 1254, 1213, 1268, 1546, 1533, 1492, 1547
1111, 1188, 1176, 1295, 1216, 1467, 1455, 1574, 1495
1112, 1245, 1271, 1255, 1214, 1524, 1550, 1534, 1493
1113, 1294, 1217, 1167, 1195, 1573, 1496, 1446, 1474
1114, 1271, 1279, 1209, 1255, 1550, 1558, 1488, 1534
1115, 1176, 1187, 1257, 1295, 1455, 1466, 1536, 1574
1116, 1246, 1294, 1256, 1269, 1525, 1573, 1535, 1548
1117, 1285, 1298, 1342, 1293, 1564, 1577, 1621, 1572
1118, 1220, 1256, 1234, 1194, 1499, 1535, 1513, 1473
1119, 1367, 1260, 1248, 1247, 1646, 1539, 1527, 1526
1120, 1182, 1199, 1241, 1226, 1461, 1478, 1520, 1505
1121, 1222, 1223, 1226, 1356, 1501, 1502, 1505, 1635
1122, 1228, 1224, 1131, 1130, 1507, 1503, 1410, 1409
1123, 1181, 1165, 1240, 1355, 1460, 1444, 1519, 1634
1124, 1184, 1179, 1242, 1354, 1463, 1458, 1521, 1633
1125, 1291, 1238, 1364, 1208, 1570, 1517, 1643, 1487
1126, 1242, 1203, 1263, 1369, 1521, 1482, 1542, 1648
1127, 1264, 1201, 1204, 1236, 1543, 1480, 1483, 1515
1128, 1357, 1202, 1205, 1237, 1636, 1481, 1484, 1516
1129, 1297, 1275, 1253, 1287, 1576, 1554, 1532, 1566
1130, 1238, 1291, 1254, 1267, 1517, 1570, 1533, 1546
1131, 1236, 1204, 1208, 1364, 1515, 1483, 1487, 1643
1132, 1362, 1211, 1207, 1307, 1641, 1490, 1486, 1586
1133, 1249, 1219, 1252, 1262, 1528, 1498, 1531, 1541
1134, 1356, 1250, 1225, 1222, 1635, 1529, 1504, 1501
1135, 1258, 1356, 1226, 1241, 1537, 1635, 1505, 1520
1136, 1244, 1243, 1368, 1259, 1523, 1522, 1647, 1538
1137, 1247, 1248, 1221, 1218, 1526, 1527, 1500, 1497
1138, 1273, 1270, 1295, 1257, 1552, 1549, 1574, 1536
1139, 1359, 1245, 1214, 1216, 1638, 1524, 1493, 1495
1140, 1371, 1314, 1301, 1280, 1650, 1593, 1580, 1559
1141, 1268, 1213, 1217, 1363, 1547, 1492, 1496, 1642
1142, 1386, 1315, 1318, 1320, 1665, 1594, 1597, 1599
1143, 1248, 1273, 1257, 1221, 1527, 1552, 1536, 1500
1144, 1282, 1269, 1272, 1381, 1561, 1548, 1551, 1660
1145, 1252, 1276, 1300, 1262, 1531, 1555, 1579, 1541
1146, 1272, 1220, 1219, 1249, 1551, 1499, 1498, 1528
1147, 1235, 1355, 1240, 1284, 1514, 1634, 1519, 1563
1148, 1171, 1290, 1173, 1172, 1450, 1569, 1452, 1451
1149, 1227, 1173, 1290, 1251, 1506, 1452, 1569, 1530
1150, 1211, 1276, 1232, 1192, 1490, 1555, 1511, 1471
1151, 1202, 1357, 1265, 1353, 1481, 1636, 1544, 1632
1152, 1290, 1171, 1224, 1275, 1569, 1450, 1503, 1554
1153, 1341, 1336, 1346, 1393, 1620, 1615, 1625, 1672
1154, 1296, 1358, 1258, 1331, 1575, 1637, 1537, 1610
1155, 1259, 1367, 1247, 1244, 1538, 1646, 1526, 1523
1156, 1260, 1285, 1273, 1248, 1539, 1564, 1552, 1527
1157, 1333, 1283, 1370, 1312, 1612, 1562, 1649, 1591
1158, 1261, 1369, 1277, 1360, 1540, 1648, 1556, 1639
1159, 1369, 1261, 1354, 1242, 1648, 1540, 1633, 1521
1160, 1311, 1278, 1249, 1262, 1590, 1557, 1528, 1541
1161, 1303, 1325, 1300, 1362, 1582, 1604, 1579, 1641
1162, 1316, 1263, 1361, 1235, 1595, 1542, 1640, 1514
1163, 1331, 1258, 1241, 1264, 1610, 1537, 1520, 1543
1164, 1283, 1333, 1287, 1265, 1562, 1612, 1566, 1544
1165, 1251, 1309, 1266, 1274, 1530, 1588, 1545, 1553
1166, 1303, 1239, 1266, 1288, 1582, 1518, 1545, 1567
1167, 1267, 1268, 1379, 1281, 1546, 1547, 1658, 1560
1168, 1305, 1286, 1364, 1238, 1584, 1565, 1643, 1517
1169, 1246, 1380, 1292, 1363, 1525, 1659, 1571, 1642
1170, 1271, 1245, 1366, 1280, 1550, 1524, 1645, 1559
1171, 1285, 1293, 1270, 1273, 1564, 1572, 1549, 1552
1172, 1309, 1328, 1323, 1324, 1588, 1607, 1602, 1603
1173, 1369, 1263, 1316, 1277, 1648, 1542, 1595, 1556
1174, 1289, 1293, 1342, 1378, 1568, 1572, 1621, 1657
1175, 1237, 1279, 1301, 1302, 1516, 1558, 1580, 1581
1176, 1280, 1301, 1279, 1271, 1559, 1580, 1558, 1550
1177, 1348, 1298, 1285, 1260, 1627, 1577, 1564, 1539
1178, 1292, 1379, 1268, 1363, 1571, 1658, 1547, 1642
1179, 1278, 1299, 1282, 1381, 1557, 1578, 1561, 1660
1180, 1310, 1292, 1380, 1282, 1589, 1571, 1659, 1561
1181, 1357, 1365, 1283, 1265, 1636, 1644, 1562, 1544
1182, 1333, 1328, 1297, 1287, 1612, 1607, 1576, 1566
1183, 1236, 1364, 1286, 1306, 1515, 1643, 1565, 1585
1184, 1315, 1386, 1306, 1286, 1594, 1665, 1585, 1565
1185, 1251, 1290, 1275, 1297, 1530, 1569, 1554, 1576
1186, 1328, 1309, 1251, 1297, 1607, 1588, 1530, 1576
1187, 1325, 1311, 1262, 1300, 1604, 1590, 1541, 1579
1188, 1293, 1289, 1359, 1270, 1572, 1568, 1638, 1549
1189, 1302, 1301, 1314, 1370, 1581, 1580, 1593, 1649
1190, 1363, 1217, 1294, 1246, 1642, 1496, 1573, 1525
1191, 1270, 1359, 1216, 1295, 1549, 1638, 1495, 1574
1192, 1378, 1304, 1366, 1289, 1657, 1583, 1645, 1568
1193, 1379, 1292, 1310, 1385, 1658, 1571, 1589, 1664
1194, 1320, 1331, 1264, 1386, 1599, 1610, 1543, 1665
1195, 1395, 1390, 1349, 1394, 1674, 1669, 1628, 1673
1196, 1382, 1346, 1298, 1348, 1661, 1625, 1577, 1627
1197, 1362, 1307, 1239, 1303, 1641, 1586, 1518, 1582
1198, 1357, 1237, 1302, 1365, 1636, 1516, 1581, 1644
1199, 1377, 1288, 1324, 1313, 1656, 1567, 1603, 1592
1200, 1330, 1337, 1313, 1351, 1609, 1616, 1592, 1630
1201, 1312, 1370, 1314, 1330, 1591, 1649, 1593, 1609
1202, 1308, 1371, 1304, 1378, 1587, 1650, 1583, 1657
1203, 1324, 1288, 1266, 1309, 1603, 1567, 1545, 1588
1204, 1322, 1310, 1282, 1299, 1601, 1589, 1561, 1578
1205, 1322, 1327, 1385, 1310, 1601, 1606, 1664, 1589
1206, 1325, 1334, 1326, 1311, 1604, 1613, 1605, 1590
1207, 1314, 1371, 1308, 1321, 1593, 1650, 1587, 1600
1208, 1351, 1323, 1312, 1330, 1630, 1602, 1591, 1609
1209, 1313, 1334, 1325, 1377, 1592, 1613, 1604, 1656
1210, 1326, 1332, 1322, 1299, 1605, 1611, 1601, 1578
1211, 1374, 1384, 1343, 1319, 1653, 1663, 1622, 1598
1212, 1335, 1315, 1286, 1305, 1614, 1594, 1565, 1584
1213, 1296, 1375, 1316, 1376, 1575, 1654, 1595, 1655
1214, 1374, 1319, 1368, 1277, 1653, 1598, 1647, 1556
1215, 1331, 1320, 1340, 1317, 1610, 1599, 1619, 1596
1216, 1331, 1317, 1375, 1296, 1610, 1596, 1654, 1575
1217, 1341, 1391, 1332, 1329, 1620, 1670, 1611, 1608
1218, 1349, 1318, 1315, 1335, 1628, 1597, 1594, 1614
1219, 1317, 1384, 1374, 1375, 1596, 1663, 1653, 1654
1220, 1386, 1264, 1236, 1306, 1665, 1543, 1515, 1585
1221, 1321, 1339, 1387, 1337, 1600, 1618, 1666, 1616
1222, 1308, 1329, 1339, 1321, 1587, 1608, 1618, 1600
1223, 1278, 1311, 1326, 1299, 1557, 1590, 1605, 1578
1224, 1388, 1343, 1340, 1344, 1667, 1622, 1619, 1623
1225, 1281, 1327, 1335, 1305, 1560, 1606, 1614, 1584
1226, 1312, 1323, 1328, 1333, 1591, 1602, 1607, 1612
1227, 1314, 1321, 1337, 1330, 1593, 1600, 1616, 1609
1228, 1332, 1338, 1327, 1322, 1611, 1617, 1606, 1601
1229, 1390, 1344, 1318, 1349, 1669, 1623, 1597, 1628
1230, 1313, 1324, 1323, 1351, 1592, 1603, 1602, 1630
1231, 1326, 1339, 1329, 1332, 1605, 1618, 1608, 1611
1232, 1320, 1318, 1344, 1340, 1599, 1597, 1623, 1619
1233, 1345, 1393, 1346, 1382, 1624, 1672, 1625, 1661
1234, 1341, 1329, 1308, 1336, 1620, 1608, 1587, 1615
1235, 1327, 1338, 1349, 1335, 1606, 1617, 1628, 1614
1236, 1334, 1387, 1339, 1326, 1613, 1666, 1618, 1605
1237, 1378, 1342, 1336, 1308, 1657, 1621, 1615, 1587
1238, 1317, 1340, 1343, 1384, 1596, 1619, 1622, 1663
1239, 1373, 1383, 1347, 1372, 1652, 1662, 1626, 1651
1240, 1394, 1345, 1389, 1395, 1673, 1624, 1668, 1674
1241, 1350, 1388, 1344, 1390, 1629, 1667, 1623, 1669
1242, 1345, 1394, 1392, 1393, 1624, 1673, 1671, 1672
1243, 1343, 1388, 1350, 1383, 1622, 1667, 1629, 1662
1244, 1350, 1389, 1347, 1383, 1629, 1668, 1626, 1662
1245, 1367, 1259, 1373, 1372, 1646, 1538, 1652, 1651
1246, 1260, 1367, 1372, 1348, 1539, 1646, 1651, 1627
1247, 1387, 1334, 1313, 1337, 1666, 1613, 1592, 1616
1248, 1261, 1360, 1210, 1354, 1540, 1639, 1489, 1633
1249, 1370, 1283, 1365, 1302, 1649, 1562, 1644, 1581
1250, 1284, 1240, 1250, 1358, 1563, 1519, 1529, 1637
1251, 1289, 1366, 1245, 1359, 1568, 1645, 1524, 1638
1252, 1277, 1368, 1243, 1360, 1556, 1647, 1522, 1639
1253, 1263, 1203, 1200, 1361, 1542, 1482, 1479, 1640
1254, 1300, 1276, 1211, 1362, 1579, 1555, 1490, 1641
1255, 1304, 1371, 1280, 1366, 1583, 1650, 1559, 1645
1256, 1319, 1373, 1259, 1368, 1598, 1652, 1538, 1647
1257, 1347, 1382, 1348, 1372, 1626, 1661, 1627, 1651
1258, 1375, 1374, 1277, 1316, 1654, 1653, 1556, 1595
1259, 1316, 1235, 1284, 1376, 1595, 1514, 1563, 1655
1260, 1377, 1325, 1303, 1288, 1656, 1604, 1582, 1567
1261, 1238, 1267, 1281, 1305, 1517, 1546, 1560, 1584
1262, 1379, 1385, 1327, 1281, 1658, 1664, 1606, 1560
1263, 1246, 1269, 1282, 1380, 1525, 1548, 1561, 1659
1264, 1272, 1249, 1278, 1381, 1551, 1528, 1557, 1660
1265, 1347, 1389, 1345, 1382, 1626, 1668, 1624, 1661
1266, 1373, 1319, 1343, 1383, 1652, 1598, 1622, 1662
1267, 1392, 1338, 1332, 1391, 1671, 1617, 1611, 1670
1268, 1349, 1338, 1392, 1394, 1628, 1617, 1671, 1673
1269, 1393, 1392, 1391, 1341, 1672, 1671, 1670, 1620
1270, 1389, 1350, 1390, 1395, 1668, 1629, 1669, 1674
1271, 1411, 1501, 1504, 1396, 1690, 1780, 1783, 1675
1272, 1529, 1519, 1444, 1504, 1808, 1798, 1723, 1783
1273, 1396, 1504, 1444, 1397, 1675, 1783, 1723, 1676
1274, 1460, 1398, 1397, 1444, 1739, 1677, 1676, 1723
1275, 1443, 1477, 1461, 1425, 1722, 1756, 1740, 1704
1276, 1400, 1458, 1463, 1429, 1679, 1737, 1742, 1708
1277, 1478, 1480, 1543, 1520, 1757, 1759, 1822, 1799
1278, 1510, 1422, 1441, 1475, 1789, 1701, 1720, 1754
1279, 1474, 1513, 1535, 1573, 1753, 1792, 1814, 1852
1280, 1513, 1420, 1439, 1473, 1792, 1699, 1718, 1752
1281, 1417, 1448, 1471, 1437, 1696, 1727, 1750, 1716
1282, 1511, 1418, 1437, 1471, 1790, 1697, 1716, 1750
1283, 1453, 1449, 1488, 1484, 1732, 1728, 1767, 1763
1284, 1413, 1451, 1452, 1414, 1692, 1730, 1731, 1693
1285, 1410, 1503, 1450, 1412, 1689, 1782, 1729, 1691
1286, 1451, 1413, 1412, 1450, 1730, 1692, 1691, 1729
1287, 1518, 1485, 1553, 1545, 1797, 1764, 1832, 1824
1288, 1506, 1415, 1414, 1452, 1785, 1694, 1693, 1731
1289, 1632, 1469, 1631, 1481, 1911, 1748, 1910, 1760
1290, 1544, 1566, 1532, 1632, 1823, 1845, 1811, 1911
1291, 1494, 1491, 1522, 1523, 1773, 1770, 1801, 1802
1292, 1467, 1433, 1404, 1455, 1746, 1712, 1683, 1734
1293, 1480, 1478, 1461, 1477, 1759, 1757, 1740, 1756
1294, 1465, 1431, 1402, 1456, 1744, 1710, 1681, 1735
1295, 1464, 1430, 1401, 1457, 1743, 1709, 1680, 1736
1296, 1479, 1634, 1514, 1640, 1758, 1913, 1793, 1919
1297, 1508, 1399, 1428, 1462, 1787, 1678, 1707, 1741
1298, 1529, 1635, 1537, 1637, 1808, 1914, 1816, 1916
1299, 1399, 1508, 1458, 1400, 1678, 1787, 1737, 1679
1300, 1512, 1403, 1431, 1465, 1791, 1682, 1710, 1744
1301, 1500, 1536, 1466, 1512, 1779, 1815, 1745, 1791
1302, 1509, 1405, 1433, 1467, 1788, 1684, 1712, 1746
1303, 1449, 1468, 1534, 1488, 1728, 1747, 1813, 1767
1304, 1453, 1631, 1435, 1407, 1732, 1910, 1714, 1686
1305, 1553, 1485, 1454, 1470, 1832, 1764, 1733, 1749
1306, 1472, 1438, 1418, 1511, 1751, 1717, 1697, 1790
1307, 1473, 1439, 1419, 1447, 1752, 1718, 1698, 1726
1308, 1475, 1441, 1421, 1446, 1754, 1720, 1700, 1725
1309, 1476, 1510, 1533, 1570, 1755, 1789, 1812, 1849
1310, 1445, 1424, 1423, 1459, 1724, 1703, 1702, 1738
1311, 1502, 1427, 1426, 1505, 1781, 1706, 1705, 1784
1312, 1505, 1426, 1425, 1461, 1784, 1705, 1704, 1740
1313, 1462, 1428, 1398, 1460, 1741, 1707, 1677, 1739
1314, 1477, 1443, 1424, 1445, 1756, 1722, 1703, 1724
1315, 1440, 1474, 1446, 1421, 1719, 1753, 1725, 1700
1316, 1438, 1472, 1447, 1419, 1717, 1751, 1726, 1698
1317, 1631, 1469, 1408, 1435, 1910, 1748, 1687, 1714
1318, 1416, 1454, 1448, 1417, 1695, 1733, 1727, 1696
1319, 1434, 1468, 1449, 1406, 1713, 1747, 1728, 1685
1320, 1453, 1407, 1406, 1449, 1732, 1686, 1685, 1728
1321, 1469, 1632, 1532, 1507, 1748, 1911, 1811, 1786
1322, 1470, 1436, 1415, 1506, 1749, 1715, 1694, 1785
1323, 1436, 1470, 1454, 1416, 1715, 1749, 1733, 1695
1324, 1469, 1507, 1409, 1408, 1748, 1786, 1688, 1687
1325, 1472, 1511, 1555, 1531, 1751, 1790, 1834, 1810
1326, 1523, 1526, 1497, 1494, 1802, 1805, 1776, 1773
1327, 1432, 1466, 1455, 1404, 1711, 1745, 1734, 1683
1328, 1482, 1521, 1458, 1508, 1761, 1800, 1737, 1787
1329, 1430, 1464, 1456, 1402, 1709, 1743, 1735, 1681
1330, 1639, 1522, 1491, 1489, 1918, 1801, 1770, 1768
1331, 1429, 1463, 1457, 1401, 1708, 1742, 1736, 1680
1332, 1634, 1479, 1462, 1460, 1913, 1758, 1741, 1739
1333, 1442, 1476, 1459, 1423, 1721, 1755, 1738, 1702
1334, 1483, 1480, 1477, 1445, 1762, 1759, 1756, 1724
1335, 1411, 1427, 1502, 1501, 1690, 1706, 1781, 1780
1336, 1456, 1464, 1491, 1494, 1735, 1743, 1770, 1773
1337, 1633, 1489, 1457, 1463, 1912, 1768, 1736, 1742
1338, 1466, 1432, 1403, 1512, 1745, 1711, 1682, 1791
1339, 1548, 1535, 1499, 1551, 1827, 1814, 1778, 1830
1340, 1558, 1516, 1484, 1488, 1837, 1795, 1763, 1767
1341, 1468, 1434, 1405, 1509, 1747, 1713, 1684, 1788
1342, 1448, 1454, 1485, 1486, 1727, 1733, 1764, 1765
1343, 1554, 1503, 1507, 1532, 1833, 1782, 1786, 1811
1344, 1470, 1506, 1530, 1553, 1749, 1785, 1809, 1832
1345, 1447, 1472, 1531, 1498, 1726, 1751, 1810, 1777
1346, 1586, 1486, 1485, 1518, 1865, 1765, 1764, 1797
1347, 1474, 1440, 1420, 1513, 1753, 1719, 1699, 1792
1348, 1621, 1577, 1625, 1615, 1900, 1856, 1904, 1894
1349, 1476, 1442, 1422, 1510, 1755, 1721, 1701, 1789
1350, 1575, 1655, 1563, 1637, 1854, 1934, 1842, 1916
1351, 1508, 1462, 1479, 1482, 1787, 1741, 1758, 1761
1352, 1445, 1459, 1487, 1483, 1724, 1738, 1766, 1762
1353, 1631, 1453, 1484, 1481, 1910, 1732, 1763, 1760
1354, 1464, 1457, 1489, 1491, 1743, 1736, 1768, 1770
1355, 1570, 1487, 1459, 1476, 1849, 1766, 1738, 1755
1356, 1493, 1534, 1468, 1509, 1772, 1813, 1747, 1788
1357, 1486, 1490, 1471, 1448, 1765, 1769, 1750, 1727
1358, 1496, 1492, 1475, 1446, 1775, 1771, 1754, 1725
1359, 1492, 1533, 1510, 1475, 1771, 1812, 1789, 1754
1360, 1509, 1467, 1495, 1493, 1788, 1746, 1774, 1772
1361, 1465, 1456, 1494, 1497, 1744, 1735, 1773, 1776
1362, 1512, 1465, 1497, 1500, 1791, 1744, 1776, 1779
1363, 1473, 1447, 1498, 1499, 1752, 1726, 1777, 1778
1364, 1546, 1533, 1492, 1547, 1825, 1812, 1771, 1826
1365, 1467, 1455, 1574, 1495, 1746, 1734, 1853, 1774
1366, 1524, 1550, 1534, 1493, 1803, 1829, 1813, 1772
1367, 1573, 1496, 1446, 1474, 1852, 1775, 1725, 1753
1368, 1550, 1558, 1488, 1534, 1829, 1837, 1767, 1813
1369, 1455, 1466, 1536, 1574, 1734, 1745, 1815, 1853
1370, 1525, 1573, 1535, 1548, 1804, 1852, 1814, 1827
1371, 1564, 1577, 1621, 1572, 1843, 1856, 1900, 1851
1372, 1499, 1535, 1513, 1473, 1778, 1814, 1792, 1752
1373, 1646, 1539, 1527, 1526, 1925, 1818, 1806, 1805
1374, 1461, 1478, 1520, 1505, 1740, 1757, 1799, 1784
1375, 1501, 1502, 1505, 1635, 1780, 1781, 1784, 1914
1376, 1507, 1503, 1410, 1409, 1786, 1782, 1689, 1688
1377, 1460, 1444, 1519, 1634, 1739, 1723, 1798, 1913
1378, 1463, 1458, 1521, 1633, 1742, 1737, 1800, 1912
1379, 1570, 1517, 1643, 1487, 1849, 1796, 1922, 1766
1380, 1521, 1482, 1542, 1648, 1800, 1761, 1821, 1927
1381, 1543, 1480, 1483, 1515, 1822, 1759, 1762, 1794
1382, 1636, 1481, 1484, 1516, 1915, 1760, 1763, 1795
1383, 1576, 1554, 1532, 1566, 1855, 1833, 1811, 1845
1384, 1517, 1570, 1533, 1546, 1796, 1849, 1812, 1825
1385, 1515, 1483, 1487, 1643, 1794, 1762, 1766, 1922
1386, 1641, 1490, 1486, 1586, 1920, 1769, 1765, 1865
1387, 1528, 1498, 1531, 1541, 1807, 1777, 1810, 1820
1388, 1635, 1529, 1504, 1501, 1914, 1808, 1783, 1780
1389, 1537, 1635, 1505, 1520, 1816, 1914, 1784, 1799
1390, 1523, 1522, 1647, 1538, 1802, 1801, 1926, 1817
1391, 1526, 1527, 1500, 1497, 1805, 1806, 1779, 1776
1392, 1552, 1549, 1574, 1536, 1831, 1828, 1853, 1815
1393, 1638, 1524, 1493, 1495, 1917, 1803, 1772, 1774
1394, 1650, 1593, 1580, 1559, 1929, 1872, 1859, 1838
1395, 1547, 1492, 1496, 1642, 1826, 1771, 1775, 1921
1396, 1665, 1594, 1597, 1599, 1944, 1873, 1876, 1878
1397, 1527, 1552, 1536, 1500, 1806, 1831, 1815, 1779
1398, 1561, 1548, 1551, 1660, 1840, 1827, 1830, 1939
1399, 1531, 1555, 1579, 1541, 1810, 1834, 1858, 1820
1400, 1551, 1499, 1498, 1528, 1830, 1778, 1777, 1807
1401, 1514, 1634, 1519, 1563, 1793, 1913, 1798, 1842
1402, 1450, 1569, 1452, 1451, 1729, 1848, 1731, 1730
1403, 1506, 1452, 1569, 1530, 1785, 1731, 1848, 1809
1404, 1490, 1555, 1511, 1471, 1769, 1834, 1790, 1750
1405, 1481, 1636, 1544, 1632, 1760, 1915, 1823, 1911
1406, 1569, 1450, 1503, 1554, 1848, 1729, 1782, 1833
1407, 1620, 1615, 1625, 1672, 1899, 1894, 1904, 1951
1408, 1575, 1637, 1537, 1610, 1854, 1916, 1816, 1889
1409, 1538, 1646, 1526, 1523, 1817, 1925, 1805, 1802
1410, 1539, 1564, 1552, 1527, 1818, 1843, 1831, 1806
1411, 1612, 1562, 1649, 1591, 1891, 1841, 1928, 1870
1412, 1540, 1648, 1556, 1639, 1819, 1927, 1835, 1918
1413, 1648, 1540, 1633, 1521, 1927, 1819, 1912, 1800
1414, 1590, 1557, 1528, 1541, 1869, 1836, 1807, 1820
1415, 1582, 1604, 1579, 1641, 1861, 1883, 1858, 1920
1416, 1595, 1542, 1640, 1514, 1874, 1821, 1919, 1793
1417, 1610, 1537, 1520, 1543, 1889, 1816, 1799, 1822
1418, 1562, 1612, 1566, 1544, 1841, 1891, 1845, 1823
1419, 1530, 1588, 1545, 1553, 1809, 1867, 1824, 1832
1420, 1582, 1518, 1545, 1567, 1861, 1797, 1824, 1846
1421, 1546, 1547, 1658, 1560, 1825, 1826, 1937, 1839
1422, 1584, 1565, 1643, 1517, 1863, 1844, 1922, 1796
1423, 1525, 1659, 1571, 1642, 1804, 1938, 1850, 1921
1424, 1550, 1524, 1645, 1559, 1829, 1803, 1924, 1838
1425, 1564, 1572, 1549, 1552, 1843, 1851, 1828, 1831
1426, 1588, 1607, 1602, 1603, 1867, 1886, 1881, 1882
1427, 1648, 1542, 1595, 1556, 1927, 1821, 1874, 1835
1428, 1568, 1572, 1621, 1657, 1847, 1851, 1900, 1936
1429, 1516, 1558, 1580, 1581, 1795, 1837, 1859, 1860
1430, 1559, 1580, 1558, 1550, 1838, 1859, 1837, 1829
1431, 1627, 1577, 1564, 1539, 1906, 1856, 1843, 1818
1432, 1571, 1658, 1547, 1642, 1850, 1937, 1826, 1921
1433, 1557, 1578, 1561, 1660, 1836, 1857, 1840, 1939
1434, 1589, 1571, 1659, 1561, 1868, 1850, 1938, 1840
1435, 1636, 1644, 1562, 1544, 1915, 1923, 1841, 1823
1436, 1612, 1607, 1576, 1566, 1891, 1886, 1855, 1845
1437, 1515, 1643, 1565, 1585, 1794, 1922, 1844, 1864
1438, 1594, 1665, 1585, 1565, 1873, 1944, 1864, 1844
1439, 1530, 1569, 1554, 1576, 1809, 1848, 1833, 1855
1440, 1607, 1588, 1530, 1576, 1886, 1867, 1809, 1855
1441, 1604, 1590, 1541, 1579, 1883, 1869, 1820, 1858
1442, 1572, 1568, 1638, 1549, 1851, 1847, 1917, 1828
1443, 1581, 1580, 1593, 1649, 1860, 1859, 1872, 1928
1444, 1642, 1496, 1573, 1525, 1921, 1775, 1852, 1804
1445, 1549, 1638, 1495, 1574, 1828, 1917, 1774, 1853
1446, 1657, 1583, 1645, 1568, 1936, 1862, 1924, 1847
1447, 1658, 1571, 1589, 1664, 1937, 1850, 1868, 1943
1448, 1599, 1610, 1543, 1665, 1878, 1889, 1822, 1944
1449, 1674, 1669, 1628, 1673, 1953, 1948, 1907, 1952
1450, 1661, 1625, 1577, 1627, 1940, 1904, 1856, 1906
1451, 1641, 1586, 1518, 1582, 1920, 1865, 1797, 1861
1452, 1636, 1516, 1581, 1644, 1915, 1795, 1860, 1923
1453, 1656, 1567, 1603, 1592, 1935, 1846, 1882, 1871
1454, 1609, 1616, 1592, 1630, 1888, 1895, 1871, 1909
1455, 1591, 1649, 1593, 1609, 1870, 1928, 1872, 1888
1456, 1587, 1650, 1583, 1657, 1866, 1929, 1862, 1936
1457, 1603, 1567, 1545, 1588, 1882, 1846, 1824, 1867
1458, 1601, 1589, 1561, 1578, 1880, 1868, 1840, 1857
1459, 1601, 1606, 1664, 1589, 1880, 1885, 1943, 1868
1460, 1604, 1613, 1605, 1590, 1883, 1892, 1884, 1869
1461, 1593, 1650, 1587, 1600, 1872, 1929, 1866, 1879
1462, 1630, 1602, 1591, 1609, 1909, 1881, 1870, 1888
1463, 1592, 1613, 1604, 1656, 1871, 1892, 1883, 1935
1464, 1605, 1611, 1601, 1578, 1884, 1890, 1880, 1857
1465, 1653, 1663, 1622, 1598, 1932, 1942, 1901, 1877
1466, 1614, 1594, 1565, 1584, 1893, 1873, 1844, 1863
1467, 1575, 1654, 1595, 1655, 1854, 1933, 1874, 1934
1468, 1653, 1598, 1647, 1556, 1932, 1877, 1926, 1835
1469, 1610, 1599, 1619, 1596, 1889, 1878, 1898, 1875
1470, 1610, 1596, 1654, 1575, 1889, 1875, 1933, 1854
1471, 1620, 1670, 1611, 1608, 1899, 1949, 1890, 1887
1472, 1628, 1597, 1594, 1614, 1907, 1876, 1873, 1893
1473, 1596, 1663, 1653, 1654, 1875, 1942, 1932, 1933
1474, 1665, 1543, 1515, 1585, 1944, 1822, 1794, 1864
1475, 1600, 1618, 1666, 1616, 1879, 1897, 1945, 1895
1476, 1587, 1608, 1618, 1600, 1866, 1887, 1897, 1879
1477, 1557, 1590, 1605, 1578, 1836, 1869, 1884, 1857
1478, 1667, 1622, 1619, 1623, 1946, 1901, 1898, 1902
1479, 1560, 1606, 1614, 1584, 1839, 1885, 1893, 1863
1480, 1591, 1602, 1607, 1612, 1870, 1881, 1886, 1891
1481, 1593, 1600, 1616, 1609, 1872, 1879, 1895, 1888
1482, 1611, 1617, 1606, 1601, 1890, 1896, 1885, 1880
1483, 1669, 1623, 1597, 1628, 1948, 1902, 1876, 1907
1484, 1592, 1603, 1602, 1630, 1871, 1882, 1881, 1909
1485, 1605, 1618, 1608, 1611, 1884, 1897, 1887, 1890
1486, 1599, 1597, 1623, 1619, 1878, 1876, 1902, 1898
1487, 1624, 1672, 1625, 1661, 1903, 1951, 1904, 1940
1488, 1620, 1608, 1587, 1615, 1899, 1887, 1866, 1894
1489, 1606, 1617, 1628, 1614, 1885, 1896, 1907, 1893
1490, 1613, 1666, 1618, 1605, 1892, 1945, 1897, 1884
1491, 1657, 1621, 1615, 1587, 1936, 1900, 1894, 1866
1492, 1596, 1619, 1622, 1663, 1875, 1898, 1901, 1942
1493, 1652, 1662, 1626, 1651, 1931, 1941, 1905, 1930
1494, 1673, 1624, 1668, 1674, 1952, 1903, 1947, 1953
1495, 1629, 1667, 1623, 1669, 1908, 1946, 1902, 1948
1496, 1624, 1673, 1671, 1672, 1903, 1952, 1950, 1951
1497, 1622, 1667, 1629, 1662, 1901, 1946, 1908, 1941
1498, 1629, 1668, 1626, 1662, 1908, 1947, 1905, 1941
1499, 1646, 1538, 1652, 1651, 1925, 1817, 1931, 1930
1500, 1539, 1646, 1651, 1627, 1818, 1925, 1930, 1906
1501, 1666, 1613, 1592, 1616, 1945, 1892, 1871, 1895
1502, 1540, 1639, 1489, 1633, 1819, 1918, 1768, 1912
1503, 1649, 1562, 1644, 1581, 1928, 1841, 1923, 1860
1504, 1563, 1519, 1529, 1637, 1842, 1798, 1808, 1916
1505, 1568, 1645, 1524, 1638, 1847, 1924, 1803, 1917
1506, 1556, 1647, 1522, 1639, 1835, 1926, 1801, 1918
1507, 1542, 1482, 1479, 1640, 1821, 1761, 1758, 1919
1508, 1579, 1555, 1490, 1641, 1858, 1834, 1769, 1920
1509, 1583, 1650, 1559, 1645, 1862, 1929, 1838, 1924
1510, 1598, 1652, 1538, 1647, 1877, 1931, 1817, 1926
1511, 1626, 1661, 1627, 1651, 1905, 1940, 1906, 1930
1512, 1654, 1653, 1556, 1595, 1933, 1932, 1835, 1874
1513, 1595, 1514, 1563, 1655, 1874, 1793, 1842, 1934
1514, 1656, 1604, 1582, 1567, 1935, 1883, 1861, 1846
1515, 1517, 1546, 1560, 1584, 1796, 1825, 1839, 1863
1516, 1658, 1664, 1606, 1560, 1937, 1943, 1885, 1839
1517, 1525, 1548, 1561, 1659, 1804, 1827, 1840, 1938
1518, 1551, 1528, 1557, 1660, 1830, 1807, 1836, 1939
1519, 1626, 1668, 1624, 1661, 1905, 1947, 1903, 1940
1520, 1652, 1598, 1622, 1662, 1931, 1877, 1901, 1941
1521, 1671, 1617, 1611, 1670, 1950, 1896, 1890, 1949
1522, 1628, 1617, 1671, 1673, 1907, 1896, 1950, 1952
1523, 1672, 1671, 1670, 1620, 1951, 1950, 1949, 1899
1524, 1668, 1629, 1669, 1674, 1947, 1908, 1948, 1953
1525, 1690, 1780, 1783, 1675, 1969, 2059, 2062, 1954
1526, 1808, 1798, 1723, 1783, 2087, 2077, 2002, 2062
1527, 1675, 1783, 1723, 1676, 1954, 2062, 2002, 1955
1528, 1739, 1677, 1676, 1723, 2018, 1956, 1955, 2002
1529, 1722, 1756, 1740, 1704, 2001, 2035, 2019, 1983
1530, 1679, 1737, 1742, 1708, 1958, 2016, 2021, 1987
1531, 1757, 1759, 1822, 1799, 2036, 2038, 2101, 2078
1532, 1789, 1701, 1720, 1754, 2068, 1980, 1999, 2033
1533, 1753, 1792, 1814, 1852, 2032, 2071, 2093, 2131
1534, 1792, 1699, 1718, 1752, 2071, 1978, 1997, 2031
1535, 1696, 1727, 1750, 1716, 1975, 2006, 2029, 1995
1536, 1790, 1697, 1716, 1750, 2069, 1976, 1995, 2029
1537, 1732, 1728, 1767, 1763, 2011, 2007, 2046, 2042
1538, 1692, 1730, 1731, 1693, 1971, 2009, 2010, 1972
1539, 1689, 1782, 1729, 1691, 1968, 2061, 2008, 1970
1540, 1730, 1692, 1691, 1729, 2009, 1971, 1970, 2008
1541, 1797, 1764, 1832, 1824, 2076, 2043, 2111, 2103
1542, 1785, 1694, 1693, 1731, 2064, 1973, 1972, 2010
1543, 1911, 1748, 1910, 1760, 2190, 2027, 2189, 2039
1544, 1823, 1845, 1811, 1911, 2102, 2124, 2090, 2190
1545, 1773, 1770, 1801, 1802, 2052, 2049, 2080, 2081
1546, 1746, 1712, 1683, 1734, 2025, 1991, 1962, 2013
1547, 1759, 1757, 1740, 1756, 2038, 2036, 2019, 2035
1548, 1744, 1710, 1681, 1735, 2023, 1989, 1960, 2014
1549, 1743, 1709, 1680, 1736, 2022, 1988, 1959, 2015
1550, 1758, 1913, 1793, 1919, 2037, 2192, 2072, 2198
1551, 1787, 1678, 1707, 1741, 2066, 1957, 1986, 2020
1552, 1808, 1914, 1816, 1916, 2087, 2193, 2095, 2195
1553, 1678, 1787, 1737, 1679, 1957, 2066, 2016, 1958
1554, 1791, 1682, 1710, 1744, 2070, 1961, 1989, 2023
1555, 1779, 1815, 1745, 1791, 2058, 2094, 2024, 2070
1556, 1788, 1684, 1712, 1746, 2067, 1963, 1991, 2025
1557, 1728, 1747, 1813, 1767, 2007, 2026, 2092, 2046
1558, 1732, 1910, 1714, 1686, 2011, 2189, 1993, 1965
1559, 1832, 1764, 1733, 1749, 2111, 2043, 2012, 2028
1560, 1751, 1717, 1697, 1790, 2030, 1996, 1976, 2069
1561, 1752, 1718, 1698, 1726, 2031, 1997, 1977, 2005
1562, 1754, 1720, 1700, 1725, 2033, 1999, 1979, 2004
1563, 1755, 1789, 1812, 1849, 2034, 2068, 2091, 2128
1564, 1724, 1703, 1702, 1738, 2003, 1982, 1981, 2017
1565, 1781, 1706, 1705, 1784, 2060, 1985, 1984, 2063
1566, 1784, 1705, 1704, 1740, 2063, 1984, 1983, 2019
1567, 1741, 1707, 1677, 1739, 2020, 1986, 1956, 2018
1568, 1756, 1722, 1703, 1724, 2035, 2001, 1982, 2003
1569, 1719, 1753, 1725, 1700, 1998, 2032, 2004, 1979
1570, 1717, 1751, 1726, 1698, 1996, 2030, 2005, 1977
1571, 1910, 1748, 1687, 1714, 2189, 2027, 1966, 1993
1572, 1695, 1733, 1727, 1696, 1974, 2012, 2006, 1975
1573, 1713, 1747, 1728, 1685, 1992, 2026, 2007, 1964
1574, 1732, 1686, 1685, 1728, 2011, 1965, 1964, 2007
1575, 1748, 1911, 1811, 1786, 2027, 2190, 2090, 2065
1576, 1749, 1715, 1694, 1785, 2028, 1994, 1973, 2064
1577, 1715, 1749, 1733, 1695, 1994, 2028, 2012, 1974
1578, 1748, 1786, 1688, 1687, 2027, 2065, 1967, 1966
1579, 1751, 1790, 1834, 1810, 2030, 2069, 2113, 2089
1580, 1802, 1805, 1776, 1773, 2081, 2084, 2055, 2052
1581, 1711, 1745, 1734, 1683, 1990, 2024, 2013, 1962
1582, 1761, 1800, 1737, 1787, 2040, 2079, 2016, 2066
1583, 1709, 1743, 1735, 1681, 1988, 2022, 2014, 1960
1584, 1918, 1801, 1770, 1768, 2197, 2080, 2049, 2047
1585, 1708, 1742, 1736, 1680, 1987, 2021, 2015, 1959
1586, 1913, 1758, 1741, 1739, 2192, 2037, 2020, 2018
1587, 1721, 1755, 1738, 1702, 2000, 2034, 2017, 1981
1588, 1762, 1759, 1756, 1724, 2041, 2038, 2035, 2003
1589, 1690, 1706, 1781, 1780, 1969, 1985, 2060, 2059
1590, 1735, 1743, 1770, 1773, 2014, 2022, 2049, 2052
1591, 1912, 1768, 1736, 1742, 2191, 2047, 2015, 2021
1592, 1745, 1711, 1682, 1791, 2024, 1990, 1961, 2070
1593, 1827, 1814, 1778, 1830, 2106, 2093, 2057, 2109
1594, 1837, 1795, 1763, 1767, 2116, 2074, 2042, 2046
1595, 1747, 1713, 1684, 1788, 2026, 1992, 1963, 2067
1596, 1727, 1733, 1764, 1765, 2006, 2012, 2043, 2044
1597, 1833, 1782, 1786, 1811, 2112, 2061, 2065, 2090
1598, 1749, 1785, 1809, 1832, 2028, 2064, 2088, 2111
1599, 1726, 1751, 1810, 1777, 2005, 2030, 2089, 2056
1600, 1865, 1765, 1764, 1797, 2144, 2044, 2043, 2076
1601, 1753, 1719, 1699, 1792, 2032, 1998, 1978, 2071
1602, 1900, 1856, 1904, 1894, 2179, 2135, 2183, 2173
1603, 1755, 1721, 1701, 1789, 2034, 2000, 1980, 2068
1604, 1854, 1934, 1842, 1916, 2133, 2213, 2121, 2195
1605, 1787, 1741, 1758, 1761, 2066, 2020, 2037, 2040
1606, 1724, 1738, 1766, 1762, 2003, 2017, 2045, 2041
1607, 1910, 1732, 1763, 1760, 2189, 2011, 2042, 2039
1608, 1743, 1736, 1768, 1770, 2022, 2015, 2047, 2049
1609, 1849, 1766, 1738, 1755, 2128, 2045, 2017, 2034
1610, 1772, 1813, 1747, 1788, 2051, 2092, 2026, 2067
1611, 1765, 1769, 1750, 1727, 2044, 2048, 2029, 2006
1612, 1775, 1771, 1754, 1725, 2054, 2050, 2033, 2004
1613, 1771, 1812, 1789, 1754, 2050, 2091, 2068, 2033
1614, 1788, 1746, 1774, 1772, 2067, 2025, 2053, 2051
1615, 1744, 1735, 1773, 1776, 2023, 2014, 2052, 2055
1616, 1791, 1744, 1776, 1779, 2070, 2023, 2055, 2058
1617, 1752, 1726, 1777, 1778, 2031, 2005, 2056, 2057
1618, 1825, 1812, 1771, 1826, 2104, 2091, 2050, 2105
1619, 1746, 1734, 1853, 1774, 2025, 2013, 2132, 2053
1620, 1803, 1829, 1813, 1772, 2082, 2108, 2092, 2051
1621, 1852, 1775, 1725, 1753, 2131, 2054, 2004, 2032
1622, 1829, 1837, 1767, 1813, 2108, 2116, 2046, 2092
1623, 1734, 1745, 1815, 1853, 2013, 2024, 2094, 2132
1624, 1804, 1852, 1814, 1827, 2083, 2131, 2093, 2106
1625, 1843, 1856, 1900, 1851, 2122, 2135, 2179, 2130
1626, 1778, 1814, 1792, 1752, 2057, 2093, 2071, 2031
1627, 1925, 1818, 1806, 1805, 2204, 2097, 2085, 2084
1628, 1740, 1757, 1799, 1784, 2019, 2036, 2078, 2063
1629, 1780, 1781, 1784, 1914, 2059, 2060, 2063, 2193
1630, 1786, 1782, 1689, 1688, 2065, 2061, 1968, 1967
1631, 1739, 1723, 1798, 1913, 2018, 2002, 2077, 2192
1632, 1742, 1737, 1800, 1912, 2021, 2016, 2079, 2191
1633, 1849, 1796, 1922, 1766, 2128, 2075, 2201, 2045
1634, 1800, 1761, 1821, 1927, 2079, 2040, 2100, 2206
1635, 1822, 1759, 1762, 1794, 2101, 2038, 2041, 2073
1636, 1915, 1760, 1763, 1795, 2194, 2039, 2042, 2074
1637, 1855, 1833, 1811, 1845, 2134, 2112, 2090, 2124
1638, 1796, 1849, 1812, 1825, 2075, 2128, 2091, 2104
1639, 1794, 1762, 1766, 1922, 2073, 2041, 2045, 2201
1640, 1920, 1769, 1765, 1865, 2199, 2048, 2044, 2144
1641, 1807, 1777, 1810, 1820, 2086, 2056, 2089, 2099
1642, 1914, 1808, 1783, 1780, 2193, 2087, 2062, 2059
1643, 1816, 1914, 1784, 1799, 2095, 2193, 2063, 2078
1644, 1802, 1801, 1926, 1817, 2081, 2080, 2205, 2096
1645, 1805, 1806, 1779, 1776, 2084, 2085, 2058, 2055
1646, 1831, 1828, 1853, 1815, 2110, 2107, 2132, 2094
1647, 1917, 1803, 1772, 1774, 2196, 2082, 2051, 2053
1648, 1929, 1872, 1859, 1838, 2208, 2151, 2138, 2117
1649, 1826, 1771, 1775, 1921, 2105, 2050, 2054, 2200
1650, 1944, 1873, 1876, 1878, 2223, 2152, 2155, 2157
1651, 1806, 1831, 1815, 1779, 2085, 2110, 2094, 2058
1652, 1840, 1827, 1830, 1939, 2119, 2106, 2109, 2218
1653, 1810, 1834, 1858, 1820, 2089, 2113, 2137, 2099
1654, 1830, 1778, 1777, 1807, 2109, 2057, 2056, 2086
1655, 1793, 1913, 1798, 1842, 2072, 2192, 2077, 2121
1656, 1729, 1848, 1731, 1730, 2008, 2127, 2010, 2009
1657, 1785, 1731, 1848, 1809, 2064, 2010, 2127, 2088
1658, 1769, 1834, 1790, 1750, 2048, 2113, 2069, 2029
1659, 1760, 1915, 1823, 1911, 2039, 2194, 2102, 2190
1660, 1848, 1729, 1782, 1833, 2127, 2008, 2061, 2112
1661, 1899, 1894, 1904, 1951, 2178, 2173, 2183, 2230
1662, 1854, 1916, 1816, 1889, 2133, 2195, 2095, 2168
1663, 1817, 1925, 1805, 1802, 2096, 2204, 2084, 2081
1664, 1818, 1843, 1831, 1806, 2097, 2122, 2110, 2085
1665, 1891, 1841, 1928, 1870, 2170, 2120, 2207, 2149
1666, 1819, 1927, 1835, 1918, 2098, 2206, 2114, 2197
1667, 1927, 1819, 1912, 1800, 2206, 2098, 2191, 2079
1668, 1869, 1836, 1807, 1820, 2148, 2115, 2086, 2099
1669, 1861, 1883, 1858, 1920, 2140, 2162, 2137, 2199
1670, 1874, 1821, 1919, 1793, 2153, 2100, 2198, 2072
1671, 1889, 1816, 1799, 1822, 2168, 2095, 2078, 2101
1672, 1841, 1891, 1845, 1823, 2120, 2170, 2124, 2102
1673, 1809, 1867, 1824, 1832, 2088, 2146, 2103, 2111
1674, 1861, 1797, 1824, 1846, 2140, 2076, 2103, 2125
1675, 1825, 1826, 1937, 1839, 2104, 2105, 2216, 2118
1676, 1863, 1844, 1922, 1796, 2142, 2123, 2201, 2075
1677, 1804, 1938, 1850, 1921, 2083, 2217, 2129, 2200
1678, 1829, 1803, 1924, 1838, 2108, 2082, 2203, 2117
1679, 1843, 1851, 1828, 1831, 2122, 2130, 2107, 2110
1680, 1867, 1886, 1881, 1882, 2146, 2165, 2160, 2161
1681, 1927, 1821, 1874, 1835, 2206, 2100, 2153, 2114
1682, 1847, 1851, 1900, 1936, 2126, 2130, 2179, 2215
1683, 1795, 1837, 1859, 1860, 2074, 2116, 2138, 2139
1684, 1838, 1859, 1837, 1829, 2117, 2138, 2116, 2108
1685, 1906, 1856, 1843, 1818, 2185, 2135, 2122, 2097
1686, 1850, 1937, 1826, 1921, 2129, 2216, 2105, 2200
1687, 1836, 1857, 1840, 1939, 2115, 2136, 2119, 2218
1688, 1868, 1850, 1938, 1840, 2147, 2129, 2217, 2119
1689, 1915, 1923, 1841, 1823, 2194, 2202, 2120, 2102
1690, 1891, 1886, 1855, 1845, 2170, 2165, 2134, 2124
1691, 1794, 1922, 1844, 1864, 2073, 2201, 2123, 2143
1692, 1873, 1944, 1864, 1844, 2152, 2223, 2143, 2123
1693, 1809, 1848, 1833, 1855, 2088, 2127, 2112, 2134
1694, 1886, 1867, 1809, 1855, 2165, 2146, 2088, 2134
1695, 1883, 1869, 1820, 1858, 2162, 2148, 2099, 2137
1696, 1851, 1847, 1917, 1828, 2130, 2126, 2196, 2107
1697, 1860, 1859, 1872, 1928, 2139, 2138, 2151, 2207
1698, 1921, 1775, 1852, 1804, 2200, 2054, 2131, 2083
1699, 1828, 1917, 1774, 1853, 2107, 2196, 2053, 2132
1700, 1936, 1862, 1924, 1847, 2215, 2141, 2203, 2126
1701, 1937, 1850, 1868, 1943, 2216, 2129, 2147, 2222
1702, 1878, 1889, 1822, 1944, 2157, 2168, 2101, 2223
1703, 1953, 1948, 1907, 1952, 2232, 2227, 2186, 2231
1704, 1940, 1904, 1856, 1906, 2219, 2183, 2135, 2185
1705, 1920, 1865, 1797, 1861, 2199, 2144, 2076, 2140
1706, 1915, 1795, 1860, 1923, 2194, 2074, 2139, 2202
1707, 1935, 1846, 1882, 1871, 2214, 2125, 2161, 2150
1708, 1888, 1895, 1871, 1909, 2167, 2174, 2150, 2188
1709, 1870, 1928, 1872, 1888, 2149, 2207, 2151, 2167
1710, 1866, 1929, 1862, 1936, 2145, 2208, 2141, 2215
1711, 1882, 1846, 1824, 1867, 2161, 2125, 2103, 2146
1712, 1880, 1868, 1840, 1857, 2159, 2147, 2119, 2136
1713, 1880, 1885, 1943, 1868, 2159, 2164, 2222, 2147
1714, 1883, 1892, 1884, 1869, 2162, 2171, 2163, 2148
1715, 1872, 1929, 1866, 1879, 2151, 2208, 2145, 2158
1716, 1909, 1881, 1870, 1888, 2188, 2160, 2149, 2167
1717, 1871, 1892, 1883, 1935, 2150, 2171, 2162, 2214
1718, 1884, 1890, 1880, 1857, 2163, 2169, 2159, 2136
1719, 1932, 1942, 1901, 1877, 2211, 2221, 2180, 2156
1720, 1893, 1873, 1844, 1863, 2172, 2152, 2123, 2142
1721, 1854, 1933, 1874, 1934, 2133, 2212, 2153, 2213
1722, 1932, 1877, 1926, 1835, 2211, 2156, 2205, 2114
1723, 1889, 1878, 1898, 1875, 2168, 2157, 2177, 2154
1724, 1889, 1875, 1933, 1854, 2168, 2154, 2212, 2133
1725, 1899, 1949, 1890, 1887, 2178, 2228, 2169, 2166
1726, 1907, 1876, 1873, 1893, 2186, 2155, 2152, 2172
1727, 1875, 1942, 1932, 1933, 2154, 2221, 2211, 2212
1728, 1944, 1822, 1794, 1864, 2223, 2101, 2073, 2143
1729, 1879, 1897, 1945, 1895, 2158, 2176, 2224, 2174
1730, 1866, 1887, 1897, 1879, 2145, 2166, 2176, 2158
1731, 1836, 1869, 1884, 1857, 2115, 2148, 2163, 2136
1732, 1946, 1901, 1898, 1902, 2225, 2180, 2177, 2181
1733, 1839, 1885, 1893, 1863, 2118, 2164, 2172, 2142
1734, 1870, 1881, 1886, 1891, 2149, 2160, 2165, 2170
1735, 1872, 1879, 1895, 1888, 2151, 2158, 2174, 2167
1736, 1890, 1896, 1885, 1880, 2169, 2175, 2164, 2159
1737, 1948, 1902, 1876, 1907, 2227, 2181, 2155, 2186
1738, 1871, 1882, 1881, 1909, 2150, 2161, 2160, 2188
1739, 1884, 1897, 1887, 1890, 2163, 2176, 2166, 2169
1740, 1878, 1876, 1902, 1898, 2157, 2155, 2181, 2177
1741, 1903, 1951, 1904, 1940, 2182, 2230, 2183, 2219
1742, 1899, 1887, 1866, 1894, 2178, 2166, 2145, 2173
1743, 1885, 1896, 1907, 1893, 2164, 2175, 2186, 2172
1744, 1892, 1945, 1897, 1884, 2171, 2224, 2176, 2163
1745, 1936, 1900, 1894, 1866, 2215, 2179, 2173, 2145
1746, 1875, 1898, 1901, 1942, 2154, 2177, 2180, 2221
1747, 1931, 1941, 1905, 1930, 2210, 2220, 2184, 2209
1748, 1952, 1903, 1947, 1953, 2231, 2182, 2226, 2232
1749, 1908, 1946, 1902, 1948, 2187, 2225, 2181, 2227
1750, 1903, 1952, 1950, 1951, 2182, 2231, 2229, 2230
1751, 1901, 1946, 1908, 1941, 2180, 2225, 2187, 2220
1752, 1908, 1947, 1905, 1941, 2187, 2226, 2184, 2220
1753, 1925, 1817, 1931, 1930, 2204, 2096, 2210, 2209
1754, 1818, 1925, 1930, 1906, 2097, 2204, 2209, 2185
1755, 1945, 1892, 1871, 1895, 2224, 2171, 2150, 2174
1756, 1819, 1918, 1768, 1912, 2098, 2197, 2047, 2191
1757, 1928, 1841, 1923, 1860, 2207, 2120, 2202, 2139
1758, 1842, 1798, 1808, 1916, 2121, 2077, 2087, 2195
1759, 1847, 1924, 1803, 1917, 2126, 2203, 2082, 2196
1760, 1835, 1926, 1801, 1918, 2114, 2205, 2080, 2197
1761, 1821, 1761, 1758, 1919, 2100, 2040, 2037, 2198
1762, 1858, 1834, 1769, 1920, 2137, 2113, 2048, 2199
1763, 1862, 1929, 1838, 1924, 2141, 2208, 2117, 2203
1764, 1877, 1931, 1817, 1926, 2156, 2210, 2096, 2205
1765, 1905, 1940, 1906, 1930, 2184, 2219, 2185, 2209
1766, 1933, 1932, 1835, 1874, 2212, 2211, 2114, 2153
1767, 1874, 1793, 1842, 1934, 2153, 2072, 2121, 2213
1768, 1935, 1883, 1861, 1846, 2214, 2162, 2140, 2125
1769, 1796, 1825, 1839, 1863, 2075, 2104, 2118, 2142
1770, 1937, 1943, 1885, 1839, 2216, 2222, 2164, 2118
1771, 1804, 1827, 1840, 1938, 2083, 2106, 2119, 2217
1772, 1830, 1807, 1836, 1939, 2109, 2086, 2115, 2218
1773, 1905, 1947, 1903, 1940, 2184, 2226, 2182, 2219
1774, 1931, 1877, 1901, 1941, 2210, 2156, 2180, 2220
1775, 1950, 1896, 1890, 1949, 2229, 2175, 2169, 2228
1776, 1907, 1896, 1950, 1952, 2186, 2175, 2229, 2231
1777, 1951, 1950, 1949, 1899, 2230, 2229, 2228, 2178
1778, 1947, 1908, 1948, 1953, 2226, 2187, 2227, 2232
1779, 1969, 2059, 2062, 1954, 2248, 2338, 2341, 2233
1780, 2087, 2077, 2002, 2062, 2366, 2356, 2281, 2341
1781, 1954, 2062, 2002, 1955, 2233, 2341, 2281, 2234
1782, 2018, 1956, 1955, 2002, 2297, 2235, 2234, 2281
1783, 2001, 2035, 2019, 1983, 2280, 2314, 2298, 2262
1784, 1958, 2016, 2021, 1987, 2237, 2295, 2300, 2266
1785, 2036, 2038, 2101, 2078, 2315, 2317, 2380, 2357
1786, 2068, 1980, 1999, 2033, 2347, 2259, 2278, 2312
1787, 2032, 2071, 2093, 2131, 2311, 2350, 2372, 2410
1788, 2071, 1978, 1997, 2031, 2350, 2257, 2276, 2310
1789, 1975, 2006, 2029, 1995, 2254, 2285, 2308, 2274
1790, 2069, 1976, 1995, 2029, 2348, 2255, 2274, 2308
1791, 2011, 2007, 2046, 2042, 2290, 2286, 2325, 2321
1792, 1971, 2009, 2010, 1972, 2250, 2288, 2289, 2251
1793, 1968, 2061, 2008, 1970, 2247, 2340, 2287, 2249
1794, 2009, 1971, 1970, 2008, 2288, 2250, 2249, 2287
1795, 2076, 2043, 2111, 2103, 2355, 2322, 2390, 2382
1796, 2064, 1973, 1972, 2010, 2343, 2252, 2251, 2289
1797, 2190, 2027, 2189, 2039, 2469, 2306, 2468, 2318
1798, 2102, 2124, 2090, 2190, 2381, 2403, 2369, 2469
1799, 2052, 2049, 2080, 2081, 2331, 2328, 2359, 2360
1800, 2025, 1991, 1962, 2013, 2304, 2270, 2241, 2292
1801, 2038, 2036, 2019, 2035, 2317, 2315, 2298, 2314
1802, 2023, 1989, 1960, 2014, 2302, 2268, 2239, 2293
1803, 2022, 1988, 1959, 2015, 2301, 2267, 2238, 2294
1804, 2037, 2192, 2072, 2198, 2316, 2471, 2351, 2477
1805, 2066, 1957, 1986, 2020, 2345, 2236, 2265, 2299
1806, 2087, 2193, 2095, 2195, 2366, 2472, 2374, 2474
1807, 1957, 2066, 2016, 1958, 2236, 2345, 2295, 2237
1808, 2070, 1961, 1989, 2023, 2349, 2240, 2268, 2302
1809, 2058, 2094, 2024, 2070, 2337, 2373, 2303, 2349
1810, 2067, 1963, 1991, 2025, 2346, 2242, 2270, 2304
1811, 2007, 2026, 2092, 2046, 2286, 2305, 2371, 2325
1812, 2011, 2189, 1993, 1965, 2290, 2468, 2272, 2244
1813, 2111, 2043, 2012, 2028, 2390, 2322, 2291, 2307
1814, 2030, 1996, 1976, 2069, 2309, 2275, 2255, 2348
1815, 2031, 1997, 1977, 2005, 2310, 2276, 2256, 2284
1816, 2033, 1999, 1979, 2004, 2312, 2278, 2258, 2283
1817, 2034, 2068, 2091, 2128, 2313, 2347, 2370, 2407
1818, 2003, 1982, 1981, 2017, 2282, 2261, 2260, 2296
1819, 2060, 1985, 1984, 2063, 2339, 2264, 2263, 2342
1820, 2063, 1984, 1983, 2019, 2342, 2263, 2262, 2298
1821, 2020, 1986, 1956, 2018, 2299, 2265, 2235, 2297
1822, 2035, 2001, 1982, 2003, 2314, 2280, 2261, 2282
1823, 1998, 2032, 2004, 1979, 2277, 2311, 2283, 2258
1824, 1996, 2030, 2005, 1977, 2275, 2309, 2284, 2256
1825, 2189, 2027, 1966, 1993, 2468, 2306, 2245, 2272
1826, 1974, 2012, 2006, 1975, 2253, 2291, 2285, 2254
1827, 1992, 2026, 2007, 1964, 2271, 2305, 2286, 2243
1828, 2011, 1965, 1964, 2007, 2290, 2244, 2243, 2286
1829, 2027, 2190, 2090, 2065, 2306, 2469, 2369, 2344
1830, 2028, 1994, 1973, 2064, 2307, 2273, 2252, 2343
1831, 1994, 2028, 2012, 1974, 2273, 2307, 2291, 2253
1832, 2027, 2065, 1967, 1966, 2306, 2344, 2246, 2245
1833, 2030, 2069, 2113, 2089, 2309, 2348, 2392, 2368
1834, 2081, 2084, 2055, 2052, 2360, 2363, 2334, 2331
1835, 1990, 2024, 2013, 1962, 2269, 2303, 2292, 2241
1836, 2040, 2079, 2016, 2066, 2319, 2358, 2295, 2345
1837, 1988, 2022, 2014, 1960, 2267, 2301, 2293, 2239
1838, 2197, 2080, 2049, 2047, 2476, 2359, 2328, 2326
1839, 1987, 2021, 2015, 1959, 2266, 2300, 2294, 2238
1840, 2192, 2037, 2020, 2018, 2471, 2316, 2299, 2297
1841, 2000, 2034, 2017, 1981, 2279, 2313, 2296, 2260
1842, 2041, 2038, 2035, 2003, 2320, 2317, 2314, 2282
1843, 1969, 1985, 2060, 2059, 2248, 2264, 2339, 2338
1844, 2014, 2022, 2049, 2052, 2293, 2301, 2328, 2331
1845, 2191, 2047, 2015, 2021, 2470, 2326, 2294, 2300
1846, 2024, 1990, 1961, 2070, 2303, 2269, 2240, 2349
1847, 2106, 2093, 2057, 2109, 2385, 2372, 2336, 2388
1848, 2116, 2074, 2042, 2046, 2395, 2353, 2321, 2325
1849, 2026, 1992, 1963, 2067, 2305, 2271, 2242, 2346
1850, 2006, 2012, 2043, 2044, 2285, 2291, 2322, 2323
1851, 2112, 2061, 2065, 2090, 2391, 2340, 2344, 2369
1852, 2028, 2064, 2088, 2111, 2307, 2343, 2367, 2390
1853, 2005, 2030, 2089, 2056, 2284, 2309, 2368, 2335
1854, 2144, 2044, 2043, 2076, 2423, 2323, 2322, 2355
1855, 2032, 1998, 1978, 2071, 2311, 2277, 2257, 2350
1856, 2179, 2135, 2183, 2173, 2458, 2414, 2462, 2452
1857, 2034, 2000, 1980, 2068, 2313, 2279, 2259, 2347
1858, 2133, 2213, 2121, 2195, 2412, 2492, 2400, 2474
1859, 2066, 2020, 2037, 2040, 2345, 2299, 2316, 2319
1860, 2003, 2017, 2045, 2041, 2282, 2296, 2324, 2320
1861, 2189, 2011, 2042, 2039, 2468, 2290, 2321, 2318
1862, 2022, 2015, 2047, 2049, 2301, 2294, 2326, 2328
1863, 2128, 2045, 2017, 2034, 2407, 2324, 2296, 2313
1864, 2051, 2092, 2026, 2067, 2330, 2371, 2305, 2346
1865, 2044, 2048, 2029, 2006, 2323, 2327, 2308, 2285
1866, 2054, 2050, 2033, 2004, 2333, 2329, 2312, 2283
1867, 2050, 2091, 2068, 2033, 2329, 2370, 2347, 2312
1868, 2067, 2025, 2053, 2051, 2346, 2304, 2332, 2330
1869, 2023, 2014, 2052, 2055, 2302, 2293, 2331, 2334
1870, 2070, 2023, 2055, 2058, 2349, 2302, 2334, 2337
1871, 2031, 2005, 2056, 2057, 2310, 2284, 2335, 2336
1872, 2104, 2091, 2050, 2105, 2383, 2370, 2329, 2384
1873, 2025, 2013, 2132, 2053, 2304, 2292, 2411, 2332
1874, 2082, 2108, 2092, 2051, 2361, 2387, 2371, 2330
1875, 2131, 2054, 2004, 2032, 2410, 2333, 2283, 2311
1876, 2108, 2116, 2046, 2092, 2387, 2395, 2325, 2371
1877, 2013, 2024, 2094, 2132, 2292, 2303, 2373, 2411
1878, 2083, 2131, 2093, 2106, 2362, 2410, 2372, 2385
1879, 2122, 2135, 2179, 2130, 2401, 2414, 2458, 2409
1880, 2057, 2093, 2071, 2031, 2336, 2372, 2350, 2310
1881, 2204, 2097, 2085, 2084, 2483, 2376, 2364, 2363
1882, 2019, 2036, 2078, 2063, 2298, 2315, 2357, 2342
1883, 2059, 2060, 2063, 2193, 2338, 2339, 2342, 2472
1884, 2065, 2061, 1968, 1967, 2344, 2340, 2247, 2246
1885, 2018, 2002, 2077, 2192, 2297, 2281, 2356, 2471
1886, 2021, 2016, 2079, 2191, 2300, 2295, 2358, 2470
1887, 2128, 2075, 2201, 2045, 2407, 2354, 2480, 2324
1888, 2079, 2040, 2100, 2206, 2358, 2319, 2379, 2485
1889, 2101, 2038, 2041, 2073, 2380, 2317, 2320, 2352
1890, 2194, 2039, 2042, 2074, 2473, 2318, 2321, 2353
1891, 2134, 2112, 2090, 2124, 2413, 2391, 2369, 2403
1892, 2075, 2128, 2091, 2104, 2354, 2407, 2370, 2383
1893, 2073, 2041, 2045, 2201, 2352, 2320, 2324, 2480
1894, 2199, 2048, 2044, 2144, 2478, 2327, 2323, 2423
1895, 2086, 2056, 2089, 2099, 2365, 2335, 2368, 2378
1896, 2193, 2087, 2062, 2059, 2472, 2366, 2341, 2338
1897, 2095, 2193, 2063, 2078, 2374, 2472, 2342, 2357
1898, 2081, 2080, 2205, 2096, 2360, 2359, 2484, 2375
1899, 2084, 2085, 2058, 2055, 2363, 2364, 2337, 2334
1900, 2110, 2107, 2132, 2094, 2389, 2386, 2411, 2373
1901, 2196, 2082, 2051, 2053, 2475, 2361, 2330, 2332
1902, 2208, 2151, 2138, 2117, 2487, 2430, 2417, 2396
1903, 2105, 2050, 2054, 2200, 2384, 2329, 2333, 2479
1904, 2223, 2152, 2155, 2157, 2502, 2431, 2434, 2436
1905, 2085, 2110, 2094, 2058, 2364, 2389, 2373, 2337
1906, 2119, 2106, 2109, 2218, 2398, 2385, 2388, 2497
1907, 2089, 2113, 2137, 2099, 2368, 2392, 2416, 2378
1908, 2109, 2057, 2056, 2086, 2388, 2336, 2335, 2365
1909, 2072, 2192, 2077, 2121, 2351, 2471, 2356, 2400
1910, 2008, 2127, 2010, 2009, 2287, 2406, 2289, 2288
1911, 2064, 2010, 2127, 2088, 2343, 2289, 2406, 2367
1912, 2048, 2113, 2069, 2029, 2327, 2392, 2348, 2308
1913, 2039, 2194, 2102, 2190, 2318, 2473, 2381, 2469
1914, 2127, 2008, 2061, 2112, 2406, 2287, 2340, 2391
1915, 2178, 2173, 2183, 2230, 2457, 2452, 2462, 2509
1916, 2133, 2195, 2095, 2168, 2412, 2474, 2374, 2447
1917, 2096, 2204, 2084, 2081, 2375, 2483, 2363, 2360
1918, 2097, 2122, 2110, 2085, 2376, 2401, 2389, 2364
1919, 2170, 2120, 2207, 2149, 2449, 2399, 2486, 2428
1920, 2098, 2206, 2114, 2197, 2377, 2485, 2393, 2476
1921, 2206, 2098, 2191, 2079, 2485, 2377, 2470, 2358
1922, 2148, 2115, 2086, 2099, 2427, 2394, 2365, 2378
1923, 2140, 2162, 2137, 2199, 2419, 2441, 2416, 2478
1924, 2153, 2100, 2198, 2072, 2432, 2379, 2477, 2351
1925, 2168, 2095, 2078, 2101, 2447, 2374, 2357, 2380
1926, 2120, 2170, 2124, 2102, 2399, 2449, 2403, 2381
1927, 2088, 2146, 2103, 2111, 2367, 2425, 2382, 2390
1928, 2140, 2076, 2103, 2125, 2419, 2355, 2382, 2404
1929, 2104, 2105, 2216, 2118, 2383, 2384, 2495, 2397
1930, 2142, 2123, 2201, 2075, 2421, 2402, 2480, 2354
1931, 2083, 2217, 2129, 2200, 2362, 2496, 2408, 2479
1932, 2108, 2082, 2203, 2117, 2387, 2361, 2482, 2396
1933, 2122, 2130, 2107, 2110, 2401, 2409, 2386, 2389
1934, 2146, 2165, 2160, 2161, 2425, 2444, 2439, 2440
1935, 2206, 2100, 2153, 2114, 2485, 2379, 2432, 2393
1936, 2126, 2130, 2179, 2215, 2405, 2409, 2458, 2494
1937, 2074, 2116, 2138, 2139, 2353, 2395, 2417, 2418
1938, 2117, 2138, 2116, 2108, 2396, 2417, 2395, 2387
1939, 2185, 2135, 2122, 2097, 2464, 2414, 2401, 2376
1940, 2129, 2216, 2105, 2200, 2408, 2495, 2384, 2479
1941, 2115, 2136, 2119, 2218, 2394, 2415, 2398, 2497
1942, 2147, 2129, 2217, 2119, 2426, 2408, 2496, 2398
1943, 2194, 2202, 2120, 2102, 2473, 2481, 2399, 2381
1944, 2170, 2165, 2134, 2124, 2449, 2444, 2413, 2403
1945, 2073, 2201, 2123, 2143, 2352, 2480, 2402, 2422
1946, 2152, 2223, 2143, 2123, 2431, 2502, 2422, 2402
1947, 2088, 2127, 2112, 2134, 2367, 2406, 2391, 2413
1948, 2165, 2146, 2088, 2134, 2444, 2425, 2367, 2413
1949, 2162, 2148, 2099, 2137, 2441, 2427, 2378, 2416
1950, 2130, 2126, 2196, 2107, 2409, 2405, 2475, 2386
1951, 2139, 2138, 2151, 2207, 2418, 2417, 2430, 2486
1952, 2200, 2054, 2131, 2083, 2479, 2333, 2410, 2362
1953, 2107, 2196, 2053, 2132, 2386, 2475, 2332, 2411
1954, 2215, 2141, 2203, 2126, 2494, 2420, 2482, 2405
1955, 2216, 2129, 2147, 2222, 2495, 2408, 2426, 2501
1956, 2157, 2168, 2101, 2223, 2436, 2447, 2380, 2502
1957, 2232, 2227, 2186, 2231, 2511, 2506, 2465, 2510
1958, 2219, 2183, 2135, 2185, 2498, 2462, 2414, 2464
1959, 2199, 2144, 2076, 2140, 2478, 2423, 2355, 2419
1960, 2194, 2074, 2139, 2202, 2473, 2353, 2418, 2481
1961, 2214, 2125, 2161, 2150, 2493, 2404, 2440, 2429
1962, 2167, 2174, 2150, 2188, 2446, 2453, 2429, 2467
1963, 2149, 2207, 2151, 2167, 2428, 2486, 2430, 2446
1964, 2145, 2208, 2141, 2215, 2424, 2487, 2420, 2494
1965, 2161, 2125, 2103, 2146, 2440, 2404, 2382, 2425
1966, 2159, 2147, 2119, 2136, 2438, 2426, 2398, 2415
1967, 2159, 2164, 2222, 2147, 2438, 2443, 2501, 2426
1968, 2162, 2171, 2163, 2148, 2441, 2450, 2442, 2427
1969, 2151, 2208, 2145, 2158, 2430, 2487, 2424, 2437
1970, 2188, 2160, 2149, 2167, 2467, 2439, 2428, 2446
1971, 2150, 2171, 2162, 2214, 2429, 2450, 2441, 2493
1972, 2163, 2169, 2159, 2136, 2442, 2448, 2438, 2415
1973, 2211, 2221, 2180, 2156, 2490, 2500, 2459, 2435
1974, 2172, 2152, 2123, 2142, 2451, 2431, 2402, 2421
1975, 2133, 2212, 2153, 2213, 2412, 2491, 2432, 2492
1976, 2211, 2156, 2205, 2114, 2490, 2435, 2484, 2393
1977, 2168, 2157, 2177, 2154, 2447, 2436, 2456, 2433
1978, 2168, 2154, 2212, 2133, 2447, 2433, 2491, 2412
1979, 2178, 2228, 2169, 2166, 2457, 2507, 2448, 2445
1980, 2186, 2155, 2152, 2172, 2465, 2434, 2431, 2451
1981, 2154, 2221, 2211, 2212, 2433, 2500, 2490, 2491
1982, 2223, 2101, 2073, 2143, 2502, 2380, 2352, 2422
1983, 2158, 2176, 2224, 2174, 2437, 2455, 2503, 2453
1984, 2145, 2166, 2176, 2158, 2424, 2445, 2455, 2437
1985, 2115, 2148, 2163, 2136, 2394, 2427, 2442, 2415
1986, 2225, 2180, 2177, 2181, 2504, 2459, 2456, 2460
1987, 2118, 2164, 2172, 2142, 2397, 2443, 2451, 2421
1988, 2149, 2160, 2165, 2170, 2428, 2439, 2444, 2449
1989, 2151, 2158, 2174, 2167, 2430, 2437, 2453, 2446
1990, 2169, 2175, 2164, 2159, 2448, 2454, 2443, 2438
1991, 2227, 2181, 2155, 2186, 2506, 2460, 2434, 2465
1992, 2150, 2161, 2160, 2188, 2429, 2440, 2439, 2467
1993, 2163, 2176, 2166, 2169, 2442, 2455, 2445, 2448
1994, 2157, 2155, 2181, 2177, 2436, 2434, 2460, 2456
1995, 2182, 2230, 2183, 2219, 2461, 2509, 2462, 2498
1996, 2178, 2166, 2145, 2173, 2457, 2445, 2424, 2452
1997, 2164, 2175, 2186, 2172, 2443, 2454, 2465, 2451
1998, 2171, 2224, 2176, 2163, 2450, 2503, 2455, 2442
1999, 2215, 2179, 2173, 2145, 2494, 2458, 2452, 2424
2000, 2154, 2177, 2180, 2221, 2433, 2456, 2459, 2500
2001, 2210, 2220, 2184, 2209, 2489, 2499, 2463, 2488
2002, 2231, 2182, 2226, 2232, 2510, 2461, 2505, 2511
2003, 2187, 2225, 2181, 2227, 2466, 2504, 2460, 2506
2004, 2182, 2231, 2229, 2230, 2461, 2510, 2508, 2509
2005, 2180, 2225, 2187, 2220, 2459, 2504, 2466, 2499
2006, 2187, 2226, 2184, 2220, 2466, 2505, 2463, 2499
2007, 2204, 2096, 2210, 2209, 2483, 2375, 2489, 2488
2008, 2097, 2204, 2209, 2185, 2376, 2483, 2488, 2464
2009, 2224, 2171, 2150, 2174, 2503, 2450, 2429, 2453
2010, 2098, 2197, 2047, 2191, 2377, 2476, 2326, 2470
2011, 2207, 2120, 2202, 2139, 2486, 2399, 2481, 2418
2012, 2121, 2077, 2087, 2195, 2400, 2356, 2366, 2474
2013, 2126, 2203, 2082, 2196, 2405, 2482, 2361, 2475
2014, 2114, 2205, 2080, 2197, 2393, 2484, 2359, 2476
2015, 2100, 2040, 2037, 2198, 2379, 2319, 2316, 2477
2016, 2137, 2113, 2048, 2199, 2416, 2392, 2327, 2478
2017, 2141, 2208, 2117, 2203, 2420, 2487, 2396, 2482
2018, 2156, 2210, 2096, 2205, 2435, 2489, 2375, 2484
2019, 2184, 2219, 2185, 2209, 2463, 2498, 2464, 2488
2020, 2212, 2211, 2114, 2153, 2491, 2490, 2393, 2432
2021, 2153, 2072, 2121, 2213, 2432, 2351, 2400, 2492
2022, 2214, 2162, 2140, 2125, 2493, 2441, 2419, 2404
2023, 2075, 2104, 2118, 2142, 2354, 2383, 2397, 2421
2024, 2216, 2222, 2164, 2118, 2495, 2501, 2443, 2397
2025, 2083, 2106, 2119, 2217, 2362, 2385, 2398, 2496
2026, 2109, 2086, 2115, 2218, 2388, 2365, 2394, 2497
2027, 2184, 2226, 2182, 2219, 2463, 2505, 2461, 2498
2028, 2210, 2156, 2180, 2220, 2489, 2435, 2459, 2499
2029, 2229, 2175, 2169, 2228, 2508, 2454, 2448, 2507
2030, 2186, 2175, 2229, 2231, 2465, 2454, 2508, 2510
2031, 2230, 2229, 2228, 2178, 2509, 2508, 2507, 2457
2032, 2226, 2187, 2227, 2232, 2505, 2466, 2506, 2511
2033, 2248, 2338, 2341, 2233, 2527, 2617, 2620, 2512
2034, 2366, 2356, 2281, 2341, 2645, 2635, 2560, 2620
2035, 2233, 2341, 2281, 2234, 2512, 2620, 2560, 2513
2036, 2297, 2235, 2234, 2281, 2576, 2514, 2513, 2560
2037, 2280, 2314, 2298, 2262, 2559, 2593, 2577, 2541
2038, 2237, 2295, 2300, 2266, 2516, 2574, 2579, 2545
2039, 2315, 2317, 2380, 2357, 2594, 2596, 2659, 2636
2040, 2347, 2259, 2278, 2312, 2626, 2538, 2557, 2591
2041, 2311, 2350, 2372, 2410, 2590, 2629, 2651, 2689
2042, 2350, 2257, 2276, 2310, 2629, 2536, 2555, 2589
2043, 2254, 2285, 2308, 2274, 2533, 2564, 2587, 2553
2044, 2348, 2255, 2274, 2308, 2627, 2534, 2553, 2587
2045, 2290, 2286, 2325, 2321, 2569, 2565, 2604, 2600
2046, 2250, 2288, 2289, 2251, 2529, 2567, 2568, 2530
2047, 2247, 2340, 2287, 2249, 2526, 2619, 2566, 2528
2048, 2288, 2250, 2249, 2287, 2567, 2529, 2528, 2566
2049, 2355, 2322, 2390, 2382, 2634, 2601, 2669, 2661
2050, 2343, 2252, 2251, 2289, 2622, 2531, 2530, 2568
2051, 2469, 2306, 2468, 2318, 2748, 2585, 2747, 2597
2052, 2381, 2403, 2369, 2469, 2660, 2682, 2648, 2748
2053, 2331, 2328, 2359, 2360, 2610, 2607, 2638, 2639
2054, 2304, 2270, 2241, 2292, 2583, 2549, 2520, 2571
2055, 2317, 2315, 2298, 2314, 2596, 2594, 2577, 2593
2056, 2302, 2268, 2239, 2293, 2581, 2547, 2518, 2572
2057, 2301, 2267, 2238, 2294, 2580, 2546, 2517, 2573
2058, 2316, 2471, 2351, 2477, 2595, 2750, 2630, 2756
2059, 2345, 2236, 2265, 2299, 2624, 2515, 2544, 2578
2060, 2366, 2472, 2374, 2474, 2645, 2751, 2653, 2753
2061, 2236, 2345, 2295, 2237, 2515, 2624, 2574, 2516
2062, 2349, 2240, 2268, 2302, 2628, 2519, 2547, 2581
2063, 2337, 2373, 2303, 2349, 2616, 2652, 2582, 2628
2064, 2346, 2242, 2270, 2304, 2625, 2521, 2549, 2583
2065, 2286, 2305, 2371, 2325, 2565, 2584, 2650, 2604
2066, 2290, 2468, 2272, 2244, 2569, 2747, 2551, 2523
2067, 2390, 2322, 2291, 2307, 2669, 2601, 2570, 2586
2068, 2309, 2275, 2255, 2348, 2588, 2554, 2534, 2627
2069, 2310, 2276, 2256, 2284, 2589, 2555, 2535, 2563
2070, 2312, 2278, 2258, 2283, 2591, 2557, 2537, 2562
2071, 2313, 2347, 2370, 2407, 2592, 2626, 2649, 2686
2072, 2282, 2261, 2260, 2296, 2561, 2540, 2539, 2575
2073, 2339, 2264, 2263, 2342, 2618, 2543, 2542, 2621
2074, 2342, 2263, 2262, 2298, 2621, 2542, 2541, 2577
2075, 2299, 2265, 2235, 2297, 2578, 2544, 2514, 2576
2076, 2314, 2280, 2261, 2282, 2593, 2559, 2540, 2561
2077, 2277, 2311, 2283, 2258, 2556, 2590, 2562, 2537
2078, 2275, 2309, 2284, 2256, 2554, 2588, 2563, 2535
2079, 2468, 2306, 2245, 2272, 2747, 2585, 2524, 2551
2080, 2253, 2291, 2285, 2254, 2532, 2570, 2564, 2533
2081, 2271, 2305, 2286, 2243, 2550, 2584, 2565, 2522
2082, 2290, 2244, 2243, 2286, 2569, 2523, 2522, 2565
2083, 2306, 2469, 2369, 2344, 2585, 2748, 2648, 2623
2084, 2307, 2273, 2252, 2343, 2586, 2552, 2531, 2622
2085, 2273, 2307, 2291, 2253, 2552, 2586, 2570, 2532
2086, 2306, 2344, 2246, 2245, 2585, 2623, 2525, 2524
2087, 2309, 2348, 2392, 2368, 2588, 2627, 2671, 2647
2088, 2360, 2363, 2334, 2331, 2639, 2642, 2613, 2610
2089, 2269, 2303, 2292, 2241, 2548, 2582, 2571, 2520
2090, 2319, 2358, 2295, 2345, 2598, 2637, 2574, 2624
2091, 2267, 2301, 2293, 2239, 2546, 2580, 2572, 2518
2092, 2476, 2359, 2328, 2326, 2755, 2638, 2607, 2605
2093, 2266, 2300, 2294, 2238, 2545, 2579, 2573, 2517
2094, 2471, 2316, 2299, 2297, 2750, 2595, 2578, 2576
2095, 2279, 2313, 2296, 2260, 2558, 2592, 2575, 2539
2096, 2320, 2317, 2314, 2282, 2599, 2596, 2593, 2561
2097, 2248, 2264, 2339, 2338, 2527, 2543, 2618, 2617
2098, 2293, 2301, 2328, 2331, 2572, 2580, 2607, 2610
2099, 2470, 2326, 2294, 2300, 2749, 2605, 2573, 2579
2100, 2303, 2269, 2240, 2349, 2582, 2548, 2519, 2628
2101, 2385, 2372, 2336, 2388, 2664, 2651, 2615, 2667
2102, 2395, 2353, 2321, 2325, 2674, 2632, 2600, 2604
2103, 2305, 2271, 2242, 2346, 2584, 2550, 2521, 2625
2104, 2285, 2291, 2322, 2323, 2564, 2570, 2601, 2602
2105, 2391, 2340, 2344, 2369, 2670, 2619, 2623, 2648
2106, 2307, 2343, 2367, 2390, 2586, 2622, 2646, 2669
2107, 2284, 2309, 2368, 2335, 2563, 2588, 2647, 2614
2108, 2423, 2323, 2322, 2355, 2702, 2602, 2601, 2634
2109, 2311, 2277, 2257, 2350, 2590, 2556, 2536, 2629
2110, 2458, 2414, 2462, 2452, 2737, 2693, 2741, 2731
2111, 2313, 2279, 2259, 2347, 2592, 2558, 2538, 2626
2112, 2412, 2492, 2400, 2474, 2691, 2771, 2679, 2753
2113, 2345, 2299, 2316, 2319, 2624, 2578, 2595, 2598
2114, 2282, 2296, 2324, 2320, 2561, 2575, 2603, 2599
2115, 2468, 2290, 2321, 2318, 2747, 2569, 2600, 2597
2116, 2301, 2294, 2326, 2328, 2580, 2573, 2605, 2607
2117, 2407, 2324, 2296, 2313, 2686, 2603, 2575, 2592
2118, 2330, 2371, 2305, 2346, 2609, 2650, 2584, 2625
2119, 2323, 2327, 2308, 2285, 2602, 2606, 2587, 2564
2120, 2333, 2329, 2312, 2283, 2612, 2608, 2591, 2562
2121, 2329, 2370, 2347, 2312, 2608, 2649, 2626, 2591
2122, 2346, 2304, 2332, 2330, 2625, 2583, 2611, 2609
2123, 2302, 2293, 2331, 2334, 2581, 2572, 2610, 2613
2124, 2349, 2302, 2334, 2337, 2628, 2581, 2613, 2616
2125, 2310, 2284, 2335, 2336, 2589, 2563, 2614, 2615
2126, 2383, 2370, 2329, 2384, 2662, 2649, 2608, 2663
2127, 2304, 2292, 2411, 2332, 2583, 2571, 2690, 2611
2128, 2361, 2387, 2371, 2330, 2640, 2666, 2650, 2609
2129, 2410, 2333, 2283, 2311, 2689, 2612, 2562, 2590
2130, 2387, 2395, 2325, 2371, 2666, 2674, 2604, 2650
2131, 2292, 2303, 2373, 2411, 2571, 2582, 2652, 2690
2132, 2362, 2410, 2372, 2385, 2641, 2689, 2651, 2664
2133, 2401, 2414, 2458, 2409, 2680, 2693, 2737, 2688
2134, 2336, 2372, 2350, 2310, 2615, 2651, 2629, 2589
2135, 2483, 2376, 2364, 2363, 2762, 2655, 2643, 2642
2136, 2298, 2315, 2357, 2342, 2577, 2594, 2636, 2621
2137, 2338, 2339, 2342, 2472, 2617, 2618, 2621, 2751
2138, 2344, 2340, 2247, 2246, 2623, 2619, 2526, 2525
2139, 2297, 2281, 2356, 2471, 2576, 2560, 2635, 2750
2140, 2300, 2295, 2358, 2470, 2579, 2574, 2637, 2749
2141, 2407, 2354, 2480, 2324, 2686, 2633, 2759, 2603
2142, 2358, 2319, 2379, 2485, 2637, 2598, 2658, 2764
2143, 2380, 2317, 2320, 2352, 2659, 2596, 2599, 2631
2144, 2473, 2318, 2321, 2353, 2752, 2597, 2600, 2632
2145, 2413, 2391, 2369, 2403, 2692, 2670, 2648, 2682
2146, 2354, 2407, 2370, 2383, 2633, 2686, 2649, 2662
2147, 2352, 2320, 2324, 2480, 2631, 2599, 2603, 2759
2148, 2478, 2327, 2323, 2423, 2757, 2606, 2602, 2702
2149, 2365, 2335, 2368, 2378, 2644, 2614, 2647, 2657
2150, 2472, 2366, 2341, 2338, 2751, 2645, 2620, 2617
2151, 2374, 2472, 2342, 2357, 2653, 2751, 2621, 2636
2152, 2360, 2359, 2484, 2375, 2639, 2638, 2763, 2654
2153, 2363, 2364, 2337, 2334, 2642, 2643, 2616, 2613
2154, 2389, 2386, 2411, 2373, 2668, 2665, 2690, 2652
2155, 2475, 2361, 2330, 2332, 2754, 2640, 2609, 2611
2156, 2487, 2430, 2417, 2396, 2766, 2709, 2696, 2675
2157, 2384, 2329, 2333, 2479, 2663, 2608, 2612, 2758
2158, 2502, 2431, 2434, 2436, 2781, 2710, 2713, 2715
2159, 2364, 2389, 2373, 2337, 2643, 2668, 2652, 2616
2160, 2398, 2385, 2388, 2497, 2677, 2664, 2667, 2776
2161, 2368, 2392, 2416, 2378, 2647, 2671, 2695, 2657
2162, 2388, 2336, 2335, 2365, 2667, 2615, 2614, 2644
2163, 2351, 2471, 2356, 2400, 2630, 2750, 2635, 2679
2164, 2287, 2406, 2289, 2288, 2566, 2685, 2568, 2567
2165, 2343, 2289, 2406, 2367, 2622, 2568, 2685, 2646
2166, 2327, 2392, 2348, 2308, 2606, 2671, 2627, 2587
2167, 2318, 2473, 2381, 2469, 2597, 2752, 2660, 2748
2168, 2406, 2287, 2340, 2391, 2685, 2566, 2619, 2670
2169, 2457, 2452, 2462, 2509, 2736, 2731, 2741, 2788
2170, 2412, 2474, 2374, 2447, 2691, 2753, 2653, 2726
2171, 2375, 2483, 2363, 2360, 2654, 2762, 2642, 2639
2172, 2376, 2401, 2389, 2364, 2655, 2680, 2668, 2643
2173, 2449, 2399, 2486, 2428, 2728, 2678, 2765, 2707
2174, 2377, 2485, 2393, 2476, 2656, 2764, 2672, 2755
2175, 2485, 2377, 2470, 2358, 2764, 2656, 2749, 2637
2176, 2427, 2394, 2365, 2378, 2706, 2673, 2644, 2657
2177, 2419, 2441, 2416, 2478, 2698, 2720, 2695, 2757
2178, 2432, 2379, 2477, 2351, 2711, 2658, 2756, 2630
2179, 2447, 2374, 2357, 2380, 2726, 2653, 2636, 2659
2180, 2399, 2449, 2403, 2381, 2678, 2728, 2682, 2660
2181, 2367, 2425, 2382, 2390, 2646, 2704, 2661, 2669
2182, 2419, 2355, 2382, 2404, 2698, 2634, 2661, 2683
2183, 2383, 2384, 2495, 2397, 2662, 2663, 2774, 2676
2184, 2421, 2402, 2480, 2354, 2700, 2681, 2759, 2633
2185, 2362, 2496, 2408, 2479, 2641, 2775, 2687, 2758
2186, 2387, 2361, 2482, 2396, 2666, 2640, 2761, 2675
2187, 2401, 2409, 2386, 2389, 2680, 2688, 2665, 2668
2188, 2425, 2444, 2439, 2440, 2704, 2723, 2718, 2719
2189, 2485, 2379, 2432, 2393, 2764, 2658, 2711, 2672
2190, 2405, 2409, 2458, 2494, 2684, 2688, 2737, 2773
2191, 2353, 2395, 2417, 2418, 2632, 2674, 2696, 2697
2192, 2396, 2417, 2395, 2387, 2675, 2696, 2674, 2666
2193, 2464, 2414, 2401, 2376, 2743, 2693, 2680, 2655
2194, 2408, 2495, 2384, 2479, 2687, 2774, 2663, 2758
2195, 2394, 2415, 2398, 2497, 2673, 2694, 2677, 2776
2196, 2426, 2408, 2496, 2398, 2705, 2687, 2775, 2677
2197, 2473, 2481, 2399, 2381, 2752, 2760, 2678, 2660
2198, 2449, 2444, 2413, 2403, 2728, 2723, 2692, 2682
2199, 2352, 2480, 2402, 2422, 2631, 2759, 2681, 2701
2200, 2431, 2502, 2422, 2402, 2710, 2781, 2701, 2681
2201, 2367, 2406, 2391, 2413, 2646, 2685, 2670, 2692
2202, 2444, 2425, 2367, 2413, 2723, 2704, 2646, 2692
2203, 2441, 2427, 2378, 2416, 2720, 2706, 2657, 2695
2204, 2409, 2405, 2475, 2386, 2688, 2684, 2754, 2665
2205, 2418, 2417, 2430, 2486, 2697, 2696, 2709, 2765
2206, 2479, 2333, 2410, 2362, 2758, 2612, 2689, 2641
2207, 2386, 2475, 2332, 2411, 2665, 2754, 2611, 2690
2208, 2494, 2420, 2482, 2405, 2773, 2699, 2761, 2684
2209, 2495, 2408, 2426, 2501, 2774, 2687, 2705, 2780
2210, 2436, 2447, 2380, 2502, 2715, 2726, 2659, 2781
2211, 2511, 2506, 2465, 2510, 2790, 2785, 2744, 2789
2212, 2498, 2462, 2414, 2464, 2777, 2741, 2693, 2743
2213, 2478, 2423, 2355, 2419, 2757, 2702, 2634, 2698
2214, 2473, 2353, 2418, 2481, 2752, 2632, 2697, 2760
2215, 2493, 2404, 2440, 2429, 2772, 2683, 2719, 2708
2216, 2446, 2453, 2429, 2467, 2725, 2732, 2708, 2746
2217, 2428, 2486, 2430, 2446, 2707, 2765, 2709, 2725
2218, 2424, 2487, 2420, 2494, 2703, 2766, 2699, 2773
2219, 2440, 2404, 2382, 2425, 2719, 2683, 2661, 2704
2220, 2438, 2426, 2398, 2415, 2717, 2705, 2677, 2694
2221, 2438, 2443, 2501, 2426, 2717, 2722, 2780, 2705
2222, 2441, 2450, 2442, 2427, 2720, 2729, 2721, 2706
2223, 2430, 2487, 2424, 2437, 2709, 2766, 2703, 2716
2224, 2467, 2439, 2428, 2446, 2746, 2718, 2707, 2725
2225, 2429, 2450, 2441, 2493, 2708, 2729, 2720, 2772
2226, 2442, 2448, 2438, 2415, 2721, 2727, 2717, 2694
2227, 2490, 2500, 2459, 2435, 2769, 2779, 2738, 2714
2228, 2451, 2431, 2402, 2421, 2730, 2710, 2681, 2700
2229, 2412, 2491, 2432, 2492, 2691, 2770, 2711, 2771
2230, 2490, 2435, 2484, 2393, 2769, 2714, 2763, 2672
2231, 2447, 2436, 2456, 2433, 2726, 2715, 2735, 2712
2232, 2447, 2433, 2491, 2412, 2726, 2712, 2770, 2691
2233, 2457, 2507, 2448, 2445, 2736, 2786, 2727, 2724
2234, 2465, 2434, 2431, 2451, 2744, 2713, 2710, 2730
2235, 2433, 2500, 2490, 2491, 2712, 2779, 2769, 2770
2236, 2502, 2380, 2352, 2422, 2781, 2659, 2631, 2701
2237, 2437, 2455, 2503, 2453, 2716, 2734, 2782, 2732
2238, 2424, 2445, 2455, 2437, 2703, 2724, 2734, 2716
2239, 2394, 2427, 2442, 2415, 2673, 2706, 2721, 2694
2240, 2504, 2459, 2456, 2460, 2783, 2738, 2735, 2739
2241, 2397, 2443, 2451, 2421, 2676, 2722, 2730, 2700
2242, 2428, 2439, 2444, 2449, 2707, 2718, 2723, 2728
2243, 2430, 2437, 2453, 2446, 2709, 2716, 2732, 2725
2244, 2448, 2454, 2443, 2438, 2727, 2733, 2722, 2717
2245, 2506, 2460, 2434, 2465, 2785, 2739, 2713, 2744
2246, 2429, 2440, 2439, 2467, 2708, 2719, 2718, 2746
2247, 2442, 2455, 2445, 2448, 2721, 2734, 2724, 2727
2248, 2436, 2434, 2460, 2456, 2715, 2713, 2739, 2735
2249, 2461, 2509, 2462, 2498, 2740, 2788, 2741, 2777
2250, 2457, 2445, 2424, 2452, 2736, 2724, 2703, 2731
2251, 2443, 2454, 2465, 2451, 2722, 2733, 2744, 2730
2252, 2450, 2503, 2455, 2442, 2729, 2782, 2734, 2721
2253, 2494, 2458, 2452, 2424, 2773, 2737, 2731, 2703
2254, 2433, 2456, 2459, 2500, 2712, 2735, 2738, 2779
2255, 2489, 2499, 2463, 2488, 2768, 2778, 2742, 2767
2256, 2510, 2461, 2505, 2511, 2789, 2740, 2784, 2790
2257, 2466, 2504, 2460, 2506, 2745, 2783, 2739, 2785
2258, 2461, 2510, 2508, 2509, 2740, 2789, 2787, 2788
2259, 2459, 2504, 2466, 2499, 2738, 2783, 2745, 2778
2260, 2466, 2505, 2463, 2499, 2745, 2784, 2742, 2778
2261, 2483, 2375, 2489, 2488, 2762, 2654, 2768, 2767
2262, 2376, 2483, 2488, 2464, 2655, 2762, 2767, 2743
2263, 2503, 2450, 2429, 2453, 2782, 2729, 2708, 2732
2264, 2377, 2476, 2326, 2470, 2656, 2755, 2605, 2749
2265, 2486, 2399, 2481, 2418, 2765, 2678, 2760, 2697
2266, 2400, 2356, 2366, 2474, 2679, 2635, 2645, 2753
2267, 2405, 2482, 2361, 2475, 2684, 2761, 2640, 2754
2268, 2393, 2484, 2359, 2476, 2672, 2763, 2638, 2755
2269, 2379, 2319, 2316, 2477, 2658, 2598, 2595, 2756
2270, 2416, 2392, 2327, 2478, 2695, 2671, 2606, 2757
2271, 2420, 2487, 2396, 2482, 2699, 2766, 2675, 2761
2272, 2435, 2489, 2375, 2484, 2714, 2768, 2654, 2763
2273, 2463, 2498, 2464, 2488, 2742, 2777, 2743, 2767
2274, 2491, 2490, 2393, 2432, 2770, 2769, 2672, 2711
2275, 2432, 2351, 2400, 2492, 2711, 2630, 2679, 2771
2276, 2493, 2441, 2419, 2404, 2772, 2720, 2698, 2683
2277, 2354, 2383, 2397, 2421, 2633, 2662, 2676, 2700
2278, 2495, 2501, 2443, 2397, 2774, 2780, 2722, 2676
2279, 2362, 2385, 2398, 2496, 2641, 2664, 2677, 2775
2280, 2388, 2365, 2394, 2497, 2667, 2644, 2673, 2776
2281, 2463, 2505, 2461, 2498, 2742, 2784, 2740, 2777
2282, 2489, 2435, 2459, 2499, 2768, 2714, 2738, 2778
2283, 2508, 2454, 2448, 2507, 2787, 2733, 2727, 2786
2284, 2465, 2454, 2508, 2510, 2744, 2733, 2787, 2789
2285, 2509, 2508, 2507, 2457, 2788, 2787, 2786, 2736
2286, 2505, 2466, 2506, 2511, 2784, 2745, 2785, 2790
2287, 2527, 2617, 2620, 2512, 2806, 2896, 2899, 2791
2288, 2645, 2635, 2560, 2620, 2924, 2914, 2839, 2899
2289, 2512, 2620, 2560, 2513, 2791, 2899, 2839, 2792
2290, 2576, 2514, 2513, 2560, 2855, 2793, 2792, 2839
2291, 2559, 2593, 2577, 2541, 2838, 2872, 2856, 2820
2292, 2516, 2574, 2579, 2545, 2795, 2853, 2858, 2824
2293, 2594, 2596, 2659, 2636, 2873, 2875, 2938, 2915
2294, 2626, 2538, 2557, 2591, 2905, 2817, 2836, 2870
2295, 2590, 2629, 2651, 2689, 2869, 2908, 2930, 2968
2296, 2629, 2536, 2555, 2589, 2908, 2815, 2834, 2868
2297, 2533, 2564, 2587, 2553, 2812, 2843, 2866, 2832
2298, 2627, 2534, 2553, 2587, 2906, 2813, 2832, 2866
2299, 2569, 2565, 2604, 2600, 2848, 2844, 2883, 2879
2300, 2529, 2567, 2568, 2530, 2808, 2846, 2847, 2809
2301, 2526, 2619, 2566, 2528, 2805, 2898, 2845, 2807
2302, 2567, 2529, 2528, 2566, 2846, 2808, 2807, 2845
2303, 2634, 2601, 2669, 2661, 2913, 2880, 2948, 2940
2304, 2622, 2531, 2530, 2568, 2901, 2810, 2809, 2847
2305, 2748, 2585, 2747, 2597, 3027, 2864, 3026, 2876
2306, 2660, 2682, 2648, 2748, 2939, 2961, 2927, 3027
2307, 2610, 2607, 2638, 2639, 2889, 2886, 2917, 2918
2308, 2583, 2549, 2520, 2571, 2862, 2828, 2799, 2850
2309, 2596, 2594, 2577, 2593, 2875, 2873, 2856, 2872
2310, 2581, 2547, 2518, 2572, 2860, 2826, 2797, 2851
2311, 2580, 2546, 2517, 2573, 2859, 2825, 2796, 2852
2312, 2595, 2750, 2630, 2756, 2874, 3029, 2909, 3035
2313, 2624, 2515, 2544, 2578, 2903, 2794, 2823, 2857
2314, 2645, 2751, 2653, 2753, 2924, 3030, 2932, 3032
2315, 2515, 2624, 2574, 2516, 2794, 2903, 2853, 2795
2316, 2628, 2519, 2547, 2581, 2907, 2798, 2826, 2860
2317, 2616, 2652, 2582, 2628, 2895, 2931, 2861, 2907
2318, 2625, 2521, 2549, 2583, 2904, 2800, 2828, 2862
2319, 2565, 2584, 2650, 2604, 2844, 2863, 2929, 2883
2320, 2569, 2747, 2551, 2523, 2848, 3026, 2830, 2802
2321, 2669, 2601, 2570, 2586, 2948, 2880, 2849, 2865
2322, 2588, 2554, 2534, 2627, 2867, 2833, 2813, 2906
2323, 2589, 2555, 2535, 2563, 2868, 2834, 2814, 2842
2324, 2591, 2557, 2537, 2562, 2870, 2836, 2816, 2841
2325, 2592, 2626, 2649, 2686, 2871, 2905, 2928, 2965
2326, 2561, 2540, 2539, 2575, 2840, 2819, 2818, 2854
2327, 2618, 2543, 2542, 2621, 2897, 2822, 2821, 2900
2328, 2621, 2542, 2541, 2577, 2900, 2821, 2820, 2856
2329, 2578, 2544, 2514, 2576, 2857, 2823, 2793, 2855
2330, 2593, 2559, 2540, 2561, 2872, 2838, 2819, 2840
2331, 2556, 2590, 2562, 2537, 2835, 2869, 2841, 2816
2332, 2554, 2588, 2563, 2535, 2833, 2867, 2842, 2814
2333, 2747, 2585, 2524, 2551, 3026, 2864, 2803, 2830
2334, 2532, 2570, 2564, 2533, 2811, 2849, 2843, 2812
2335, 2550, 2584, 2565, 2522, 2829, 2863, 2844, 2801
2336, 2569, 2523, 2522, 2565, 2848, 2802, 2801, 2844
2337, 2585, 2748, 2648, 2623, 2864, 3027, 2927, 2902
2338, 2586, 2552, 2531, 2622, 2865, 2831, 2810, 2901
2339, 2552, 2586, 2570, 2532, 2831, 2865, 2849, 2811
2340, 2585, 2623, 2525, 2524, 2864, 2902, 2804, 2803
2341, 2588, 2627, 2671, 2647, 2867, 2906, 2950, 2926
2342, 2639, 2642, 2613, 2610, 2918, 2921, 2892, 2889
2343, 2548, 2582, 2571, 2520, 2827, 2861, 2850, 2799
2344, 2598, 2637, 2574, 2624, 2877, 2916, 2853, 2903
2345, 2546, 2580, 2572, 2518, 2825, 2859, 2851, 2797
2346, 2755, 2638, 2607, 2605, 3034, 2917, 2886, 2884
2347, 2545, 2579, 2573, 2517, 2824, 2858, 2852, 2796
2348, 2750, 2595, 2578, 2576, 3029, 2874, 2857, 2855
2349, 2558, 2592, 2575, 2539, 2837, 2871, 2854, 2818
2350, 2599, 2596, 2593, 2561, 2878, 2875, 2872, 2840
2351, 2527, 2543, 2618, 2617, 2806, 2822, 2897, 2896
2352, 2572, 2580, 2607, 2610, 2851, 2859, 2886, 2889
2353, 2749, 2605, 2573, 2579, 3028, 2884, 2852, 2858
2354, 2582, 2548, 2519, 2628, 2861, 2827, 2798, 2907
2355, 2664, 2651, 2615, 2667, 2943, 2930, 2894, 2946
2356, 2674, 2632, 2600, 2604, 2953, 2911, 2879, 2883
2357, 2584, 2550, 2521, 2625, 2863, 2829, 2800, 2904
2358, 2564, 2570, 2601, 2602, 2843, 2849, 2880, 2881
2359, 2670, 2619, 2623, 2648, 2949, 2898, 2902, 2927
2360, 2586, 2622, 2646, 2669, 2865, 2901, 2925, 2948
2361, 2563, 2588, 2647, 2614, 2842, 2867, 2926, 2893
2362, 2702, 2602, 2601, 2634, 2981, 2881, 2880, 2913
2363, 2590, 2556, 2536, 2629, 2869, 2835, 2815, 2908
2364, 2737, 2693, 2741, 2731, 3016, 2972, 3020, 3010
2365, 2592, 2558, 2538, 2626, 2871, 2837, 2817, 2905
2366, 2691, 2771, 2679, 2753, 2970, 3050, 2958, 3032
2367, 2624, 2578, 2595, 2598, 2903, 2857, 2874, 2877
2368, 2561, 2575, 2603, 2599, 2840, 2854, 2882, 2878
2369, 2747, 2569, 2600, 2597, 3026, 2848, 2879, 2876
2370, 2580, 2573, 2605, 2607, 2859, 2852, 2884, 2886
2371, 2686, 2603, 2575, 2592, 2965, 2882, 2854, 2871
2372, 2609, 2650, 2584, 2625, 2888, 2929, 2863, 2904
2373, 2602, 2606, 2587, 2564, 2881, 2885, 2866, 2843
2374, 2612, 2608, 2591, 2562, 2891, 2887, 2870, 2841
2375, 2608, 2649, 2626, 2591, 2887, 2928, 2905, 2870
2376, 2625, 2583, 2611, 2609, 2904, 2862, 2890, 2888
2377, 2581, 2572, 2610, 2613, 2860, 2851, 2889, 2892
2378, 2628, 2581, 2613, 2616, 2907, 2860, 2892, 2895
2379, 2589, 2563, 2614, 2615, 2868, 2842, 2893, 2894
2380, 2662, 2649, 2608, 2663, 2941, 2928, 2887, 2942
2381, 2583, 2571, 2690, 2611, 2862, 2850, 2969, 2890
2382, 2640, 2666, 2650, 2609, 2919, 2945, 2929, 2888
2383, 2689, 2612, 2562, 2590, 2968, 2891, 2841, 2869
2384, 2666, 2674, 2604, 2650, 2945, 2953, 2883, 2929
2385, 2571, 2582, 2652, 2690, 2850, 2861, 2931, 2969
2386, 2641, 2689, 2651, 2664, 2920, 2968, 2930, 2943
2387, 2680, 2693, 2737, 2688, 2959, 2972, 3016, 2967
2388, 2615, 2651, 2629, 2589, 2894, 2930, 2908, 2868
2389, 2762, 2655, 2643, 2642, 3041, 2934, 2922, 2921
2390, 2577, 2594, 2636, 2621, 2856, 2873, 2915, 2900
2391, 2617, 2618, 2621, 2751, 2896, 2897, 2900, 3030
2392, 2623, 2619, 2526, 2525, 2902, 2898, 2805, 2804
2393, 2576, 2560, 2635, 2750, 2855, 2839, 2914, 3029
2394, 2579, 2574, 2637, 2749, 2858, 2853, 2916, 3028
2395, 2686, 2633, 2759, 2603, 2965, 2912, 3038, 2882
2396, 2637, 2598, 2658, 2764, 2916, 2877, 2937, 3043
2397, 2659, 2596, 2599, 2631, 2938, 2875, 2878, 2910
2398, 2752, 2597, 2600, 2632, 3031, 2876, 2879, 2911
2399, 2692, 2670, 2648, 2682, 2971, 2949, 2927, 2961
2400, 2633, 2686, 2649, 2662, 2912, 2965, 2928, 2941
2401, 2631, 2599, 2603, 2759, 2910, 2878, 2882, 3038
2402, 2757, 2606, 2602, 2702, 3036, 2885, 2881, 2981
2403, 2644, 2614, 2647, 2657, 2923, 2893, 2926, 2936
2404, 2751, 2645, 2620, 2617, 3030, 2924, 2899, 2896
2405, 2653, 2751, 2621, 2636, 2932, 3030, 2900, 2915
2406, 2639, 2638, 2763, 2654, 2918, 2917, 3042, 2933
2407, 2642, 2643, 2616, 2613, 2921, 2922, 2895, 2892
2408, 2668, 2665, 2690, 2652, 2947, 2944, 2969, 2931
2409, 2754, 2640, 2609, 2611, 3033, 2919, 2888, 2890
2410, 2766, 2709, 2696, 2675, 3045, 2988, 2975, 2954
2411, 2663, 2608, 2612, 2758, 2942, 2887, 2891, 3037
2412, 2781, 2710, 2713, 2715, 3060, 2989, 2992, 2994
2413, 2643, 2668, 2652, 2616, 2922, 2947, 2931, 2895
2414, 2677, 2664, 2667, 2776, 2956, 2943, 2946, 3055
2415, 2647, 2671, 2695, 2657, 2926, 2950, 2974, 2936
2416, 2667, 2615, 2614, 2644, 2946, 2894, 2893, 2923
2417, 2630, 2750, 2635, 2679, 2909, 3029, 2914, 2958
2418, 2566, 2685, 2568, 2567, 2845, 2964, 2847, 2846
2419, 2622, 2568, 2685, 2646, 2901, 2847, 2964, 2925
2420, 2606, 2671, 2627, 2587, 2885, 2950, 2906, 2866
2421, 2597, 2752, 2660, 2748, 2876, 3031, 2939, 3027
2422, 2685, 2566, 2619, 2670, 2964, 2845, 2898, 2949
2423, 2736, 2731, 2741, 2788, 3015, 3010, 3020, 3067
2424, 2691, 2753, 2653, 2726, 2970, 3032, 2932, 3005
2425, 2654, 2762, 2642, 2639, 2933, 3041, 2921, 2918
2426, 2655, 2680, 2668, 2643, 2934, 2959, 2947, 2922
2427, 2728, 2678, 2765, 2707, 3007, 2957, 3044, 2986
2428, 2656, 2764, 2672, 2755, 2935, 3043, 2951, 3034
2429, 2764, 2656, 2749, 2637, 3043, 2935, 3028, 2916
2430, 2706, 2673, 2644, 2657, 2985, 2952, 2923, 2936
2431, 2698, 2720, 2695, 2757, 2977, 2999, 2974, 3036
2432, 2711, 2658, 2756, 2630, 2990, 2937, 3035, 2909
2433, 2726, 2653, 2636, 2659, 3005, 2932, 2915, 2938
2434, 2678, 2728, 2682, 2660, 2957, 3007, 2961, 2939
2435, 2646, 2704, 2661, 2669, 2925, 2983, 2940, 2948
2436, 2698, 2634, 2661, 2683, 2977, 2913, 2940, 2962
2437, 2662, 2663, 2774, 2676, 2941, 2942, 3053, 2955
2438, 2700, 2681, 2759, 2633, 2979, 2960, 3038, 2912
2439, 2641, 2775, 2687, 2758, 2920, 3054, 2966, 3037
2440, 2666, 2640, 2761, 2675, 2945, 2919, 3040, 2954
2441, 2680, 2688, 2665, 2668, 2959, 2967, 2944, 2947
2442, 2704, 2723, 2718, 2719, 2983, 3002, 2997, 2998
2443, 2764, 2658, 2711, 2672, 3043, 2937, 2990, 2951
2444, 2684, 2688, 2737, 2773, 2963, 2967, 3016, 3052
2445, 2632, 2674, 2696, 2697, 2911, 2953, 2975, 2976
2446, 2675, 2696, 2674, 2666, 2954, 2975, 2953, 2945
2447, 2743, 2693, 2680, 2655, 3022, 2972, 2959, 2934
2448, 2687, 2774, 2663, 2758, 2966, 3053, 2942, 3037
2449, 2673, 2694, 2677, 2776, 2952, 2973, 2956, 3055
2450, 2705, 2687, 2775, 2677, 2984, 2966, 3054, 2956
2451, 2752, 2760, 2678, 2660, 3031, 3039, 2957, 2939
2452, 2728, 2723, 2692, 2682, 3007, 3002, 2971, 2961
2453, 2631, 2759, 2681, 2701, 2910, 3038, 2960, 2980
2454, 2710, 2781, 2701, 2681, 2989, 3060, 2980, 2960
2455, 2646, 2685, 2670, 2692, 2925, 2964, 2949, 2971
2456, 2723, 2704, 2646, 2692, 3002, 2983, 2925, 2971
2457, 2720, 2706, 2657, 2695, 2999, 2985, 2936, 2974
2458, 2688, 2684, 2754, 2665, 2967, 2963, 3033, 2944
2459, 2697, 2696, 2709, 2765, 2976, 2975, 2988, 3044
2460, 2758, 2612, 2689, 2641, 3037, 2891, 2968, 2920
2461, 2665, 2754, 2611, 2690, 2944, 3033, 2890, 2969
2462, 2773, 2699, 2761, 2684, 3052, 2978, 3040, 2963
2463, 2774, 2687, 2705, 2780, 3053, 2966, 2984, 3059
2464, 2715, 2726, 2659, 2781, 2994, 3005, 2938, 3060
2465, 2790, 2785, 2744, 2789, 3069, 3064, 3023, 3068
2466, 2777, 2741, 2693, 2743, 3056, 3020, 2972, 3022
2467, 2757, 2702, 2634, 2698, 3036, 2981, 2913, 2977
2468, 2752, 2632, 2697, 2760, 3031, 2911, 2976, 3039
2469, 2772, 2683, 2719, 2708, 3051, 2962, 2998, 2987
2470, 2725, 2732, 2708, 2746, 3004, 3011, 2987, 3025
2471, 2707, 2765, 2709, 2725, 2986, 3044, 2988, 3004
2472, 2703, 2766, 2699, 2773, 2982, 3045, 2978, 3052
2473, 2719, 2683, 2661, 2704, 2998, 2962, 2940, 2983
2474, 2717, 2705, 2677, 2694, 2996, 2984, 2956, 2973
2475, 2717, 2722, 2780, 2705, 2996, 3001, 3059, 2984
2476, 2720, 2729, 2721, 2706, 2999, 3008, 3000, 2985
2477, 2709, 2766, 2703, 2716, 2988, 3045, 2982, 2995
2478, 2746, 2718, 2707, 2725, 3025, 2997, 2986, 3004
2479, 2708, 2729, 2720, 2772, 2987, 3008, 2999, 3051
2480, 2721, 2727, 2717, 2694, 3000, 3006, 2996, 2973
2481, 2769, 2779, 2738, 2714, 3048, 3058, 3017, 2993
2482, 2730, 2710, 2681, 2700, 3009, 2989, 2960, 2979
2483, 2691, 2770, 2711, 2771, 2970, 3049, 2990, 3050
2484, 2769, 2714, 2763, 2672, 3048, 2993, 3042, 2951
2485, 2726, 2715, 2735, 2712, 3005, 2994, 3014, 2991
2486, 2726, 2712, 2770, 2691, 3005, 2991, 3049, 2970
2487, 2736, 2786, 2727, 2724, 3015, 3065, 3006, 3003
2488, 2744, 2713, 2710, 2730, 3023, 2992, 2989, 3009
2489, 2712, 2779, 2769, 2770, 2991, 3058, 3048, 3049
2490, 2781, 2659, 2631, 2701, 3060, 2938, 2910, 2980
2491, 2716, 2734, 2782, 2732, 2995, 3013, 3061, 3011
2492, 2703, 2724, 2734, 2716, 2982, 3003, 3013, 2995
2493, 2673, 2706, 2721, 2694, 2952, 2985, 3000, 2973
2494, 2783, 2738, 2735, 2739, 3062, 3017, 3014, 3018
2495, 2676, 2722, 2730, 2700, 2955, 3001, 3009, 2979
2496, 2707, 2718, 2723, 2728, 2986, 2997, 3002, 3007
2497, 2709, 2716, 2732, 2725, 2988, 2995, 3011, 3004
2498, 2727, 2733, 2722, 2717, 3006, 3012, 3001, 2996
2499, 2785, 2739, 2713, 2744, 3064, 3018, 2992, 3023
2500, 2708, 2719, 2718, 2746, 2987, 2998, 2997, 3025
2501, 2721, 2734, 2724, 2727, 3000, 3013, 3003, 3006
2502, 2715, 2713, 2739, 2735, 2994, 2992, 3018, 3014
2503, 2740, 2788, 2741, 2777, 3019, 3067, 3020, 3056
2504, 2736, 2724, 2703, 2731, 3015, 3003, 2982, 3010
2505, 2722, 2733, 2744, 2730, 3001, 3012, 3023, 3009
2506, 2729, 2782, 2734, 2721, 3008, 3061, 3013, 3000
2507, 2773, 2737, 2731, 2703, 3052, 3016, 3010, 2982
2508, 2712, 2735, 2738, 2779, 2991, 3014, 3017, 3058
2509, 2768, 2778, 2742, 2767, 3047, 3057, 3021, 3046
2510, 2789, 2740, 2784, 2790, 3068, 3019, 3063, 3069
2511, 2745, 2783, 2739, 2785, 3024, 3062, 3018, 3064
2512, 2740, 2789, 2787, 2788, 3019, 3068, 3066, 3067
2513, 2738, 2783, 2745, 2778, 3017, 3062, 3024, 3057
2514, 2745, 2784, 2742, 2778, 3024, 3063, 3021, 3057
2515, 2762, 2654, 2768, 2767, 3041, 2933, 3047, 3046
2516, 2655, 2762, 2767, 2743, 2934, 3041, 3046, 3022
2517, 2782, 2729, 2708, 2732, 3061, 3008, 2987, 3011
2518, 2656, 2755, 2605, 2749, 2935, 3034, 2884, 3028
2519, 2765, 2678, 2760, 2697, 3044, 2957, 3039, 2976
2520, 2679, 2635, 2645, 2753, 2958, 2914, 2924, 3032
2521, 2684, 2761, 2640, 2754, 2963, 3040, 2919, 3033
2522, 2672, 2763, 2638, 2755, 2951, 3042, 2917, 3034
2523, 2658, 2598, 2595, 2756, 2937, 2877, 2874, 3035
2524, 2695, 2671, 2606, 2757, 2974, 2950, 2885, 3036
2525, 2699, 2766, 2675, 2761, 2978, 3045, 2954, 3040
2526, 2714, 2768, 2654, 2763, 2993, 3047, 2933, 3042
2527, 2742, 2777, 2743, 2767, 3021, 3056, 3022, 3046
2528, 2770, 2769, 2672, 2711, 3049, 3048, 2951, 2990
2529, 2711, 2630, 2679, 2771, 2990, 2909, 2958, 3050
2530, 2772, 2720, 2698, 2683, 3051, 2999, 2977, 2962
2531, 2633, 2662, 2676, 2700, 2912, 2941, 2955, 2979
2532, 2774, 2780, 2722, 2676, 3053, 3059, 3001, 2955
2533, 2641, 2664, 2677, 2775, 2920, 2943, 2956, 3054
2534, 2667, 2644, 2673, 2776, 2946, 2923, 2952, 3055
2535, 2742, 2784, 2740, 2777, 3021, 3063, 3019, 3056
2536, 2768, 2714, 2738, 2778, 3047, 2993, 3017, 3057
2537, 2787, 2733, 2727, 2786, 3066, 3012, 3006, 3065
2538, 2744, 2733, 2787, 2789, 3023, 3012, 3066, 3068
2539, 2788, 2787, 2786, 2736, 3067, 3066, 3065, 3015
2540, 2784, 2745, 2785, 2790, 3063, 3024, 3064, 3069
2541, 2806, 2896, 2899, 2791, 3085, 3175, 3178, 3070
2542, 2924, 2914, 2839, 2899, 3203, 3193, 3118, 3178
2543, 2791, 2899, 2839, 2792, 3070, 3178, 3118, 3071
2544, 2855, 2793, 2792, 2839, 3134, 3072, 3071, 3118
2545, 2838, 2872, 2856, 2820, 3117, 3151, 3135, 3099
2546, 2795, 2853, 2858, 2824, 3074, 3132, 3137, 3103
2547, 2873, 2875, 2938, 2915, 3152, 3154, 3217, 3194
2548, 2905, 2817, 2836, 2870, 3184, 3096, 3115, 3149
2549, 2869, 2908, 2930, 2968, 3148, 3187, 3209, 3247
2550, 2908, 2815, 2834, 2868, 3187, 3094, 3113, 3147
2551, 2812, 2843, 2866, 2832, 3091, 3122, 3145, 3111
2552, 2906, 2813, 2832, 2866, 3185, 3092, 3111, 3145
2553, 2848, 2844, 2883, 2879, 3127, 3123, 3162, 3158
2554, 2808, 2846, 2847, 2809, 3087, 3125, 3126, 3088
2555, 2805, 2898, 2845, 2807, 3084, 3177, 3124, 3086
2556, 2846, 2808, 2807, 2845, 3125, 3087, 3086, 3124
2557, 2913, 2880, 2948, 2940, 3192, 3159, 3227, 3219
2558, 2901, 2810, 2809, 2847, 3180, 3089, 3088, 3126
2559, 3027, 2864, 3026, 2876, 3306, 3143, 3305, 3155
2560, 2939, 2961, 2927, 3027, 3218, 3240, 3206, 3306
2561, 2889, 2886, 2917, 2918, 3168, 3165, 3196, 3197
2562, 2862, 2828, 2799, 2850, 3141, 3107, 3078, 3129
2563, 2875, 2873, 2856, 2872, 3154, 3152, 3135, 3151
2564, 2860, 2826, 2797, 2851, 3139, 3105, 3076, 3130
2565, 2859, 2825, 2796, 2852, 3138, 3104, 3075, 3131
2566, 2874, 3029, 2909, 3035, 3153, 3308, 3188, 3314
2567, 2903, 2794, 2823, 2857, 3182, 3073, 3102, 3136
2568, 2924, 3030, 2932, 3032, 3203, 3309, 3211, 3311
2569, 2794, 2903, 2853, 2795, 3073, 3182, 3132, 3074
2570, 2907, 2798, 2826, 2860, 3186, 3077, 3105, 3139
2571, 2895, 2931, 2861, 2907, 3174, 3210, 3140, 3186
2572, 2904, 2800, 2828, 2862, 3183, 3079, 3107, 3141
2573, 2844, 2863, 2929, 2883, 3123, 3142, 3208, 3162
2574, 2848, 3026, 2830, 2802, 3127, 3305, 3109, 3081
2575, 2948, 2880, 2849, 2865, 3227, 3159, 3128, 3144
2576, 2867, 2833, 2813, 2906, 3146, 3112, 3092, 3185
2577, 2868, 2834, 2814, 2842, 3147, 3113, 3093, 3121
2578, 2870, 2836, 2816, 2841, 3149, 3115, 3095, 3120
2579, 2871, 2905, 2928, 2965, 3150, 3184, 3207, 3244
2580, 2840, 2819, 2818, 2854, 3119, 3098, 3097, 3133
2581, 2897, 2822, 2821, 2900, 3176, 3101, 3100, 3179
2582, 2900, 2821, 2820, 2856, 3179, 3100, 3099, 3135
2583, 2857, 2823, 2793, 2855, 3136, 3102, 3072, 3134
2584, 2872, 2838, 2819, 2840, 3151, 3117, 3098, 3119
2585, 2835, 2869, 2841, 2816, 3114, 3148, 3120, 3095
2586, 2833, 2867, 2842, 2814, 3112, 3146, 3121, 3093
2587, 3026, 2864, 2803, 2830, 3305, 3143, 3082, 3109
2588, 2811, 2849, 2843, 2812, 3090, 3128, 3122, 3091
2589, 2829, 2863, 2844, 2801, 3108, 3142, 3123, 3080
2590, 2848, 2802, 2801, 2844, 3127, 3081, 3080, 3123
2591, 2864, 3027, 2927, 2902, 3143, 3306, 3206, 3181
2592, 2865, 2831, 2810, 2901, 3144, 3110, 3089, 3180
2593, 2831, 2865, 2849, 2811, 3110, 3144, 3128, 3090
2594, 2864, 2902, 2804, 2803, 3143, 3181, 3083, 3082
2595, 2867, 2906, 2950, 2926, 3146, 3185, 3229, 3205
2596, 2918, 2921, 2892, 2889, 3197, 3200, 3171, 3168
2597, 2827, 2861, 2850, 2799, 3106, 3140, 3129, 3078
2598, 2877, 2916, 2853, 2903, 3156, 3195, 3132, 3182
2599, 2825, 2859, 2851, 2797, 3104, 3138, 3130, 3076
2600, 3034, 2917, 2886, 2884, 3313, 3196, 3165, 3163
2601, 2824, 2858, 2852, 2796, 3103, 3137, 3131, 3075
2602, 3029, 2874, 2857, 2855, 3308, 3153, 3136, 3134
2603, 2837, 2871, 2854, 2818, 3116, 3150, 3133, 3097
2604, 2878, 2875, 2872, 2840, 3157, 3154, 3151, 3119
2605, 2806, 2822, 2897, 2896, 3085, 3101, 3176, 3175
2606, 2851, 2859, 2886, 2889, 3130, 3138, 3165, 3168
2607, 3028, 2884, 2852, 2858, 3307, 3163, 3131, 3137
2608, 2861, 2827, 2798, 2907, 3140, 3106, 3077, 3186
2609, 2943, 2930, 2894, 2946, 3222, 3209, 3173, 3225
2610, 2953, 2911, 2879, 2883, 3232, 3190, 3158, 3162
2611, 2863, 2829, 2800, 2904, 3142, 3108, 3079, 3183
2612, 2843, 2849, 2880, 2881, 3122, 3128, 3159, 3160
2613, 2949, 2898, 2902, 2927, 3228, 3177, 3181, 3206
2614, 2865, 2901, 2925, 2948, 3144, 3180, 3204, 3227
2615, 2842, 2867, 2926, 2893, 3121, 3146, 3205, 3172
2616, 2981, 2881, 2880, 2913, 3260, 3160, 3159, 3192
2617, 2869, 2835, 2815, 2908, 3148, 3114, 3094, 3187
2618, 3016, 2972, 3020, 3010, 3295, 3251, 3299, 3289
2619, 2871, 2837, 2817, 2905, 3150, 3116, 3096, 3184
2620, 2970, 3050, 2958, 3032, 3249, 3329, 3237, 3311
2621, 2903, 2857, 2874, 2877, 3182, 3136, 3153, 3156
2622, 2840, 2854, 2882, 2878, 3119, 3133, 3161, 3157
2623, 3026, 2848, 2879, 2876, 3305, 3127, 3158, 3155
2624, 2859, 2852, 2884, 2886, 3138, 3131, 3163, 3165
2625, 2965, 2882, 2854, 2871, 3244, 3161, 3133, 3150
2626, 2888, 2929, 2863, 2904, 3167, 3208, 3142, 3183
2627, 2881, 2885, 2866, 2843, 3160, 3164, 3145, 3122
2628, 2891, 2887, 2870, 2841, 3170, 3166, 3149, 3120
2629, 2887, 2928, 2905, 2870, 3166, 3207, 3184, 3149
2630, 2904, 2862, 2890, 2888, 3183, 3141, 3169, 3167
2631, 2860, 2851, 2889, 2892, 3139, 3130, 3168, 3171
2632, 2907, 2860, 2892, 2895, 3186, 3139, 3171, 3174
2633, 2868, 2842, 2893, 2894, 3147, 3121, 3172, 3173
2634, 2941, 2928, 2887, 2942, 3220, 3207, 3166, 3221
2635, 2862, 2850, 2969, 2890, 3141, 3129, 3248, 3169
2636, 2919, 2945, 2929, 2888, 3198, 3224, 3208, 3167
2637, 2968, 2891, 2841, 2869, 3247, 3170, 3120, 3148
2638, 2945, 2953, 2883, 2929, 3224, 3232, 3162, 3208
2639, 2850, 2861, 2931, 2969, 3129, 3140, 3210, 3248
2640, 2920, 2968, 2930, 2943, 3199, 3247, 3209, 3222
2641, 2959, 2972, 3016, 2967, 3238, 3251, 3295, 3246
2642, 2894, 2930, 2908, 2868, 3173, 3209, 3187, 3147
2643, 3041, 2934, 2922, 2921, 3320, 3213, 3201, 3200
2644, 2856, 2873, 2915, 2900, 3135, 3152, 3194, 3179
2645, 2896, 2897, 2900, 3030, 3175, 3176, 3179, 3309
2646, 2902, 2898, 2805, 2804, 3181, 3177, 3084, 3083
2647, 2855, 2839, 2914, 3029, 3134, 3118, 3193, 3308
2648, 2858, 2853, 2916, 3028, 3137, 3132, 3195, 3307
2649, 2965, 2912, 3038, 2882, 3244, 3191, 3317, 3161
2650, 2916, 2877, 2937, 3043, 3195, 3156, 3216, 3322
2651, 2938, 2875, 2878, 2910, 3217, 3154, 3157, 3189
2652, 3031, 2876, 2879, 2911, 3310, 3155, 3158, 3190
2653, 2971, 2949, 2927, 2961, 3250, 3228, 3206, 3240
2654, 2912, 2965, 2928, 2941, 3191, 3244, 3207, 3220
2655, 2910, 2878, 2882, 3038, 3189, 3157, 3161, 3317
2656, 3036, 2885, 2881, 2981, 3315, 3164, 3160, 3260
2657, 2923, 2893, 2926, 2936, 3202, 3172, 3205, 3215
2658, 3030, 2924, 2899, 2896, 3309, 3203, 3178, 3175
2659, 2932, 3030, 2900, 2915, 3211, 3309, 3179, 3194
2660, 2918, 2917, 3042, 2933, 3197, 3196, 3321, 3212
2661, 2921, 2922, 2895, 2892, 3200, 3201, 3174, 3171
2662, 2947, 2944, 2969, 2931, 3226, 3223, 3248, 3210
2663, 3033, 2919, 2888, 2890, 3312, 3198, 3167, 3169
2664, 3045, 2988, 2975, 2954, 3324, 3267, 3254, 3233
2665, 2942, 2887, 2891, 3037, 3221, 3166, 3170, 3316
2666, 3060, 2989, 2992, 2994, 3339, 3268, 3271, 3273
2667, 2922, 2947, 2931, 2895, 3201, 3226, 3210, 3174
2668, 2956, 2943, 2946, 3055, 3235, 3222, 3225, 3334
2669, 2926, 2950, 2974, 2936, 3205, 3229, 3253, 3215
2670, 2946, 2894, 2893, 2923, 3225, 3173, 3172, 3202
2671, 2909, 3029, 2914, 2958, 3188, 3308, 3193, 3237
2672, 2845, 2964, 2847, 2846, 3124, 3243, 3126, 3125
2673, 2901, 2847, 2964, 2925, 3180, 3126, 3243, 3204
2674, 2885, 2950, 2906, 2866, 3164, 3229, 3185, 3145
2675, 2876, 3031, 2939, 3027, 3155, 3310, 3218, 3306
2676, 2964, 2845, 2898, 2949, 3243, 3124, 3177, 3228
2677, 3015, 3010, 3020, 3067, 3294, 3289, 3299, 3346
2678, 2970, 3032, 2932, 3005, 3249, 3311, 3211, 3284
2679, 2933, 3041, 2921, 2918, 3212, 3320, 3200, 3197
2680, 2934, 2959, 2947, 2922, 3213, 3238, 3226, 3201
2681, 3007, 2957, 3044, 2986, 3286, 3236, 3323, 3265
2682, 2935, 3043, 2951, 3034, 3214, 3322, 3230, 3313
2683, 3043, 2935, 3028, 2916, 3322, 3214, 3307, 3195
2684, 2985, 2952, 2923, 2936, 3264, 3231, 3202, 3215
2685, 2977, 2999, 2974, 3036, 3256, 3278, 3253, 3315
2686, 2990, 2937, 3035, 2909, 3269, 3216, 3314, 3188
2687, 3005, 2932, 2915, 2938, 3284, 3211, 3194, 3217
2688, 2957, 3007, 2961, 2939, 3236, 3286, 3240, 3218
2689, 2925, 2983, 2940, 2948, 3204, 3262, 3219, 3227
2690, 2977, 2913, 2940, 2962, 3256, 3192, 3219, 3241
2691, 2941, 2942, 3053, 2955, 3220, 3221, 3332, 3234
2692, 2979, 2960, 3038, 2912, 3258, 3239, 3317, 3191
2693, 2920, 3054, 2966, 3037, 3199, 3333, 3245, 3316
2694, 2945, 2919, 3040, 2954, 3224, 3198, 3319, 3233
2695, 2959, 2967, 2944, 2947, 3238, 3246, 3223, 3226
2696, 2983, 3002, 2997, 2998, 3262, 3281, 3276, 3277
2697, 3043, 2937, 2990, 2951, 3322, 3216, 3269, 3230
2698, 2963, 2967, 3016, 3052, 3242, 3246, 3295, 3331
2699, 2911, 2953, 2975, 2976, 3190, 3232, 3254, 3255
2700, 2954, 2975, 2953, 2945, 3233, 3254, 3232, 3224
2701, 3022, 2972, 2959, 2934, 3301, 3251, 3238, 3213
2702, 2966, 3053, 2942, 3037, 3245, 3332, 3221, 3316
2703, 2952, 2973, 2956, 3055, 3231, 3252, 3235, 3334
2704, 2984, 2966, 3054, 2956, 3263, 3245, 3333, 3235
2705, 3031, 3039, 2957, 2939, 3310, 3318, 3236, 3218
2706, 3007, 3002, 2971, 2961, 3286, 3281, 3250, 3240
2707, 2910, 3038, 2960, 2980, 3189, 3317, 3239, 3259
2708, 2989, 3060, 2980, 2960, 3268, 3339, 3259, 3239
2709, 2925, 2964, 2949, 2971, 3204, 3243, 3228, 3250
2710, 3002, 2983, 2925, 2971, 3281, 3262, 3204, 3250
2711, 2999, 2985, 2936, 2974, 3278, 3264, 3215, 3253
2712, 2967, 2963, 3033, 2944, 3246, 3242, 3312, 3223
2713, 2976, 2975, 2988, 3044, 3255, 3254, 3267, 3323
2714, 3037, 2891, 2968, 2920, 3316, 3170, 3247, 3199
2715, 2944, 3033, 2890, 2969, 3223, 3312, 3169, 3248
2716, 3052, 2978, 3040, 2963, 3331, 3257, 3319, 3242
2717, 3053, 2966, 2984, 3059, 3332, 3245, 3263, 3338
2718, 2994, 3005, 2938, 3060, 3273, 3284, 3217, 3339
2719, 3069, 3064, 3023, 3068, 3348, 3343, 3302, 3347
2720, 3056, 3020, 2972, 3022, 3335, 3299, 3251, 3301
2721, 3036, 2981, 2913, 2977, 3315, 3260, 3192, 3256
2722, 3031, 2911, 2976, 3039, 3310, 3190, 3255, 3318
2723, 3051, 2962, 2998, 2987, 3330, 3241, 3277, 3266
2724, 3004, 3011, 2987, 3025, 3283, 3290, 3266, 3304
2725, 2986, 3044, 2988, 3004, 3265, 3323, 3267, 3283
2726, 2982, 3045, 2978, 3052, 3261, 3324, 3257, 3331
2727, 2998, 2962, 2940, 2983, 3277, 3241, 3219, 3262
2728, 2996, 2984, 2956, 2973, 3275, 3263, 3235, 3252
2729, 2996, 3001, 3059, 2984, 3275, 3280, 3338, 3263
2730, 2999, 3008, 3000, 2985, 3278, 3287, 3279, 3264
2731, 2988, 3045, 2982, 2995, 3267, 3324, 3261, 3274
2732, 3025, 2997, 2986, 3004, 3304, 3276, 3265, 3283
2733, 2987, 3008, 2999, 3051, 3266, 3287, 3278, 3330
2734, 3000, 3006, 2996, 2973, 3279, 3285, 3275, 3252
2735, 3048, 3058, 3017, 2993, 3327, 3337, 3296, 3272
2736, 3009, 2989, 2960, 2979, 3288, 3268, 3239, 3258
2737, 2970, 3049, 2990, 3050, 3249, 3328, 3269, 3329
2738, 3048, 2993, 3042, 2951, 3327, 3272, 3321, 3230
2739, 3005, 2994, 3014, 2991, 3284, 3273, 3293, 3270
2740, 3005, 2991, 3049, 2970, 3284, 3270, 3328, 3249
2741, 3015, 3065, 3006, 3003, 3294, 3344, 3285, 3282
2742, 3023, 2992, 2989, 3009, 3302, 3271, 3268, 3288
2743, 2991, 3058, 3048, 3049, 3270, 3337, 3327, 3328
2744, 3060, 2938, 2910, 2980, 3339, 3217, 3189, 3259
2745, 2995, 3013, 3061, 3011, 3274, 3292, 3340, 3290
2746, 2982, 3003, 3013, 2995, 3261, 3282, 3292, 3274
2747, 2952, 2985, 3000, 2973, 3231, 3264, 3279, 3252
2748, 3062, 3017, 3014, 3018, 3341, 3296, 3293, 3297
2749, 2955, 3001, 3009, 2979, 3234, 3280, 3288, 3258
2750, 2986, 2997, 3002, 3007, 3265, 3276, 3281, 3286
2751, 2988, 2995, 3011, 3004, 3267, 3274, 3290, 3283
2752, 3006, 3012, 3001, 2996, 3285, 3291, 3280, 3275
2753, 3064, 3018, 2992, 3023, 3343, 3297, 3271, 3302
2754, 2987, 2998, 2997, 3025, 3266, 3277, 3276, 3304
2755, 3000, 3013, 3003, 3006, 3279, 3292, 3282, 3285
2756, 2994, 2992, 3018, 3014, 3273, 3271, 3297, 3293
2757, 3019, 3067, 3020, 3056, 3298, 3346, 3299, 3335
2758, 3015, 3003, 2982, 3010, 3294, 3282, 3261, 3289
2759, 3001, 3012, 3023, 3009, 3280, 3291, 3302, 3288
2760, 3008, 3061, 3013, 3000, 3287, 3340, 3292, 3279
2761, 3052, 3016, 3010, 2982, 3331, 3295, 3289, 3261
2762, 2991, 3014, 3017, 3058, 3270, 3293, 3296, 3337
2763, 3047, 3057, 3021, 3046, 3326, 3336, 3300, 3325
2764, 3068, 3019, 3063, 3069, 3347, 3298, 3342, 3348
2765, 3024, 3062, 3018, 3064, 3303, 3341, 3297, 3343
2766, 3019, 3068, 3066, 3067, 3298, 3347, 3345, 3346
2767, 3017, 3062, 3024, 3057, 3296, 3341, 3303, 3336
2768, 3024, 3063, 3021, 3057, 3303, 3342, 3300, 3336
2769, 3041, 2933, 3047, 3046, 3320, 3212, 3326, 3325
2770, 2934, 3041, 3046, 3022, 3213, 3320, 3325, 3301
2771, 3061, 3008, 2987, 3011, 3340, 3287, 3266, 3290
2772, 2935, 3034, 2884, 3028, 3214, 3313, 3163, 3307
2773, 3044, 2957, 3039, 2976, 3323, 3236, 3318, 3255
2774, 2958, 2914, 2924, 3032, 3237, 3193, 3203, 3311
2775, 2963, 3040, 2919, 3033, 3242, 3319, 3198, 3312
2776, 2951, 3042, 2917, 3034, 3230, 3321, 3196, 3313
2777, 2937, 2877, 2874, 3035, 3216, 3156, 3153, 3314
2778, 2974, 2950, 2885, 3036, 3253, 3229, 3164, 3315
2779, 2978, 3045, 2954, 3040, 3257, 3324, 3233, 3319
2780, 2993, 3047, 2933, 3042, 3272, 3326, 3212, 3321
2781, 3021, 3056, 3022, 3046, 3300, 3335, 3301, 3325
2782, 3049, 3048, 2951, 2990, 3328, 3327, 3230, 3269
2783, 2990, 2909, 2958, 3050, 3269, 3188, 3237, 3329
2784, 3051, 2999, 2977, 2962, 3330, 3278, 3256, 3241
2785, 2912, 2941, 2955, 2979, 3191, 3220, 3234, 3258
2786, 3053, 3059, 3001, 2955, 3332, 3338, 3280, 3234
2787, 2920, 2943, 2956, 3054, 3199, 3222, 3235, 3333
2788, 2946, 2923, 2952, 3055, 3225, 3202, 3231, 3334
2789, 3021, 3063, 3019, 3056, 3300, 3342, 3298, 3335
2790, 3047, 2993, 3017, 3057, 3326, 3272, 3296, 3336
2791, 3066, 3012, 3006, 3065, 3345, 3291, 3285, 3344
2792, 3023, 3012, 3066, 3068, 3302, 3291, 3345, 3347
2793, 3067, 3066, 3065, 3015, 3346, 3345, 3344, 3294
2794, 3063, 3024, 3064, 3069, 3342, 3303, 3343, 3348
2795, 3085, 3175, 3178, 3070, 3364, 3454, 3457, 3349
2796, 3203, 3193, 3118, 3178, 3482, 3472, 3397, 3457
2797, 3070, 3178, 3118, 3071, 3349, 3457, 3397, 3350
2798, 3134, 3072, 3071, 3118, 3413, 3351, 3350, 3397
2799, 3117, 3151, 3135, 3099, 3396, 3430, 3414, 3378
2800, 3074, 3132, 3137, 3103, 3353, 3411, 3416, 3382
2801, 3152, 3154, 3217, 3194, 3431, 3433, 3496, 3473
2802, 3184, 3096, 3115, 3149, 3463, 3375, 3394, 3428
2803, 3148, 3187, 3209, 3247, 3427, 3466, 3488, 3526
2804, 3187, 3094, 3113, 3147, 3466, 3373, 3392, 3426
2805, 3091, 3122, 3145, 3111, 3370, 3401, 3424, 3390
2806, 3185, 3092, 3111, 3145, 3464, 3371, 3390, 3424
2807, 3127, 3123, 3162, 3158, 3406, 3402, 3441, 3437
2808, 3087, 3125, 3126, 3088, 3366, 3404, 3405, 3367
2809, 3084, 3177, 3124, 3086, 3363, 3456, 3403, 3365
2810, 3125, 3087, 3086, 3124, 3404, 3366, 3365, 3403
2811, 3192, 3159, 3227, 3219, 3471, 3438, 3506, 3498
2812, 3180, 3089, 3088, 3126, 3459, 3368, 3367, 3405
2813, 3306, 3143, 3305, 3155, 3585, 3422, 3584, 3434
2814, 3218, 3240, 3206, 3306, 3497, 3519, 3485, 3585
2815, 3168, 3165, 3196, 3197, 3447, 3444, 3475, 3476
2816, 3141, 3107, 3078, 3129, 3420, 3386, 3357, 3408
2817, 3154, 3152, 3135, 3151, 3433, 3431, 3414, 3430
2818, 3139, 3105, 3076, 3130, 3418, 3384, 3355, 3409
2819, 3138, 3104, 3075, 3131, 3417, 3383, 3354, 3410
2820, 3153, 3308, 3188, 3314, 3432, 3587, 3467, 3593
2821, 3182, 3073, 3102, 3136, 3461, 3352, 3381, 3415
2822, 3203, 3309, 3211, 3311, 3482, 3588, 3490, 3590
2823, 3073, 3182, 3132, 3074, 3352, 3461, 3411, 3353
2824, 3186, 3077, 3105, 3139, 3465, 3356, 3384, 3418
2825, 3174, 3210, 3140, 3186, 3453, 3489, 3419, 3465
2826, 3183, 3079, 3107, 3141, 3462, 3358, 3386, 3420
2827, 3123, 3142, 3208, 3162, 3402, 3421, 3487, 3441
2828, 3127, 3305, 3109, 3081, 3406, 3584, 3388, 3360
2829, 3227, 3159, 3128, 3144, 3506, 3438, 3407, 3423
2830, 3146, 3112, 3092, 3185, 3425, 3391, 3371, 3464
2831, 3147, 3113, 3093, 3121, 3426, 3392, 3372, 3400
2832, 3149, 3115, 3095, 3120, 3428, 3394, 3374, 3399
2833, 3150, 3184, 3207, 3244, 3429, 3463, 3486, 3523
2834, 3119, 3098, 3097, 3133, 3398, 3377, 3376, 3412
2835, 3176, 3101, 3100, 3179, 3455, 3380, 3379, 3458
2836, 3179, 3100, 3099, 3135, 3458, 3379, 3378, 3414
2837, 3136, 3102, 3072, 3134, 3415, 3381, 3351, 3413
2838, 3151, 3117, 3098, 3119, 3430, 3396, 3377, 3398
2839, 3114, 3148, 3120, 3095, 3393, 3427, 3399, 3374
2840, 3112, 3146, 3121, 3093, 3391, 3425, 3400, 3372
2841, 3305, 3143, 3082, 3109, 3584, 3422, 3361, 3388
2842, 3090, 3128, 3122, 3091, 3369, 3407, 3401, 3370
2843, 3108, 3142, 3123, 3080, 3387, 3421, 3402, 3359
2844, 3127, 3081, 3080, 3123, 3406, 3360, 3359, 3402
2845, 3143, 3306, 3206, 3181, 3422, 3585, 3485, 3460
2846, 3144, 3110, 3089, 3180, 3423, 3389, 3368, 3459
2847, 3110, 3144, 3128, 3090, 3389, 3423, 3407, 3369
2848, 3143, 3181, 3083, 3082, 3422, 3460, 3362, 3361
2849, 3146, 3185, 3229, 3205, 3425, 3464, 3508, 3484
2850, 3197, 3200, 3171, 3168, 3476, 3479, 3450, 3447
2851, 3106, 3140, 3129, 3078, 3385, 3419, 3408, 3357
2852, 3156, 3195, 3132, 3182, 3435, 3474, 3411, 3461
2853, 3104, 3138, 3130, 3076, 3383, 3417, 3409, 3355
2854, 3313, 3196, 3165, 3163, 3592, 3475, 3444, 3442
2855, 3103, 3137, 3131, 3075, 3382, 3416, 3410, 3354
2856, 3308, 3153, 3136, 3134, 3587, 3432, 3415, 3413
2857, 3116, 3150, 3133, 3097, 3395, 3429, 3412, 3376
2858, 3157, 3154, 3151, 3119, 3436, 3433, 3430, 3398
2859, 3085, 3101, 3176, 3175, 3364, 3380, 3455, 3454
2860, 3130, 3138, 3165, 3168, 3409, 3417, 3444, 3447
2861, 3307, 3163, 3131, 3137, 3586, 3442, 3410, 3416
2862, 3140, 3106, 3077, 3186, 3419, 3385, 3356, 3465
2863, 3222, 3209, 3173, 3225, 3501, 3488, 3452, 3504
2864, 3232, 3190, 3158, 3162, 3511, 3469, 3437, 3441
2865, 3142, 3108, 3079, 3183, 3421, 3387, 3358, 3462
2866, 3122, 3128, 3159, 3160, 3401, 3407, 3438, 3439
2867, 3228, 3177, 3181, 3206, 3507, 3456, 3460, 3485
2868, 3144, 3180, 3204, 3227, 3423, 3459, 3483, 3506
2869, 3121, 3146, 3205, 3172, 3400, 3425, 3484, 3451
2870, 3260, 3160, 3159, 3192, 3539, 3439, 3438, 3471
2871, 3148, 3114, 3094, 3187, 3427, 3393, 3373, 3466
2872, 3295, 3251, 3299, 3289, 3574, 3530, 3578, 3568
2873, 3150, 3116, 3096, 3184, 3429, 3395, 3375, 3463
2874, 3249, 3329, 3237, 3311, 3528, 3608, 3516, 3590
2875, 3182, 3136, 3153, 3156, 3461, 3415, 3432, 3435
2876, 3119, 3133, 3161, 3157, 3398, 3412, 3440, 3436
2877, 3305, 3127, 3158, 3155, 3584, 3406, 3437, 3434
2878, 3138, 3131, 3163, 3165, 3417, 3410, 3442, 3444
2879, 3244, 3161, 3133, 3150, 3523, 3440, 3412, 3429
2880, 3167, 3208, 3142, 3183, 3446, 3487, 3421, 3462
2881, 3160, 3164, 3145, 3122, 3439, 3443, 3424, 3401
2882, 3170, 3166, 3149, 3120, 3449, 3445, 3428, 3399
2883, 3166, 3207, 3184, 3149, 3445, 3486, 3463, 3428
2884, 3183, 3141, 3169, 3167, 3462, 3420, 3448, 3446
2885, 3139, 3130, 3168, 3171, 3418, 3409, 3447, 3450
2886, 3186, 3139, 3171, 3174, 3465, 3418, 3450, 3453
2887, 3147, 3121, 3172, 3173, 3426, 3400, 3451, 3452
2888, 3220, 3207, 3166, 3221, 3499, 3486, 3445, 3500
2889, 3141, 3129, 3248, 3169, 3420, 3408, 3527, 3448
2890, 3198, 3224, 3208, 3167, 3477, 3503, 3487, 3446
2891, 3247, 3170, 3120, 3148, 3526, 3449, 3399, 3427
2892, 3224, 3232, 3162, 3208, 3503, 3511, 3441, 3487
2893, 3129, 3140, 3210, 3248, 3408, 3419, 3489, 3527
2894, 3199, 3247, 3209, 3222, 3478, 3526, 3488, 3501
2895, 3238, 3251, 3295, 3246, 3517, 3530, 3574, 3525
2896, 3173, 3209, 3187, 3147, 3452, 3488, 3466, 3426
2897, 3320, 3213, 3201, 3200, 3599, 3492, 3480, 3479
2898, 3135, 3152, 3194, 3179, 3414, 3431, 3473, 3458
2899, 3175, 3176, 3179, 3309, 3454, 3455, 3458, 3588
2900, 3181, 3177, 3084, 3083, 3460, 3456, 3363, 3362
2901, 3134, 3118, 3193, 3308, 3413, 3397, 3472, 3587
2902, 3137, 3132, 3195, 3307, 3416, 3411, 3474, 3586
2903, 3244, 3191, 3317, 3161, 3523, 3470, 3596, 3440
2904, 3195, 3156, 3216, 3322, 3474, 3435, 3495, 3601
2905, 3217, 3154, 3157, 3189, 3496, 3433, 3436, 3468
2906, 3310, 3155, 3158, 3190, 3589, 3434, 3437, 3469
2907, 3250, 3228, 3206, 3240, 3529, 3507, 3485, 3519
2908, 3191, 3244, 3207, 3220, 3470, 3523, 3486, 3499
2909, 3189, 3157, 3161, 3317, 3468, 3436, 3440, 3596
2910, 3315, 3164, 3160, 3260, 3594, 3443, 3439, 3539
2911, 3202, 3172, 3205, 3215, 3481, 3451, 3484, 3494
2912, 3309, 3203, 3178, 3175, 3588, 3482, 3457, 3454
2913, 3211, 3309, 3179, 3194, 3490, 3588, 3458, 3473
2914, 3197, 3196, 3321, 3212, 3476, 3475, 3600, 3491
2915, 3200, 3201, 3174, 3171, 3479, 3480, 3453, 3450
2916, 3226, 3223, 3248, 3210, 3505, 3502, 3527, 3489
2917, 3312, 3198, 3167, 3169, 3591, 3477, 3446, 3448
2918, 3324, 3267, 3254, 3233, 3603, 3546, 3533, 3512
2919, 3221, 3166, 3170, 3316, 3500, 3445, 3449, 3595
2920, 3339, 3268, 3271, 3273, 3618, 3547, 3550, 3552
2921, 3201, 3226, 3210, 3174, 3480, 3505, 3489, 3453
2922, 3235, 3222, 3225, 3334, 3514, 3501, 3504, 3613
2923, 3205, 3229, 3253, 3215, 3484, 3508, 3532, 3494
2924, 3225, 3173, 3172, 3202, 3504, 3452, 3451, 3481
2925, 3188, 3308, 3193, 3237, 3467, 3587, 3472, 3516
2926, 3124, 3243, 3126, 3125, 3403, 3522, 3405, 3404
2927, 3180, 3126, 3243, 3204, 3459, 3405, 3522, 3483
2928, 3164, 3229, 3185, 3145, 3443, 3508, 3464, 3424
2929, 3155, 3310, 3218, 3306, 3434, 3589, 3497, 3585
2930, 3243, 3124, 3177, 3228, 3522, 3403, 3456, 3507
2931, 3294, 3289, 3299, 3346, 3573, 3568, 3578, 3625
2932, 3249, 3311, 3211, 3284, 3528, 3590, 3490, 3563
2933, 3212, 3320, 3200, 3197, 3491, 3599, 3479, 3476
2934, 3213, 3238, 3226, 3201, 3492, 3517, 3505, 3480
2935, 3286, 3236, 3323, 3265, 3565, 3515, 3602, 3544
2936, 3214, 3322, 3230, 3313, 3493, 3601, 3509, 3592
2937, 3322, 3214, 3307, 3195, 3601, 3493, 3586, 3474
2938, 3264, 3231, 3202, 3215, 3543, 3510, 3481, 3494
2939, 3256, 3278, 3253, 3315, 3535, 3557, 3532, 3594
2940, 3269, 3216, 3314, 3188, 3548, 3495, 3593, 3467
2941, 3284, 3211, 3194, 3217, 3563, 3490, 3473, 3496
2942, 3236, 3286, 3240, 3218, 3515, 3565, 3519, 3497
2943, 3204, 3262, 3219, 3227, 3483, 3541, 3498, 3506
2944, 3256, 3192, 3219, 3241, 3535, 3471, 3498, 3520
2945, 3220, 3221, 3332, 3234, 3499, 3500, 3611, 3513
2946, 3258, 3239, 3317, 3191, 3537, 3518, 3596, 3470
2947, 3199, 3333, 3245, 3316, 3478, 3612, 3524, 3595
2948, 3224, 3198, 3319, 3233, 3503, 3477, 3598, 3512
2949, 3238, 3246, 3223, 3226, 3517, 3525, 3502, 3505
2950, 3262, 3281, 3276, 3277, 3541, 3560, 3555, 3556
2951, 3322, 3216, 3269, 3230, 3601, 3495, 3548, 3509
2952, 3242, 3246, 3295, 3331, 3521, 3525, 3574, 3610
2953, 3190, 3232, 3254, 3255, 3469, 3511, 3533, 3534
2954, 3233, 3254, 3232, 3224, 3512, 3533, 3511, 3503
2955, 3301, 3251, 3238, 3213, 3580, 3530, 3517, 3492
2956, 3245, 3332, 3221, 3316, 3524, 3611, 3500, 3595
2957, 3231, 3252, 3235, 3334, 3510, 3531, 3514, 3613
2958, 3263, 3245, 3333, 3235, 3542, 3524, 3612, 3514
2959, 3310, 3318, 3236, 3218, 3589, 3597, 3515, 3497
2960, 3286, 3281, 3250, 3240, 3565, 3560, 3529, 3519
2961, 3189, 3317, 3239, 3259, 3468, 3596, 3518, 3538
2962, 3268, 3339, 3259, 3239, 3547, 3618, 3538, 3518
2963, 3204, 3243, 3228, 3250, 3483, 3522, 3507, 3529
2964, 3281, 3262, 3204, 3250, 3560, 3541, 3483, 3529
2965, 3278, 3264, 3215, 3253, 3557, 3543, 3494, 3532
2966, 3246, 3242, 3312, 3223, 3525, 3521, 3591, 3502
2967, 3255, 3254, 3267, 3323, 3534, 3533, 3546, 3602
2968, 3316, 3170, 3247, 3199, 3595, 3449, 3526, 3478
2969, 3223, 3312, 3169, 3248, 3502, 3591, 3448, 3527
2970, 3331, 3257, 3319, 3242, 3610, 3536, 3598, 3521
2971, 3332, 3245, 3263, 3338, 3611, 3524, 3542, 3617
2972, 3273, 3284, 3217, 3339, 3552, 3563, 3496, 3618
2973, 3348, 3343, 3302, 3347, 3627, 3622, 3581, 3626
2974, 3335, 3299, 3251, 3301, 3614, 3578, 3530, 3580
2975, 3315, 3260, 3192, 3256, 3594, 3539, 3471, 3535
2976, 3310, 3190, 3255, 3318, 3589, 3469, 3534, 3597
2977, 3330, 3241, 3277, 3266, 3609, 3520, 3556, 3545
2978, 3283, 3290, 3266, 3304, 3562, 3569, 3545, 3583
2979, 3265, 3323, 3267, 3283, 3544, 3602, 3546, 3562
2980, 3261, 3324, 3257, 3331, 3540, 3603, 3536, 3610
2981, 3277, 3241, 3219, 3262, 3556, 3520, 3498, 3541
2982, 3275, 3263, 3235, 3252, 3554, 3542, 3514, 3531
2983, 3275, 3280, 3338, 3263, 3554, 3559, 3617, 3542
2984, 3278, 3287, 3279, 3264, 3557, 3566, 3558, 3543
2985, 3267, 3324, 3261, 3274, 3546, 3603, 3540, 3553
2986, 3304, 3276, 3265, 3283, 3583, 3555, 3544, 3562
2987, 3266, 3287, 3278, 3330, 3545, 3566, 3557, 3609
2988, 3279, 3285, 3275, 3252, 3558, 3564, 3554, 3531
2989, 3327, 3337, 3296, 3272, 3606, 3616, 3575, 3551
2990, 3288, 3268, 3239, 3258, 3567, 3547, 3518, 3537
2991, 3249, 3328, 3269, 3329, 3528, 3607, 3548, 3608
2992, 3327, 3272, 3321, 3230, 3606, 3551, 3600, 3509
2993, 3284, 3273, 3293, 3270, 3563, 3552, 3572, 3549
2994, 3284, 3270, 3328, 3249, 3563, 3549, 3607, 3528
2995, 3294, 3344, 3285, 3282, 3573, 3623, 3564, 3561
2996, 3302, 3271, 3268, 3288, 3581, 3550, 3547, 3567
2997, 3270, 3337, 3327, 3328, 3549, 3616, 3606, 3607
2998, 3339, 3217, 3189, 3259, 3618, 3496, 3468, 3538
2999, 3274, 3292, 3340, 3290, 3553, 3571, 3619, 3569
3000, 3261, 3282, 3292, 3274, 3540, 3561, 3571, 3553
3001, 3231, 3264, 3279, 3252, 3510, 3543, 3558, 3531
3002, 3341, 3296, 3293, 3297, 3620, 3575, 3572, 3576
3003, 3234, 3280, 3288, 3258, 3513, 3559, 3567, 3537
3004, 3265, 3276, 3281, 3286, 3544, 3555, 3560, 3565
3005, 3267, 3274, 3290, 3283, 3546, 3553, 3569, 3562
3006, 3285, 3291, 3280, 3275, 3564, 3570, 3559, 3554
3007, 3343, 3297, 3271, 3302, 3622, 3576, 3550, 3581
3008, 3266, 3277, 3276, 3304, 3545, 3556, 3555, 3583
3009, 3279, 3292, 3282, 3285, 3558, 3571, 3561, 3564
3010, 3273, 3271, 3297, 3293, 3552, 3550, 3576, 3572
3011, 3298, 3346, 3299, 3335, 3577, 3625, 3578, 3614
3012, 3294, 3282, 3261, 3289, 3573, 3561, 3540, 3568
3013, 3280, 3291, 3302, 3288, 3559, 3570, 3581, 3567
3014, 3287, 3340, 3292, 3279, 3566, 3619, 3571, 3558
3015, 3331, 3295, 3289, 3261, 3610, 3574, 3568, 3540
3016, 3270, 3293, 3296, 3337, 3549, 3572, 3575, 3616
3017, 3326, 3336, 3300, 3325, 3605, 3615, 3579, 3604
3018, 3347, 3298, 3342, 3348, 3626, 3577, 3621, 3627
3019, 3303, 3341, 3297, 3343, 3582, 3620, 3576, 3622
3020, 3298, 3347, 3345, 3346, 3577, 3626, 3624, 3625
3021, 3296, 3341, 3303, 3336, 3575, 3620, 3582, 3615
3022, 3303, 3342, 3300, 3336, 3582, 3621, 3579, 3615
3023, 3320, 3212, 3326, 3325, 3599, 3491, 3605, 3604
3024, 3213, 3320, 3325, 3301, 3492, 3599, 3604, 3580
3025, 3340, 3287, 3266, 3290, 3619, 3566, 3545, 3569
3026, 3214, 3313, 3163, 3307, 3493, 3592, 3442, 3586
3027, 3323, 3236, 3318, 3255, 3602, 3515, 3597, 3534
3028, 3237, 3193, 3203, 3311, 3516, 3472, 3482, 3590
3029, 3242, 3319, 3198, 3312, 3521, 3598, 3477, 3591
3030, 3230, 3321, 3196, 3313, 3509, 3600, 3475, 3592
3031, 3216, 3156, 3153, 3314, 3495, 3435, 3432, 3593
3032, 3253, 3229, 3164, 3315, 3532, 3508, 3443, 3594
3033, 3257, 3324, 3233, 3319, 3536, 3603, 3512, 3598
3034, 3272, 3326, 3212, 3321, 3551, 3605, 3491, 3600
3035, 3300, 3335, 3301, 3325, 3579, 3614, 3580, 3604
3036, 3328, 3327, 3230, 3269, 3607, 3606, 3509, 3548
3037, 3269, 3188, 3237, 3329, 3548, 3467, 3516, 3608
3038, 3330, 3278, 3256, 3241, 3609, 3557, 3535, 3520
3039, 3191, 3220, 3234, 3258, 3470, 3499, 3513, 3537
3040, 3332, 3338, 3280, 3234, 3611, 3617, 3559, 3513
3041, 3199, 3222, 3235, 3333, 3478, 3501, 3514, 3612
3042, 3225, 3202, 3231, 3334, 3504, 3481, 3510, 3613
3043, 3300, 3342, 3298, 3335, 3579, 3621, 3577, 3614
3044, 3326, 3272, 3296, 3336, 3605, 3551, 3575, 3615
3045, 3345, 3291, 3285, 3344, 3624, 3570, 3564, 3623
3046, 3302, 3291, 3345, 3347, 3581, 3570, 3624, 3626
3047, 3346, 3345, 3344, 3294, 3625, 3624, 3623, 3573
3048, 3342, 3303, 3343, 3348, 3621, 3582, 3622, 3627
3049, 3364, 3454, 3457, 3349, 3643, 3733, 3736, 3628
3050, 3482, 3472, 3397, 3457, 3761, 3751, 3676, 3736
3051, 3349, 3457, 3397, 3350, 3628, 3736, 3676, 3629
3052, 3413, 3351, 3350, 3397, 3692, 3630, 3629, 3676
3053, 3396, 3430, 3414, 3378, 3675, 3709, 3693, 3657
3054, 3353, 3411, 3416, 3382, 3632, 3690, 3695, 3661
3055, 3431, 3433, 3496, 3473, 3710, 3712, 3775, 3752
3056, 3463, 3375, 3394, 3428, 3742, 3654, 3673, 3707
3057, 3427, 3466, 3488, 3526, 3706, 3745, 3767, 3805
3058, 3466, 3373, 3392, 3426, 3745, 3652, 3671, 3705
3059, 3370, 3401, 3424, 3390, 3649, 3680, 3703, 3669
3060, 3464, 3371, 3390, 3424, 3743, 3650, 3669, 3703
3061, 3406, 3402, 3441, 3437, 3685, 3681, 3720, 3716
3062, 3366, 3404, 3405, 3367, 3645, 3683, 3684, 3646
3063, 3363, 3456, 3403, 3365, 3642, 3735, 3682, 3644
3064, 3404, 3366, 3365, 3403, 3683, 3645, 3644, 3682
3065, 3471, 3438, 3506, 3498, 3750, 3717, 3785, 3777
3066, 3459, 3368, 3367, 3405, 3738, 3647, 3646, 3684
3067, 3585, 3422, 3584, 3434, 3864, 3701, 3863, 3713
3068, 3497, 3519, 3485, 3585, 3776, 3798, 3764, 3864
3069, 3447, 3444, 3475, 3476, 3726, 3723, 3754, 3755
3070, 3420, 3386, 3357, 3408, 3699, 3665, 3636, 3687
3071, 3433, 3431, 3414, 3430, 3712, 3710, 3693, 3709
3072, 3418, 3384, 3355, 3409, 3697, 3663, 3634, 3688
3073, 3417, 3383, 3354, 3410, 3696, 3662, 3633, 3689
3074, 3432, 3587, 3467, 3593, 3711, 3866, 3746, 3872
3075, 3461, 3352, 3381, 3415, 3740, 3631, 3660, 3694
3076, 3482, 3588, 3490, 3590, 3761, 3867, 3769, 3869
3077, 3352, 3461, 3411, 3353, 3631, 3740, 3690, 3632
3078, 3465, 3356, 3384, 3418, 3744, 3635, 3663, 3697
3079, 3453, 3489, 3419, 3465, 3732, 3768, 3698, 3744
3080, 3462, 3358, 3386, 3420, 3741, 3637, 3665, 3699
3081, 3402, 3421, 3487, 3441, 3681, 3700, 3766, 3720
3082, 3406, 3584, 3388, 3360, 3685, 3863, 3667, 3639
3083, 3506, 3438, 3407, 3423, 3785, 3717, 3686, 3702
3084, 3425, 3391, 3371, 3464, 3704, 3670, 3650, 3743
3085, 3426, 3392, 3372, 3400, 3705, 3671, 3651, 3679
3086, 3428, 3394, 3374, 3399, 3707, 3673, 3653, 3678
3087, 3429, 3463, 3486, 3523, 3708, 3742, 3765, 3802
3088, 3398, 3377, 3376, 3412, 3677, 3656, 3655, 3691
3089, 3455, 3380, 3379, 3458, 3734, 3659, 3658, 3737
3090, 3458, 3379, 3378, 3414, 3737, 3658, 3657, 3693
3091, 3415, 3381, 3351, 3413, 3694, 3660, 3630, 3692
3092, 3430, 3396, 3377, 3398, 3709, 3675, 3656, 3677
3093, 3393, 3427, 3399, 3374, 3672, 3706, 3678, 3653
3094, 3391, 3425, 3400, 3372, 3670, 3704, 3679, 3651
3095, 3584, 3422, 3361, 3388, 3863, 3701, 3640, 3667
3096, 3369, 3407, 3401, 3370, 3648, 3686, 3680, 3649
3097, 3387, 3421, 3402, 3359, 3666, 3700, 3681, 3638
3098, 3406, 3360, 3359, 3402, 3685, 3639, 3638, 3681
3099, 3422, 3585, 3485, 3460, 3701, 3864, 3764, 3739
3100, 3423, 3389, 3368, 3459, 3702, 3668, 3647, 3738
3101, 3389, 3423, 3407, 3369, 3668, 3702, 3686, 3648
3102, 3422, 3460, 3362, 3361, 3701, 3739, 3641, 3640
3103, 3425, 3464, 3508, 3484, 3704, 3743, 3787, 3763
3104, 3476, 3479, 3450, 3447, 3755, 3758, 3729, 3726
3105, 3385, 3419, 3408, 3357, 3664, 3698, 3687, 3636
3106, 3435, 3474, 3411, 3461, 3714, 3753, 3690, 3740
3107, 3383, 3417, 3409, 3355, 3662, 3696, 3688, 3634
3108, 3592, 3475, 3444, 3442, 3871, 3754, 3723, 3721
3109, 3382, 3416, 3410, 3354, 3661, 3695, 3689, 3633
3110, 3587, 3432, 3415, 3413, 3866, 3711, 3694, 3692
3111, 3395, 3429, 3412, 3376, 3674, 3708, 3691, 3655
3112, 3436, 3433, 3430, 3398, 3715, 3712, 3709, 3677
3113, 3364, 3380, 3455, 3454, 3643, 3659, 3734, 3733
3114, 3409, 3417, 3444, 3447, 3688, 3696, 3723, 3726
3115, 3586, 3442, 3410, 3416, 3865, 3721, 3689, 3695
3116, 3419, 3385, 3356, 3465, 3698, 3664, 3635, 3744
3117, 3501, 3488, 3452, 3504, 3780, 3767, 3731, 3783
3118, 3511, 3469, 3437, 3441, 3790, 3748, 3716, 3720
3119, 3421, 3387, 3358, 3462, 3700, 3666, 3637, 3741
3120, 3401, 3407, 3438, 3439, 3680, 3686, 3717, 3718
3121, 3507, 3456, 3460, 3485, 3786, 3735, 3739, 3764
3122, 3423, 3459, 3483, 3506, 3702, 3738, 3762, 3785
3123, 3400, 3425, 3484, 3451, 3679, 3704, 3763, 3730
3124, 3539, 3439, 3438, 3471, 3818, 3718, 3717, 3750
3125, 3427, 3393, 3373, 3466, 3706, 3672, 3652, 3745
3126, 3574, 3530, 3578, 3568, 3853, 3809, 3857, 3847
3127, 3429, 3395, 3375, 3463, 3708, 3674, 3654, 3742
3128, 3528, 3608, 3516, 3590, 3807, 3887, 3795, 3869
3129, 3461, 3415, 3432, 3435, 3740, 3694, 3711, 3714
3130, 3398, 3412, 3440, 3436, 3677, 3691, 3719, 3715
3131, 3584, 3406, 3437, 3434, 3863, 3685, 3716, 3713
3132, 3417, 3410, 3442, 3444, 3696, 3689, 3721, 3723
3133, 3523, 3440, 3412, 3429, 3802, 3719, 3691, 3708
3134, 3446, 3487, 3421, 3462, 3725, 3766, 3700, 3741
3135, 3439, 3443, 3424, 3401, 3718, 3722, 3703, 3680
3136, 3449, 3445, 3428, 3399, 3728, 3724, 3707, 3678
3137, 3445, 3486, 3463, 3428, 3724, 3765, 3742, 3707
3138, 3462, 3420, 3448, 3446, 3741, 3699, 3727, 3725
3139, 3418, 3409, 3447, 3450, 3697, 3688, 3726, 3729
3140, 3465, 3418, 3450, 3453, 3744, 3697, 3729, 3732
3141, 3426, 3400, 3451, 3452, 3705, 3679, 3730, 3731
3142, 3499, 3486, 3445, 3500, 3778, 3765, 3724, 3779
3143, 3420, 3408, 3527, 3448, 3699, 3687, 3806, 3727
3144, 3477, 3503, 3487, 3446, 3756, 3782, 3766, 3725
3145, 3526, 3449, 3399, 3427, 3805, 3728, 3678, 3706
3146, 3503, 3511, 3441, 3487, 3782, 3790, 3720, 3766
3147, 3408, 3419, 3489, 3527, 3687, 3698, 3768, 3806
3148, 3478, 3526, 3488, 3501, 3757, 3805, 3767, 3780
3149, 3517, 3530, 3574, 3525, 3796, 3809, 3853, 3804
3150, 3452, 3488, 3466, 3426, 3731, 3767, 3745, 3705
3151, 3599, 3492, 3480, 3479, 3878, 3771, 3759, 3758
3152, 3414, 3431, 3473, 3458, 3693, 3710, 3752, 3737
3153, 3454, 3455, 3458, 3588, 3733, 3734, 3737, 3867
3154, 3460, 3456, 3363, 3362, 3739, 3735, 3642, 3641
3155, 3413, 3397, 3472, 3587, 3692, 3676, 3751, 3866
3156, 3416, 3411, 3474, 3586, 3695, 3690, 3753, 3865
3157, 3523, 3470, 3596, 3440, 3802, 3749, 3875, 3719
3158, 3474, 3435, 3495, 3601, 3753, 3714, 3774, 3880
3159, 3496, 3433, 3436, 3468, 3775, 3712, 3715, 3747
3160, 3589, 3434, 3437, 3469, 3868, 3713, 3716, 3748
3161, 3529, 3507, 3485, 3519, 3808, 3786, 3764, 3798
3162, 3470, 3523, 3486, 3499, 3749, 3802, 3765, 3778
3163, 3468, 3436, 3440, 3596, 3747, 3715, 3719, 3875
3164, 3594, 3443, 3439, 3539, 3873, 3722, 3718, 3818
3165, 3481, 3451, 3484, 3494, 3760, 3730, 3763, 3773
3166, 3588, 3482, 3457, 3454, 3867, 3761, 3736, 3733
3167, 3490, 3588, 3458, 3473, 3769, 3867, 3737, 3752
3168, 3476, 3475, 3600, 3491, 3755, 3754, 3879, 3770
3169, 3479, 3480, 3453, 3450, 3758, 3759, 3732, 3729
3170, 3505, 3502, 3527, 3489, 3784, 3781, 3806, 3768
3171, 3591, 3477, 3446, 3448, 3870, 3756, 3725, 3727
3172, 3603, 3546, 3533, 3512, 3882, 3825, 3812, 3791
3173, 3500, 3445, 3449, 3595, 3779, 3724, 3728, 3874
3174, 3618, 3547, 3550, 3552, 3897, 3826, 3829, 3831
3175, 3480, 3505, 3489, 3453, 3759, 3784, 3768, 3732
3176, 3514, 3501, 3504, 3613, 3793, 3780, 3783, 3892
3177, 3484, 3508, 3532, 3494, 3763, 3787, 3811, 3773
3178, 3504, 3452, 3451, 3481, 3783, 3731, 3730, 3760
3179, 3467, 3587, 3472, 3516, 3746, 3866, 3751, 3795
3180, 3403, 3522, 3405, 3404, 3682, 3801, 3684, 3683
3181, 3459, 3405, 3522, 3483, 3738, 3684, 3801, 3762
3182, 3443, 3508, 3464, 3424, 3722, 3787, 3743, 3703
3183, 3434, 3589, 3497, 3585, 3713, 3868, 3776, 3864
3184, 3522, 3403, 3456, 3507, 3801, 3682, 3735, 3786
3185, 3573, 3568, 3578, 3625, 3852, 3847, 3857, 3904
3186, 3528, 3590, 3490, 3563, 3807, 3869, 3769, 3842
3187, 3491, 3599, 3479, 3476, 3770, 3878, 3758, 3755
3188, 3492, 3517, 3505, 3480, 3771, 3796, 3784, 3759
3189, 3565, 3515, 3602, 3544, 3844, 3794, 3881, 3823
3190, 3493, 3601, 3509, 3592, 3772, 3880, 3788, 3871
3191, 3601, 3493, 3586, 3474, 3880, 3772, 3865, 3753
3192, 3543, 3510, 3481, 3494, 3822, 3789, 3760, 3773
3193, 3535, 3557, 3532, 3594, 3814, 3836, 3811, 3873
3194, 3548, 3495, 3593, 3467, 3827, 3774, 3872, 3746
3195, 3563, 3490, 3473, 3496, 3842, 3769, 3752, 3775
3196, 3515, 3565, 3519, 3497, 3794, 3844, 3798, 3776
3197, 3483, 3541, 3498, 3506, 3762, 3820, 3777, 3785
3198, 3535, 3471, 3498, 3520, 3814, 3750, 3777, 3799
3199, 3499, 3500, 3611, 3513, 3778, 3779, 3890, 3792
3200, 3537, 3518, 3596, 3470, 3816, 3797, 3875, 3749
3201, 3478, 3612, 3524, 3595, 3757, 3891, 3803, 3874
3202, 3503, 3477, 3598, 3512, 3782, 3756, 3877, 3791
3203, 3517, 3525, 3502, 3505, 3796, 3804, 3781, 3784
3204, 3541, 3560, 3555, 3556, 3820, 3839, 3834, 3835
3205, 3601, 3495, 3548, 3509, 3880, 3774, 3827, 3788
3206, 3521, 3525, 3574, 3610, 3800, 3804, 3853, 3889
3207, 3469, 3511, 3533, 3534, 3748, 3790, 3812, 3813
3208, 3512, 3533, 3511, 3503, 3791, 3812, 3790, 3782
3209, 3580, 3530, 3517, 3492, 3859, 3809, 3796, 3771
3210, 3524, 3611, 3500, 3595, 3803, 3890, 3779, 3874
3211, 3510, 3531, 3514, 3613, 3789, 3810, 3793, 3892
3212, 3542, 3524, 3612, 3514, 3821, 3803, 3891, 3793
3213, 3589, 3597, 3515, 3497, 3868, 3876, 3794, 3776
3214, 3565, 3560, 3529, 3519, 3844, 3839, 3808, 3798
3215, 3468, 3596, 3518, 3538, 3747, 3875, 3797, 3817
3216, 3547, 3618, 3538, 3518, 3826, 3897, 3817, 3797
3217, 3483, 3522, 3507, 3529, 3762, 3801, 3786, 3808
3218, 3560, 3541, 3483, 3529, 3839, 3820, 3762, 3808
3219, 3557, 3543, 3494, 3532, 3836, 3822, 3773, 3811
3220, 3525, 3521, 3591, 3502, 3804, 3800, 3870, 3781
3221, 3534, 3533, 3546, 3602, 3813, 3812, 3825, 3881
3222, 3595, 3449, 3526, 3478, 3874, 3728, 3805, 3757
3223, 3502, 3591, 3448, 3527, 3781, 3870, 3727, 3806
3224, 3610, 3536, 3598, 3521, 3889, 3815, 3877, 3800
3225, 3611, 3524, 3542, 3617, 3890, 3803, 3821, 3896
3226, 3552, 3563, 3496, 3618, 3831, 3842, 3775, 3897
3227, 3627, 3622, 3581, 3626, 3906, 3901, 3860, 3905
3228, 3614, 3578, 3530, 3580, 3893, 3857, 3809, 3859
3229, 3594, 3539, 3471, 3535, 3873, 3818, 3750, 3814
3230, 3589, 3469, 3534, 3597, 3868, 3748, 3813, 3876
3231, 3609, 3520, 3556, 3545, 3888, 3799, 3835, 3824
3232, 3562, 3569, 3545, 3583, 3841, 3848, 3824, 3862
3233, 3544, 3602, 3546, 3562, 3823, 3881, 3825, 3841
3234, 3540, 3603, 3536, 3610, 3819, 3882, 3815, 3889
3235, 3556, 3520, 3498, 3541, 3835, 3799, 3777, 3820
3236, 3554, 3542, 3514, 3531, 3833, 3821, 3793, 3810
3237, 3554, 3559, 3617, 3542, 3833, 3838, 3896, 3821
3238, 3557, 3566, 3558, 3543, 3836, 3845, 3837, 3822
3239, 3546, 3603, 3540, 3553, 3825, 3882, 3819, 3832
3240, 3583, 3555, 3544, 3562, 3862, 3834, 3823, 3841
3241, 3545, 3566, 3557, 3609, 3824, 3845, 3836, 3888
3242, 3558, 3564, 3554, 3531, 3837, 3843, 3833, 3810
3243, 3606, 3616, 3575, 3551, 3885, 3895, 3854, 3830
3244, 3567, 3547, 3518, 3537, 3846, 3826, 3797, 3816
3245, 3528, 3607, 3548, 3608, 3807, 3886, 3827, 3887
3246, 3606, 3551, 3600, 3509, 3885, 3830, 3879, 3788
3247, 3563, 3552, 3572, 3549, 3842, 3831, 3851, 3828
3248, 3563, 3549, 3607, 3528, 3842, 3828, 3886, 3807
3249, 3573, 3623, 3564, 3561, 3852, 3902, 3843, 3840
3250, 3581, 3550, 3547, 3567, 3860, 3829, 3826, 3846
3251, 3549, 3616, 3606, 3607, 3828, 3895, 3885, 3886
3252, 3618, 3496, 3468, 3538, 3897, 3775, 3747, 3817
3253, 3553, 3571, 3619, 3569, 3832, 3850, 3898, 3848
3254, 3540, 3561, 3571, 3553, 3819, 3840, 3850, 3832
3255, 3510, 3543, 3558, 3531, 3789, 3822, 3837, 3810
3256, 3620, 3575, 3572, 3576, 3899, 3854, 3851, 3855
3257, 3513, 3559, 3567, 3537, 3792, 3838, 3846, 3816
3258, 3544, 3555, 3560, 3565, 3823, 3834, 3839, 3844
3259, 3546, 3553, 3569, 3562, 3825, 3832, 3848, 3841
3260, 3564, 3570, 3559, 3554, 3843, 3849, 3838, 3833
3261, 3622, 3576, 3550, 3581, 3901, 3855, 3829, 3860
3262, 3545, 3556, 3555, 3583, 3824, 3835, 3834, 3862
3263, 3558, 3571, 3561, 3564, 3837, 3850, 3840, 3843
3264, 3552, 3550, 3576, 3572, 3831, 3829, 3855, 3851
3265, 3577, 3625, 3578, 3614, 3856, 3904, 3857, 3893
3266, 3573, 3561, 3540, 3568, 3852, 3840, 3819, 3847
3267, 3559, 3570, 3581, 3567, 3838, 3849, 3860, 3846
3268, 3566, 3619, 3571, 3558, 3845, 3898, 3850, 3837
3269, 3610, 3574, 3568, 3540, 3889, 3853, 3847, 3819
3270, 3549, 3572, 3575, 3616, 3828, 3851, 3854, 3895
3271, 3605, 3615, 3579, 3604, 3884, 3894, 3858, 3883
3272, 3626, 3577, 3621, 3627, 3905, 3856, 3900, 3906
3273, 3582, 3620, 3576, 3622, 3861, 3899, 3855, 3901
3274, 3577, 3626, 3624, 3625, 3856, 3905, 3903, 3904
3275, 3575, 3620, 3582, 3615, 3854, 3899, 3861, 3894
3276, 3582, 3621, 3579, 3615, 3861, 3900, 3858, 3894
3277, 3599, 3491, 3605, 3604, 3878, 3770, 3884, 3883
3278, 3492, 3599, 3604, 3580, 3771, 3878, 3883, 3859
3279, 3619, 3566, 3545, 3569, 3898, 3845, 3824, 3848
3280, 3493, 3592, 3442, 3586, 3772, 3871, 3721, 3865
3281, 3602, 3515, 3597, 3534, 3881, 3794, 3876, 3813
3282, 3516, 3472, 3482, 3590, 3795, 3751, 3761, 3869
3283, 3521, 3598, 3477, 3591, 3800, 3877, 3756, 3870
3284, 3509, 3600, 3475, 3592, 3788, 3879, 3754, 3871
3285, 3495, 3435, 3432, 3593, 3774, 3714, 3711, 3872
3286, 3532, 3508, 3443, 3594, 3811, 3787, 3722, 3873
3287, 3536, 3603, 3512, 3598, 3815, 3882, 3791, 3877
3288, 3551, 3605, 3491, 3600, 3830, 3884, 3770, 3879
3289, 3579, 3614, 3580, 3604, 3858, 3893, 3859, 3883
3290, 3607, 3606, 3509, 3548, 3886, 3885, 3788, 3827
3291, 3548, 3467, 3516, 3608, 3827, 3746, 3795, 3887
3292, 3609, 3557, 3535, 3520, 3888, 3836, 3814, 3799
3293, 3470, 3499, 3513, 3537, 3749, 3778, 3792, 3816
3294, 3611, 3617, 3559, 3513, 3890, 3896, 3838, 3792
3295, 3478, 3501, 3514, 3612, 3757, 3780, 3793, 3891
3296, 3504, 3481, 3510, 3613, 3783, 3760, 3789, 3892
3297, 3579, 3621, 3577, 3614, 3858, 3900, 3856, 3893
3298, 3605, 3551, 3575, 3615, 3884, 3830, 3854, 3894
3299, 3624, 3570, 3564, 3623, 3903, 3849, 3843, 3902
3300, 3581, 3570, 3624, 3626, 3860, 3849, 3903, 3905
3301, 3625, 3624, 3623, 3573, 3904, 3903, 3902, 3852
3302, 3621, 3582, 3622, 3627, 3900, 3861, 3901, 3906
3303, 3643, 3733, 3736, 3628, 3922, 4012, 4015, 3907
3304, 3761, 3751, 3676, 3736, 4040, 4030, 3955, 4015
3305, 3628, 3736, 3676, 3629, 3907, 4015, 3955, 3908
3306, 3692, 3630, 3629, 3676, 3971, 3909, 3908, 3955
3307, 3675, 3709, 3693, 3657, 3954, 3988, 3972, 3936
3308, 3632, 3690, 3695, 3661, 3911, 3969, 3974, 3940
3309, 3710, 3712, 3775, 3752, 3989, 3991, 4054, 4031
3310, 3742, 3654, 3673, 3707, 4021, 3933, 3952, 3986
3311, 3706, 3745, 3767, 3805, 3985, 4024, 4046, 4084
3312, 3745, 3652, 3671, 3705, 4024, 3931, 3950, 3984
3313, 3649, 3680, 3703, 3669, 3928, 3959, 3982, 3948
3314, 3743, 3650, 3669, 3703, 4022, 3929, 3948, 3982
3315, 3685, 3681, 3720, 3716, 3964, 3960, 3999, 3995
3316, 3645, 3683, 3684, 3646, 3924, 3962, 3963, 3925
3317, 3642, 3735, 3682, 3644, 3921, 4014, 3961, 3923
3318, 3683, 3645, 3644, 3682, 3962, 3924, 3923, 3961
3319, 3750, 3717, 3785, 3777, 4029, 3996, 4064, 4056
3320, 3738, 3647, 3646, 3684, 4017, 3926, 3925, 3963
3321, 3864, 3701, 3863, 3713, 4143, 3980, 4142, 3992
3322, 3776, 3798, 3764, 3864, 4055, 4077, 4043, 4143
3323, 3726, 3723, 3754, 3755, 4005, 4002, 4033, 4034
3324, 3699, 3665, 3636, 3687, 3978, 3944, 3915, 3966
3325, 3712, 3710, 3693, 3709, 3991, 3989, 3972, 3988
3326, 3697, 3663, 3634, 3688, 3976, 3942, 3913, 3967
3327, 3696, 3662, 3633, 3689, 3975, 3941, 3912, 3968
3328, 3711, 3866, 3746, 3872, 3990, 4145, 4025, 4151
3329, 3740, 3631, 3660, 3694, 4019, 3910, 3939, 3973
3330, 3761, 3867, 3769, 3869, 4040, 4146, 4048, 4148
3331, 3631, 3740, 3690, 3632, 3910, 4019, 3969, 3911
3332, 3744, 3635, 3663, 3697, 4023, 3914, 3942, 3976
3333, 3732, 3768, 3698, 3744, 4011, 4047, 3977, 4023
3334, 3741, 3637, 3665, 3699, 4020, 3916, 3944, 3978
3335, 3681, 3700, 3766, 3720, 3960, 3979, 4045, 3999
3336, 3685, 3863, 3667, 3639, 3964, 4142, 3946, 3918
3337, 3785, 3717, 3686, 3702, 4064, 3996, 3965, 3981
3338, 3704, 3670, 3650, 3743, 3983, 3949, 3929, 4022
3339, 3705, 3671, 3651, 3679, 3984, 3950, 3930, 3958
3340, 3707, 3673, 3653, 3678, 3986, 3952, 3932, 3957
3341, 3708, 3742, 3765, 3802, 3987, 4021, 4044, 4081
3342, 3677, 3656, 3655, 3691, 3956, 3935, 3934, 3970
3343, 3734, 3659, 3658, 3737, 4013, 3938, 3937, 4016
3344, 3737, 3658, 3657, 3693, 4016, 3937, 3936, 3972
3345, 3694, 3660, 3630, 3692, 3973, 3939, 3909, 3971
3346, 3709, 3675, 3656, 3677, 3988, 3954, 3935, 3956
3347, 3672, 3706, 3678, 3653, 3951, 3985, 3957, 3932
3348, 3670, 3704, 3679, 3651, 3949, 3983, 3958, 3930
3349, 3863, 3701, 3640, 3667, 4142, 3980, 3919, 3946
3350, 3648, 3686, 3680, 3649, 3927, 3965, 3959, 3928
3351, 3666, 3700, 3681, 3638, 3945, 3979, 3960, 3917
3352, 3685, 3639, 3638, 3681, 3964, 3918, 3917, 3960
3353, 3701, 3864, 3764, 3739, 3980, 4143, 4043, 4018
3354, 3702, 3668, 3647, 3738, 3981, 3947, 3926, 4017
3355, 3668, 3702, 3686, 3648, 3947, 3981, 3965, 3927
3356, 3701, 3739, 3641, 3640, 3980, 4018, 3920, 3919
3357, 3704, 3743, 3787, 3763, 3983, 4022, 4066, 4042
3358, 3755, 3758, 3729, 3726, 4034, 4037, 4008, 4005
3359, 3664, 3698, 3687, 3636, 3943, 3977, 3966, 3915
3360, 3714, 3753, 3690, 3740, 3993, 4032, 3969, 4019
3361, 3662, 3696, 3688, 3634, 3941, 3975, 3967, 3913
3362, 3871, 3754, 3723, 3721, 4150, 4033, 4002, 4000
3363, 3661, 3695, 3689, 3633, 3940, 3974, 3968, 3912
3364, 3866, 3711, 3694, 3692, 4145, 3990, 3973, 3971
3365, 3674, 3708, 3691, 3655, 3953, 3987, 3970, 3934
3366, 3715, 3712, 3709, 3677, 3994, 3991, 3988, 3956
3367, 3643, 3659, 3734, 3733, 3922, 3938, 4013, 4012
3368, 3688, 3696, 3723, 3726, 3967, 3975, 4002, 4005
3369, 3865, 3721, 3689, 3695, 4144, 4000, 3968, 3974
3370, 3698, 3664, 3635, 3744, 3977, 3943, 3914, 4023
3371, 3780, 3767, 3731, 3783, 4059, 4046, 4010, 4062
3372, 3790, 3748, 3716, 3720, 4069, 4027, 3995, 3999
3373, 3700, 3666, 3637, 3741, 3979, 3945, 3916, 4020
3374, 3680, 3686, 3717, 3718, 3959, 3965, 3996, 3997
3375, 3786, 3735, 3739, 3764, 4065, 4014, 4018, 4043
3376, 3702, 3738, 3762, 3785, 3981, 4017, 4041, 4064
3377, 3679, 3704, 3763, 3730, 3958, 3983, 4042, 4009
3378, 3818, 3718, 3717, 3750, 4097, 3997, 3996, 4029
3379, 3706, 3672, 3652, 3745, 3985, 3951, 3931, 4024
3380, 3853, 3809, 3857, 3847, 4132, 4088, 4136, 4126
3381, 3708, 3674, 3654, 3742, 3987, 3953, 3933, 4021
3382, 3807, 3887, 3795, 3869, 4086, 4166, 4074, 4148
3383, 3740, 3694, 3711, 3714, 4019, 3973, 3990, 3993
3384, 3677, 3691, 3719, 3715, 3956, 3970, 3998, 3994
3385, 3863, 3685, 3716, 3713, 4142, 3964, 3995, 3992
3386, 3696, 3689, 3721, 3723, 3975, 3968, 4000, 4002
3387, 3802, 3719, 3691, 3708, 4081, 3998, 3970, 3987
3388, 3725, 3766, 3700, 3741, 4004, 4045, 3979, 4020
3389, 3718, 3722, 3703, 3680, 3997, 4001, 3982, 3959
3390, 3728, 3724, 3707, 3678, 4007, 4003, 3986, 3957
3391, 3724, 3765, 3742, 3707, 4003, 4044, 4021, 3986
3392, 3741, 3699, 3727, 3725, 4020, 3978, 4006, 4004
3393, 3697, 3688, 3726, 3729, 3976, 3967, 4005, 4008
3394, 3744, 3697, 3729, 3732, 4023, 3976, 4008, 4011
3395, 3705, 3679, 3730, 3731, 3984, 3958, 4009, 4010
3396, 3778, 3765, 3724, 3779, 4057, 4044, 4003, 4058
3397, 3699, 3687, 3806, 3727, 3978, 3966, 4085, 4006
3398, 3756, 3782, 3766, 3725, 4035, 4061, 4045, 4004
3399, 3805, 3728, 3678, 3706, 4084, 4007, 3957, 3985
3400, 3782, 3790, 3720, 3766, 4061, 4069, 3999, 4045
3401, 3687, 3698, 3768, 3806, 3966, 3977, 4047, 4085
3402, 3757, 3805, 3767, 3780, 4036, 4084, 4046, 4059
3403, 3796, 3809, 3853, 3804, 4075, 4088, 4132, 4083
3404, 3731, 3767, 3745, 3705, 4010, 4046, 4024, 3984
3405, 3878, 3771, 3759, 3758, 4157, 4050, 4038, 4037
3406, 3693, 3710, 3752, 3737, 3972, 3989, 4031, 4016
3407, 3733, 3734, 3737, 3867, 4012, 4013, 4016, 4146
3408, 3739, 3735, 3642, 3641, 4018, 4014, 3921, 3920
3409, 3692, 3676, 3751, 3866, 3971, 3955, 4030, 4145
3410, 3695, 3690, 3753, 3865, 3974, 3969, 4032, 4144
3411, 3802, 3749, 3875, 3719, 4081, 4028, 4154, 3998
3412, 3753, 3714, 3774, 3880, 4032, 3993, 4053, 4159
3413, 3775, 3712, 3715, 3747, 4054, 3991, 3994, 4026
3414, 3868, 3713, 3716, 3748, 4147, 3992, 3995, 4027
3415, 3808, 3786, 3764, 3798, 4087, 4065, 4043, 4077
3416, 3749, 3802, 3765, 3778, 4028, 4081, 4044, 4057
3417, 3747, 3715, 3719, 3875, 4026, 3994, 3998, 4154
3418, 3873, 3722, 3718, 3818, 4152, 4001, 3997, 4097
3419, 3760, 3730, 3763, 3773, 4039, 4009, 4042, 4052
3420, 3867, 3761, 3736, 3733, 4146, 4040, 4015, 4012
3421, 3769, 3867, 3737, 3752, 4048, 4146, 4016, 4031
3422, 3755, 3754, 3879, 3770, 4034, 4033, 4158, 4049
3423, 3758, 3759, 3732, 3729, 4037, 4038, 4011, 4008
3424, 3784, 3781, 3806, 3768, 4063, 4060, 4085, 4047
3425, 3870, 3756, 3725, 3727, 4149, 4035, 4004, 4006
3426, 3882, 3825, 3812, 3791, 4161, 4104, 4091, 4070
3427, 3779, 3724, 3728, 3874, 4058, 4003, 4007, 4153
3428, 3897, 3826, 3829, 3831, 4176, 4105, 4108, 4110
3429, 3759, 3784, 3768, 3732, 4038, 4063, 4047, 4011
3430, 3793, 3780, 3783, 3892, 4072, 4059, 4062, 4171
3431, 3763, 3787, 3811, 3773, 4042, 4066, 4090, 4052
3432, 3783, 3731, 3730, 3760, 4062, 4010, 4009, 4039
3433, 3746, 3866, 3751, 3795, 4025, 4145, 4030, 4074
3434, 3682, 3801, 3684, 3683, 3961, 4080, 3963, 3962
3435, 3738, 3684, 3801, 3762, 4017, 3963, 4080, 4041
3436, 3722, 3787, 3743, 3703, 4001, 4066, 4022, 3982
3437, 3713, 3868, 3776, 3864, 3992, 4147, 4055, 4143
3438, 3801, 3682, 3735, 3786, 4080, 3961, 4014, 4065
3439, 3852, 3847, 3857, 3904, 4131, 4126, 4136, 4183
3440, 3807, 3869, 3769, 3842, 4086, 4148, 4048, 4121
3441, 3770, 3878, 3758, 3755, 4049, 4157, 4037, 4034
3442, 3771, 3796, 3784, 3759, 4050, 4075, 4063, 4038
3443, 3844, 3794, 3881, 3823, 4123, 4073, 4160, 4102
3444, 3772, 3880, 3788, 3871, 4051, 4159, 4067, 4150
3445, 3880, 3772, 3865, 3753, 4159, 4051, 4144, 4032
3446, 3822, 3789, 3760, 3773, 4101, 4068, 4039, 4052
3447, 3814, 3836, 3811, 3873, 4093, 4115, 4090, 4152
3448, 3827, 3774, 3872, 3746, 4106, 4053, 4151, 4025
3449, 3842, 3769, 3752, 3775, 4121, 4048, 4031, 4054
3450, 3794, 3844, 3798, 3776, 4073, 4123, 4077, 4055
3451, 3762, 3820, 3777, 3785, 4041, 4099, 4056, 4064
3452, 3814, 3750, 3777, 3799, 4093, 4029, 4056, 4078
3453, 3778, 3779, 3890, 3792, 4057, 4058, 4169, 4071
3454, 3816, 3797, 3875, 3749, 4095, 4076, 4154, 4028
3455, 3757, 3891, 3803, 3874, 4036, 4170, 4082, 4153
3456, 3782, 3756, 3877, 3791, 4061, 4035, 4156, 4070
3457, 3796, 3804, 3781, 3784, 4075, 4083, 4060, 4063
3458, 3820, 3839, 3834, 3835, 4099, 4118, 4113, 4114
3459, 3880, 3774, 3827, 3788, 4159, 4053, 4106, 4067
3460, 3800, 3804, 3853, 3889, 4079, 4083, 4132, 4168
3461, 3748, 3790, 3812, 3813, 4027, 4069, 4091, 4092
3462, 3791, 3812, 3790, 3782, 4070, 4091, 4069, 4061
3463, 3859, 3809, 3796, 3771, 4138, 4088, 4075, 4050
3464, 3803, 3890, 3779, 3874, 4082, 4169, 4058, 4153
3465, 3789, 3810, 3793, 3892, 4068, 4089, 4072, 4171
3466, 3821, 3803, 3891, 3793, 4100, 4082, 4170, 4072
3467, 3868, 3876, 3794, 3776, 4147, 4155, 4073, 4055
3468, 3844, 3839, 3808, 3798, 4123, 4118, 4087, 4077
3469, 3747, 3875, 3797, 3817, 4026, 4154, 4076, 4096
3470, 3826, 3897, 3817, 3797, 4105, 4176, 4096, 4076
3471, 3762, 3801, 3786, 3808, 4041, 4080, 4065, 4087
3472, 3839, 3820, 3762, 3808, 4118, 4099, 4041, 4087
3473, 3836, 3822, 3773, 3811, 4115, 4101, 4052, 4090
3474, 3804, 3800, 3870, 3781, 4083, 4079, 4149, 4060
3475, 3813, 3812, 3825, 3881, 4092, 4091, 4104, 4160
3476, 3874, 3728, 3805, 3757, 4153, 4007, 4084, 4036
3477, 3781, 3870, 3727, 3806, 4060, 4149, 4006, 4085
3478, 3889, 3815, 3877, 3800, 4168, 4094, 4156, 4079
3479, 3890, 3803, 3821, 3896, 4169, 4082, 4100, 4175
3480, 3831, 3842, 3775, 3897, 4110, 4121, 4054, 4176
3481, 3906, 3901, 3860, 3905, 4185, 4180, 4139, 4184
3482, 3893, 3857, 3809, 3859, 4172, 4136, 4088, 4138
3483, 3873, 3818, 3750, 3814, 4152, 4097, 4029, 4093
3484, 3868, 3748, 3813, 3876, 4147, 4027, 4092, 4155
3485, 3888, 3799, 3835, 3824, 4167, 4078, 4114, 4103
3486, 3841, 3848, 3824, 3862, 4120, 4127, 4103, 4141
3487, 3823, 3881, 3825, 3841, 4102, 4160, 4104, 4120
3488, 3819, 3882, 3815, 3889, 4098, 4161, 4094, 4168
3489, 3835, 3799, 3777, 3820, 4114, 4078, 4056, 4099
3490, 3833, 3821, 3793, 3810, 4112, 4100, 4072, 4089
3491, 3833, 3838, 3896, 3821, 4112, 4117, 4175, 4100
3492, 3836, 3845, 3837, 3822, 4115, 4124, 4116, 4101
3493, 3825, 3882, 3819, 3832, 4104, 4161, 4098, 4111
3494, 3862, 3834, 3823, 3841, 4141, 4113, 4102, 4120
3495, 3824, 3845, 3836, 3888, 4103, 4124, 4115, 4167
3496, 3837, 3843, 3833, 3810, 4116, 4122, 4112, 4089
3497, 3885, 3895, 3854, 3830, 4164, 4174, 4133, 4109
3498, 3846, 3826, 3797, 3816, 4125, 4105, 4076, 4095
3499, 3807, 3886, 3827, 3887, 4086, 4165, 4106, 4166
3500, 3885, 3830, 3879, 3788, 4164, 4109, 4158, 4067
3501, 3842, 3831, 3851, 3828, 4121, 4110, 4130, 4107
3502, 3842, 3828, 3886, 3807, 4121, 4107, 4165, 4086
3503, 3852, 3902, 3843, 3840, 4131, 4181, 4122, 4119
3504, 3860, 3829, 3826, 3846, 4139, 4108, 4105, 4125
3505, 3828, 3895, 3885, 3886, 4107, 4174, 4164, 4165
3506, 3897, 3775, 3747, 3817, 4176, 4054, 4026, 4096
3507, 3832, 3850, 3898, 3848, 4111, 4129, 4177, 4127
3508, 3819, 3840, 3850, 3832, 4098, 4119, 4129, 4111
3509, 3789, 3822, 3837, 3810, 4068, 4101, 4116, 4089
3510, 3899, 3854, 3851, 3855, 4178, 4133, 4130, 4134
3511, 3792, 3838, 3846, 3816, 4071, 4117, 4125, 4095
3512, 3823, 3834, 3839, 3844, 4102, 4113, 4118, 4123
3513, 3825, 3832, 3848, 3841, 4104, 4111, 4127, 4120
3514, 3843, 3849, 3838, 3833, 4122, 4128, 4117, 4112
3515, 3901, 3855, 3829, 3860, 4180, 4134, 4108, 4139
3516, 3824, 3835, 3834, 3862, 4103, 4114, 4113, 4141
3517, 3837, 3850, 3840, 3843, 4116, 4129, 4119, 4122
3518, 3831, 3829, 3855, 3851, 4110, 4108, 4134, 4130
3519, 3856, 3904, 3857, 3893, 4135, 4183, 4136, 4172
3520, 3852, 3840, 3819, 3847, 4131, 4119, 4098, 4126
3521, 3838, 3849, 3860, 3846, 4117, 4128, 4139, 4125
3522, 3845, 3898, 3850, 3837, 4124, 4177, 4129, 4116
3523, 3889, 3853, 3847, 3819, 4168, 4132, 4126, 4098
3524, 3828, 3851, 3854, 3895, 4107, 4130, 4133, 4174
3525, 3884, 3894, 3858, 3883, 4163, 4173, 4137, 4162
3526, 3905, 3856, 3900, 3906, 4184, 4135, 4179, 4185
3527, 3861, 3899, 3855, 3901, 4140, 4178, 4134, 4180
3528, 3856, 3905, 3903, 3904, 4135, 4184, 4182, 4183
3529, 3854, 3899, 3861, 3894, 4133, 4178, 4140, 4173
3530, 3861, 3900, 3858, 3894, 4140, 4179, 4137, 4173
3531, 3878, 3770, 3884, 3883, 4157, 4049, 4163, 4162
3532, 3771, 3878, 3883, 3859, 4050, 4157, 4162, 4138
3533, 3898, 3845, 3824, 3848, 4177, 4124, 4103, 4127
3534, 3772, 3871, 3721, 3865, 4051, 4150, 4000, 4144
3535, 3881, 3794, 3876, 3813, 4160, 4073, 4155, 4092
3536, 3795, 3751, 3761, 3869, 4074, 4030, 4040, 4148
3537, 3800, 3877, 3756, 3870, 4079, 4156, 4035, 4149
3538, 3788, 3879, 3754, 3871, 4067, 4158, 4033, 4150
3539, 3774, 3714, 3711, 3872, 4053, 3993, 3990, 4151
3540, 3811, 3787, 3722, 3873, 4090, 4066, 4001, 4152
3541, 3815, 3882, 3791, 3877, 4094, 4161, 4070, 4156
3542, 3830, 3884, 3770, 3879, 4109, 4163, 4049, 4158
3543, 3858, 3893, 3859, 3883, 4137, 4172, 4138, 4162
3544, 3886, 3885, 3788, 3827, 4165, 4164, 4067, 4106
3545, 3827, 3746, 3795, 3887, 4106, 4025, 4074, 4166
3546, 3888, 3836, 3814, 3799, 4167, 4115, 4093, 4078
3547, 3749, 3778, 3792, 3816, 4028, 4057, 4071, 4095
3548, 3890, 3896, 3838, 3792, 4169, 4175, 4117, 4071
3549, 3757, 3780, 3793, 3891, 4036, 4059, 4072, 4170
3550, 3783, 3760, 3789, 3892, 4062, 4039, 4068, 4171
3551, 3858, 3900, 3856, 3893, 4137, 4179, 4135, 4172
3552, 3884, 3830, 3854, 3894, 4163, 4109, 4133, 4173
3553, 3903, 3849, 3843, 3902, 4182, 4128, 4122, 4181
3554, 3860, 3849, 3903, 3905, 4139, 4128, 4182, 4184
3555, 3904, 3903, 3902, 3852, 4183, 4182, 4181, 4131
3556, 3900, 3861, 3901, 3906, 4179, 4140, 4180, 4185
3557, 3922, 4012, 4015, 3907, 4201, 4291, 4294, 4186
3558, 4040, 4030, 3955, 4015, 4319, 4309, 4234, 4294
3559, 3907, 4015, 3955, 3908, 4186, 4294, 4234, 4187
3560, 3971, 3909, 3908, 3955, 4250, 4188, 4187, 4234
3561, 3954, 3988, 3972, 3936, 4233, 4267, 4251, 4215
3562, 3911, 3969, 3974, 3940, 4190, 4248, 4253, 4219
3563, 3989, 3991, 4054, 4031, 4268, 4270, 4333, 4310
3564, 4021, 3933, 3952, 3986, 4300, 4212, 4231, 4265
3565, 3985, 4024, 4046, 4084, 4264, 4303, 4325, 4363
3566, 4024, 3931, 3950, 3984, 4303, 4210, 4229, 4263
3567, 3928, 3959, 3982, 3948, 4207, 4238, 4261, 4227
3568, 4022, 3929, 3948, 3982, 4301, 4208, 4227, 4261
3569, 3964, 3960, 3999, 3995, 4243, 4239, 4278, 4274
3570, 3924, 3962, 3963, 3925, 4203, 4241, 4242, 4204
3571, 3921, 4014, 3961, 3923, 4200, 4293, 4240, 4202
3572, 3962, 3924, 3923, 3961, 4241, 4203, 4202, 4240
3573, 4029, 3996, 4064, 4056, 4308, 4275, 4343, 4335
3574, 4017, 3926, 3925, 3963, 4296, 4205, 4204, 4242
3575, 4143, 3980, 4142, 3992, 4422, 4259, 4421, 4271
3576, 4055, 4077, 4043, 4143, 4334, 4356, 4322, 4422
3577, 4005, 4002, 4033, 4034, 4284, 4281, 4312, 4313
3578, 3978, 3944, 3915, 3966, 4257, 4223, 4194, 4245
3579, 3991, 3989, 3972, 3988, 4270, 4268, 4251, 4267
3580, 3976, 3942, 3913, 3967, 4255, 4221, 4192, 4246
3581, 3975, 3941, 3912, 3968, 4254, 4220, 4191, 4247
3582, 3990, 4145, 4025, 4151, 4269, 4424, 4304, 4430
3583, 4019, 3910, 3939, 3973, 4298, 4189, 4218, 4252
3584, 4040, 4146, 4048, 4148, 4319, 4425, 4327, 4427
3585, 3910, 4019, 3969, 3911, 4189, 4298, 4248, 4190
3586, 4023, 3914, 3942, 3976, 4302, 4193, 4221, 4255
3587, 4011, 4047, 3977, 4023, 4290, 4326, 4256, 4302
3588, 4020, 3916, 3944, 3978, 4299, 4195, 4223, 4257
3589, 3960, 3979, 4045, 3999, 4239, 4258, 4324, 4278
3590, 3964, 4142, 3946, 3918, 4243, 4421, 4225, 4197
3591, 4064, 3996, 3965, 3981, 4343, 4275, 4244, 4260
3592, 3983, 3949, 3929, 4022, 4262, 4228, 4208, 4301
3593, 3984, 3950, 3930, 3958, 4263, 4229, 4209, 4237
3594, 3986, 3952, 3932, 3957, 4265, 4231, 4211, 4236
3595, 3987, 4021, 4044, 4081, 4266, 4300, 4323, 4360
3596, 3956, 3935, 3934, 3970, 4235, 4214, 4213, 4249
3597, 4013, 3938, 3937, 4016, 4292, 4217, 4216, 4295
3598, 4016, 3937, 3936, 3972, 4295, 4216, 4215, 4251
3599, 3973, 3939, 3909, 3971, 4252, 4218, 4188, 4250
3600, 3988, 3954, 3935, 3956, 4267, 4233, 4214, 4235
3601, 3951, 3985, 3957, 3932, 4230, 4264, 4236, 4211
3602, 3949, 3983, 3958, 3930, 4228, 4262, 4237, 4209
3603, 4142, 3980, 3919, 3946, 4421, 4259, 4198, 4225
3604, 3927, 3965, 3959, 3928, 4206, 4244, 4238, 4207
3605, 3945, 3979, 3960, 3917, 4224, 4258, 4239, 4196
3606, 3964, 3918, 3917, 3960, 4243, 4197, 4196, 4239
3607, 3980, 4143, 4043, 4018, 4259, 4422, 4322, 4297
3608, 3981, 3947, 3926, 4017, 4260, 4226, 4205, 4296
3609, 3947, 3981, 3965, 3927, 4226, 4260, 4244, 4206
3610, 3980, 4018, 3920, 3919, 4259, 4297, 4199, 4198
3611, 3983, 4022, 4066, 4042, 4262, 4301, 4345, 4321
3612, 4034, 4037, 4008, 4005, 4313, 4316, 4287, 4284
3613, 3943, 3977, 3966, 3915, 4222, 4256, 4245, 4194
3614, 3993, 4032, 3969, 4019, 4272, 4311, 4248, 4298
3615, 3941, 3975, 3967, 3913, 4220, 4254, 4246, 4192
3616, 4150, 4033, 4002, 4000, 4429, 4312, 4281, 4279
3617, 3940, 3974, 3968, 3912, 4219, 4253, 4247, 4191
3618, 4145, 3990, 3973, 3971, 4424, 4269, 4252, 4250
3619, 3953, 3987, 3970, 3934, 4232, 4266, 4249, 4213
3620, 3994, 3991, 3988, 3956, 4273, 4270, 4267, 4235
3621, 3922, 3938, 4013, 4012, 4201, 4217, 4292, 4291
3622, 3967, 3975, 4002, 4005, 4246, 4254, 4281, 4284
3623, 4144, 4000, 3968, 3974, 4423, 4279, 4247, 4253
3624, 3977, 3943, 3914, 4023, 4256, 4222, 4193, 4302
3625, 4059, 4046, 4010, 4062, 4338, 4325, 4289, 4341
3626, 4069, 4027, 3995, 3999, 4348, 4306, 4274, 4278
3627, 3979, 3945, 3916, 4020, 4258, 4224, 4195, 4299
3628, 3959, 3965, 3996, 3997, 4238, 4244, 4275, 4276
3629, 4065, 4014, 4018, 4043, 4344, 4293, 4297, 4322
3630, 3981, 4017, 4041, 4064, 4260, 4296, 4320, 4343
3631, 3958, 3983, 4042, 4009, 4237, 4262, 4321, 4288
3632, 4097, 3997, 3996, 4029, 4376, 4276, 4275, 4308
3633, 3985, 3951, 3931, 4024, 4264, 4230, 4210, 4303
3634, 4132, 4088, 4136, 4126, 4411, 4367, 4415, 4405
3635, 3987, 3953, 3933, 4021, 4266, 4232, 4212, 4300
3636, 4086, 4166, 4074, 4148, 4365, 4445, 4353, 4427
3637, 4019, 3973, 3990, 3993, 4298, 4252, 4269, 4272
3638, 3956, 3970, 3998, 3994, 4235, 4249, 4277, 4273
3639, 4142, 3964, 3995, 3992, 4421, 4243, 4274, 4271
3640, 3975, 3968, 4000, 4002, 4254, 4247, 4279, 4281
3641, 4081, 3998, 3970, 3987, 4360, 4277, 4249, 4266
3642, 4004, 4045, 3979, 4020, 4283, 4324, 4258, 4299
3643, 3997, 4001, 3982, 3959, 4276, 4280, 4261, 4238
3644, 4007, 4003, 3986, 3957, 4286, 4282, 4265, 4236
3645, 4003, 4044, 4021, 3986, 4282, 4323, 4300, 4265
3646, 4020, 3978, 4006, 4004, 4299, 4257, 4285, 4283
3647, 3976, 3967, 4005, 4008, 4255, 4246, 4284, 4287
3648, 4023, 3976, 4008, 4011, 4302, 4255, 4287, 4290
3649, 3984, 3958, 4009, 4010, 4263, 4237, 4288, 4289
3650, 4057, 4044, 4003, 4058, 4336, 4323, 4282, 4337
3651, 3978, 3966, 4085, 4006, 4257, 4245, 4364, 4285
3652, 4035, 4061, 4045, 4004, 4314, 4340, 4324, 4283
3653, 4084, 4007, 3957, 3985, 4363, 4286, 4236, 4264
3654, 4061, 4069, 3999, 4045, 4340, 4348, 4278, 4324
3655, 3966, 3977, 4047, 4085, 4245, 4256, 4326, 4364
3656, 4036, 4084, 4046, 4059, 4315, 4363, 4325, 4338
3657, 4075, 4088, 4132, 4083, 4354, 4367, 4411, 4362
3658, 4010, 4046, 4024, 3984, 4289, 4325, 4303, 4263
3659, 4157, 4050, 4038, 4037, 4436, 4329, 4317, 4316
3660, 3972, 3989, 4031, 4016, 4251, 4268, 4310, 4295
3661, 4012, 4013, 4016, 4146, 4291, 4292, 4295, 4425
3662, 4018, 4014, 3921, 3920, 4297, 4293, 4200, 4199
3663, 3971, 3955, 4030, 4145, 4250, 4234, 4309, 4424
3664, 3974, 3969, 4032, 4144, 4253, 4248, 4311, 4423
3665, 4081, 4028, 4154, 3998, 4360, 4307, 4433, 4277
3666, 4032, 3993, 4053, 4159, 4311, 4272, 4332, 4438
3667, 4054, 3991, 3994, 4026, 4333, 4270, 4273, 4305
3668, 4147, 3992, 3995, 4027, 4426, 4271, 4274, 4306
3669, 4087, 4065, 4043, 4077, 4366, 4344, 4322, 4356
3670, 4028, 4081, 4044, 4057, 4307, 4360, 4323, 4336
3671, 4026, 3994, 3998, 4154, 4305, 4273, 4277, 4433
3672, 4152, 4001, 3997, 4097, 4431, 4280, 4276, 4376
3673, 4039, 4009, 4042, 4052, 4318, 4288, 4321, 4331
3674, 4146, 4040, 4015, 4012, 4425, 4319, 4294, 4291
3675, 4048, 4146, 4016, 4031, 4327, 4425, 4295, 4310
3676, 4034, 4033, 4158, 4049, 4313, 4312, 4437, 4328
3677, 4037, 4038, 4011, 4008, 4316, 4317, 4290, 4287
3678, 4063, 4060, 4085, 4047, 4342, 4339, 4364, 4326
3679, 4149, 4035, 4004, 4006, 4428, 4314, 4283, 4285
3680, 4161, 4104, 4091, 4070, 4440, 4383, 4370, 4349
3681, 4058, 4003, 4007, 4153, 4337, 4282, 4286, 4432
3682, 4176, 4105, 4108, 4110, 4455, 4384, 4387, 4389
3683, 4038, 4063, 4047, 4011, 4317, 4342, 4326, 4290
3684, 4072, 4059, 4062, 4171, 4351, 4338, 4341, 4450
3685, 4042, 4066, 4090, 4052, 4321, 4345, 4369, 4331
3686, 4062, 4010, 4009, 4039, 4341, 4289, 4288, 4318
3687, 4025, 4145, 4030, 4074, 4304, 4424, 4309, 4353
3688, 3961, 4080, 3963, 3962, 4240, 4359, 4242, 4241
3689, 4017, 3963, 4080, 4041, 4296, 4242, 4359, 4320
3690, 4001, 4066, 4022, 3982, 4280, 4345, 4301, 4261
3691, 3992, 4147, 4055, 4143, 4271, 4426, 4334, 4422
3692, 4080, 3961, 4014, 4065, 4359, 4240, 4293, 4344
3693, 4131, 4126, 4136, 4183, 4410, 4405, 4415, 4462
3694, 4086, 4148, 4048, 4121, 4365, 4427, 4327, 4400
3695, 4049, 4157, 4037, 4034, 4328, 4436, 4316, 4313
3696, 4050, 4075, 4063, 4038, 4329, 4354, 4342, 4317
3697, 4123, 4073, 4160, 4102, 4402, 4352, 4439, 4381
3698, 4051, 4159, 4067, 4150, 4330, 4438, 4346, 4429
3699, 4159, 4051, 4144, 4032, 4438, 4330, 4423, 4311
3700, 4101, 4068, 4039, 4052, 4380, 4347, 4318, 4331
3701, 4093, 4115, 4090, 4152, 4372, 4394, 4369, 4431
3702, 4106, 4053, 4151, 4025, 4385, 4332, 4430, 4304
3703, 4121, 4048, 4031, 4054, 4400, 4327, 4310, 4333
3704, 4073, 4123, 4077, 4055, 4352, 4402, 4356, 4334
3705, 4041, 4099, 4056, 4064, 4320, 4378, 4335, 4343
3706, 4093, 4029, 4056, 4078, 4372, 4308, 4335, 4357
3707, 4057, 4058, 4169, 4071, 4336, 4337, 4448, 4350
3708, 4095, 4076, 4154, 4028, 4374, 4355, 4433, 4307
3709, 4036, 4170, 4082, 4153, 4315, 4449, 4361, 4432
3710, 4061, 4035, 4156, 4070, 4340, 4314, 4435, 4349
3711, 4075, 4083, 4060, 4063, 4354, 4362, 4339, 4342
3712, 4099, 4118, 4113, 4114, 4378, 4397, 4392, 4393
3713, 4159, 4053, 4106, 4067, 4438, 4332, 4385, 4346
3714, 4079, 4083, 4132, 4168, 4358, 4362, 4411, 4447
3715, 4027, 4069, 4091, 4092, 4306, 4348, 4370, 4371
3716, 4070, 4091, 4069, 4061, 4349, 4370, 4348, 4340
3717, 4138, 4088, 4075, 4050, 4417, 4367, 4354, 4329
3718, 4082, 4169, 4058, 4153, 4361, 4448, 4337, 4432
3719, 4068, 4089, 4072, 4171, 4347, 4368, 4351, 4450
3720, 4100, 4082, 4170, 4072, 4379, 4361, 4449, 4351
3721, 4147, 4155, 4073, 4055, 4426, 4434, 4352, 4334
3722, 4123, 4118, 4087, 4077, 4402, 4397, 4366, 4356
3723, 4026, 4154, 4076, 4096, 4305, 4433, 4355, 4375
3724, 4105, 4176, 4096, 4076, 4384, 4455, 4375, 4355
3725, 4041, 4080, 4065, 4087, 4320, 4359, 4344, 4366
3726, 4118, 4099, 4041, 4087, 4397, 4378, 4320, 4366
3727, 4115, 4101, 4052, 4090, 4394, 4380, 4331, 4369
3728, 4083, 4079, 4149, 4060, 4362, 4358, 4428, 4339
3729, 4092, 4091, 4104, 4160, 4371, 4370, 4383, 4439
3730, 4153, 4007, 4084, 4036, 4432, 4286, 4363, 4315
3731, 4060, 4149, 4006, 4085, 4339, 4428, 4285, 4364
3732, 4168, 4094, 4156, 4079, 4447, 4373, 4435, 4358
3733, 4169, 4082, 4100, 4175, 4448, 4361, 4379, 4454
3734, 4110, 4121, 4054, 4176, 4389, 4400, 4333, 4455
3735, 4185, 4180, 4139, 4184, 4464, 4459, 4418, 4463
3736, 4172, 4136, 4088, 4138, 4451, 4415, 4367, 4417
3737, 4152, 4097, 4029, 4093, 4431, 4376, 4308, 4372
3738, 4147, 4027, 4092, 4155, 4426, 4306, 4371, 4434
3739, 4167, 4078, 4114, 4103, 4446, 4357, 4393, 4382
3740, 4120, 4127, 4103, 4141, 4399, 4406, 4382, 4420
3741, 4102, 4160, 4104, 4120, 4381, 4439, 4383, 4399
3742, 4098, 4161, 4094, 4168, 4377, 4440, 4373, 4447
3743, 4114, 4078, 4056, 4099, 4393, 4357, 4335, 4378
3744, 4112, 4100, 4072, 4089, 4391, 4379, 4351, 4368
3745, 4112, 4117, 4175, 4100, 4391, 4396, 4454, 4379
3746, 4115, 4124, 4116, 4101, 4394, 4403, 4395, 4380
3747, 4104, 4161, 4098, 4111, 4383, 4440, 4377, 4390
3748, 4141, 4113, 4102, 4120, 4420, 4392, 4381, 4399
3749, 4103, 4124, 4115, 4167, 4382, 4403, 4394, 4446
3750, 4116, 4122, 4112, 4089, 4395, 4401, 4391, 4368
3751, 4164, 4174, 4133, 4109, 4443, 4453, 4412, 4388
3752, 4125, 4105, 4076, 4095, 4404, 4384, 4355, 4374
3753, 4086, 4165, 4106, 4166, 4365, 4444, 4385, 4445
3754, 4164, 4109, 4158, 4067, 4443, 4388, 4437, 4346
3755, 4121, 4110, 4130, 4107, 4400, 4389, 4409, 4386
3756, 4121, 4107, 4165, 4086, 4400, 4386, 4444, 4365
3757, 4131, 4181, 4122, 4119, 4410, 4460, 4401, 4398
3758, 4139, 4108, 4105, 4125, 4418, 4387, 4384, 4404
3759, 4107, 4174, 4164, 4165, 4386, 4453, 4443, 4444
3760, 4176, 4054, 4026, 4096, 4455, 4333, 4305, 4375
3761, 4111, 4129, 4177, 4127, 4390, 4408, 4456, 4406
3762, 4098, 4119, 4129, 4111, 4377, 4398, 4408, 4390
3763, 4068, 4101, 4116, 4089, 4347, 4380, 4395, 4368
3764, 4178, 4133, 4130, 4134, 4457, 4412, 4409, 4413
3765, 4071, 4117, 4125, 4095, 4350, 4396, 4404, 4374
3766, 4102, 4113, 4118, 4123, 4381, 4392, 4397, 4402
3767, 4104, 4111, 4127, 4120, 4383, 4390, 4406, 4399
3768, 4122, 4128, 4117, 4112, 4401, 4407, 4396, 4391
3769, 4180, 4134, 4108, 4139, 4459, 4413, 4387, 4418
3770, 4103, 4114, 4113, 4141, 4382, 4393, 4392, 4420
3771, 4116, 4129, 4119, 4122, 4395, 4408, 4398, 4401
3772, 4110, 4108, 4134, 4130, 4389, 4387, 4413, 4409
3773, 4135, 4183, 4136, 4172, 4414, 4462, 4415, 4451
3774, 4131, 4119, 4098, 4126, 4410, 4398, 4377, 4405
3775, 4117, 4128, 4139, 4125, 4396, 4407, 4418, 4404
3776, 4124, 4177, 4129, 4116, 4403, 4456, 4408, 4395
3777, 4168, 4132, 4126, 4098, 4447, 4411, 4405, 4377
3778, 4107, 4130, 4133, 4174, 4386, 4409, 4412, 4453
3779, 4163, 4173, 4137, 4162, 4442, 4452, 4416, 4441
3780, 4184, 4135, 4179, 4185, 4463, 4414, 4458, 4464
3781, 4140, 4178, 4134, 4180, 4419, 4457, 4413, 4459
3782, 4135, 4184, 4182, 4183, 4414, 4463, 4461, 4462
3783, 4133, 4178, 4140, 4173, 4412, 4457, 4419, 4452
3784, 4140, 4179, 4137, 4173, 4419, 4458, 4416, 4452
3785, 4157, 4049, 4163, 4162, 4436, 4328, 4442, 4441
3786, 4050, 4157, 4162, 4138, 4329, 4436, 4441, 4417
3787, 4177, 4124, 4103, 4127, 4456, 4403, 4382, 4406
3788, 4051, 4150, 4000, 4144, 4330, 4429, 4279, 4423
3789, 4160, 4073, 4155, 4092, 4439, 4352, 4434, 4371
3790, 4074, 4030, 4040, 4148, 4353, 4309, 4319, 4427
3791, 4079, 4156, 4035, 4149, 4358, 4435, 4314, 4428
3792, 4067, 4158, 4033, 4150, 4346, 4437, 4312, 4429
3793, 4053, 3993, 3990, 4151, 4332, 4272, 4269, 4430
3794, 4090, 4066, 4001, 4152, 4369, 4345, 4280, 4431
3795, 4094, 4161, 4070, 4156, 4373, 4440, 4349, 4435
3796, 4109, 4163, 4049, 4158, 4388, 4442, 4328, 4437
3797, 4137, 4172, 4138, 4162, 4416, 4451, 4417, 4441
3798, 4165, 4164, 4067, 4106, 4444, 4443, 4346, 4385
3799, 4106, 4025, 4074, 4166, 4385, 4304, 4353, 4445
3800, 4167, 4115, 4093, 4078, 4446, 4394, 4372, 4357
3801, 4028, 4057, 4071, 4095, 4307, 4336, 4350, 4374
3802, 4169, 4175, 4117, 4071, 4448, 4454, 4396, 4350
3803, 4036, 4059, 4072, 4170, 4315, 4338, 4351, 4449
3804, 4062, 4039, 4068, 4171, 4341, 4318, 4347, 4450
3805, 4137, 4179, 4135, 4172, 4416, 4458, 4414, 4451
3806, 4163, 4109, 4133, 4173, 4442, 4388, 4412, 4452
3807, 4182, 4128, 4122, 4181, 4461, 4407, 4401, 4460
3808, 4139, 4128, 4182, 4184, 4418, 4407, 4461, 4463
3809, 4183, 4182, 4181, 4131, 4462, 4461, 4460, 4410
3810, 4179, 4140, 4180, 4185, 4458, 4419, 4459, 4464
3811, 4201, 4291, 4294, 4186, 4480, 4570, 4573, 4465
3812, 4319, 4309, 4234, 4294, 4598, 4588, 4513, 4573
3813, 4186, 4294, 4234, 4187, 4465, 4573, 4513, 4466
3814, 4250, 4188, 4187, 4234, 4529, 4467, 4466, 4513
3815, 4233, 4267, 4251, 4215, 4512, 4546, 4530, 4494
3816, 4190, 4248, 4253, 4219, 4469, 4527, 4532, 4498
3817, 4268, 4270, 4333, 4310, 4547, 4549, 4612, 4589
3818, 4300, 4212, 4231, 4265, 4579, 4491, 4510, 4544
3819, 4264, 4303, 4325, 4363, 4543, 4582, 4604, 4642
3820, 4303, 4210, 4229, 4263, 4582, 4489, 4508, 4542
3821, 4207, 4238, 4261, 4227, 4486, 4517, 4540, 4506
3822, 4301, 4208, 4227, 4261, 4580, 4487, 4506, 4540
3823, 4243, 4239, 4278, 4274, 4522, 4518, 4557, 4553
3824, 4203, 4241, 4242, 4204, 4482, 4520, 4521, 4483
3825, 4200, 4293, 4240, 4202, 4479, 4572, 4519, 4481
3826, 4241, 4203, 4202, 4240, 4520, 4482, 4481, 4519
3827, 4308, 4275, 4343, 4335, 4587, 4554, 4622, 4614
3828, 4296, 4205, 4204, 4242, 4575, 4484, 4483, 4521
3829, 4422, 4259, 4421, 4271, 4701, 4538, 4700, 4550
3830, 4334, 4356, 4322, 4422, 4613, 4635, 4601, 4701
3831, 4284, 4281, 4312, 4313, 4563, 4560, 4591, 4592
3832, 4257, 4223, 4194, 4245, 4536, 4502, 4473, 4524
3833, 4270, 4268, 4251, 4267, 4549, 4547, 4530, 4546
3834, 4255, 4221, 4192, 4246, 4534, 4500, 4471, 4525
3835, 4254, 4220, 4191, 4247, 4533, 4499, 4470, 4526
3836, 4269, 4424, 4304, 4430, 4548, 4703, 4583, 4709
3837, 4298, 4189, 4218, 4252, 4577, 4468, 4497, 4531
3838, 4319, 4425, 4327, 4427, 4598, 4704, 4606, 4706
3839, 4189, 4298, 4248, 4190, 4468, 4577, 4527, 4469
3840, 4302, 4193, 4221, 4255, 4581, 4472, 4500, 4534
3841, 4290, 4326, 4256, 4302, 4569, 4605, 4535, 4581
3842, 4299, 4195, 4223, 4257, 4578, 4474, 4502, 4536
3843, 4239, 4258, 4324, 4278, 4518, 4537, 4603, 4557
3844, 4243, 4421, 4225, 4197, 4522, 4700, 4504, 4476
3845, 4343, 4275, 4244, 4260, 4622, 4554, 4523, 4539
3846, 4262, 4228, 4208, 4301, 4541, 4507, 4487, 4580
3847, 4263, 4229, 4209, 4237, 4542, 4508, 4488, 4516
3848, 4265, 4231, 4211, 4236, 4544, 4510, 4490, 4515
3849, 4266, 4300, 4323, 4360, 4545, 4579, 4602, 4639
3850, 4235, 4214, 4213, 4249, 4514, 4493, 4492, 4528
3851, 4292, 4217, 4216, 4295, 4571, 4496, 4495, 4574
3852, 4295, 4216, 4215, 4251, 4574, 4495, 4494, 4530
3853, 4252, 4218, 4188, 4250, 4531, 4497, 4467, 4529
3854, 4267, 4233, 4214, 4235, 4546, 4512, 4493, 4514
3855, 4230, 4264, 4236, 4211, 4509, 4543, 4515, 4490
3856, 4228, 4262, 4237, 4209, 4507, 4541, 4516, 4488
3857, 4421, 4259, 4198, 4225, 4700, 4538, 4477, 4504
3858, 4206, 4244, 4238, 4207, 4485, 4523, 4517, 4486
3859, 4224, 4258, 4239, 4196, 4503, 4537, 4518, 4475
3860, 4243, 4197, 4196, 4239, 4522, 4476, 4475, 4518
3861, 4259, 4422, 4322, 4297, 4538, 4701, 4601, 4576
3862, 4260, 4226, 4205, 4296, 4539, 4505, 4484, 4575
3863, 4226, 4260, 4244, 4206, 4505, 4539, 4523, 4485
3864, 4259, 4297, 4199, 4198, 4538, 4576, 4478, 4477
3865, 4262, 4301, 4345, 4321, 4541, 4580, 4624, 4600
3866, 4313, 4316, 4287, 4284, 4592, 4595, 4566, 4563
3867, 4222, 4256, 4245, 4194, 4501, 4535, 4524, 4473
3868, 4272, 4311, 4248, 4298, 4551, 4590, 4527, 4577
3869, 4220, 4254, 4246, 4192, 4499, 4533, 4525, 4471
3870, 4429, 4312, 4281, 4279, 4708, 4591, 4560, 4558
3871, 4219, 4253, 4247, 4191, 4498, 4532, 4526, 4470
3872, 4424, 4269, 4252, 4250, 4703, 4548, 4531, 4529
3873, 4232, 4266, 4249, 4213, 4511, 4545, 4528, 4492
3874, 4273, 4270, 4267, 4235, 4552, 4549, 4546, 4514
3875, 4201, 4217, 4292, 4291, 4480, 4496, 4571, 4570
3876, 4246, 4254, 4281, 4284, 4525, 4533, 4560, 4563
3877, 4423, 4279, 4247, 4253, 4702, 4558, 4526, 4532
3878, 4256, 4222, 4193, 4302, 4535, 4501, 4472, 4581
3879, 4338, 4325, 4289, 4341, 4617, 4604, 4568, 4620
3880, 4348, 4306, 4274, 4278, 4627, 4585, 4553, 4557
3881, 4258, 4224, 4195, 4299, 4537, 4503, 4474, 4578
3882, 4238, 4244, 4275, 4276, 4517, 4523, 4554, 4555
3883, 4344, 4293, 4297, 4322, 4623, 4572, 4576, 4601
3884, 4260, 4296, 4320, 4343, 4539, 4575, 4599, 4622
3885, 4237, 4262, 4321, 4288, 4516, 4541, 4600, 4567
3886, 4376, 4276, 4275, 4308, 4655, 4555, 4554, 4587
3887, 4264, 4230, 4210, 4303, 4543, 4509, 4489, 4582
3888, 4411, 4367, 4415, 4405, 4690, 4646, 4694, 4684
3889, 4266, 4232, 4212, 4300, 4545, 4511, 4491, 4579
3890, 4365, 4445, 4353, 4427, 4644, 4724, 4632, 4706
3891, 4298, 4252, 4269, 4272, 4577, 4531, 4548, 4551
3892, 4235, 4249, 4277, 4273, 4514, 4528, 4556, 4552
3893, 4421, 4243, 4274, 4271, 4700, 4522, 4553, 4550
3894, 4254, 4247, 4279, 4281, 4533, 4526, 4558, 4560
3895, 4360, 4277, 4249, 4266, 4639, 4556, 4528, 4545
3896, 4283, 4324, 4258, 4299, 4562, 4603, 4537, 4578
3897, 4276, 4280, 4261, 4238, 4555, 4559, 4540, 4517
3898, 4286, 4282, 4265, 4236, 4565, 4561, 4544, 4515
3899, 4282, 4323, 4300, 4265, 4561, 4602, 4579, 4544
3900, 4299, 4257, 4285, 4283, 4578, 4536, 4564, 4562
3901, 4255, 4246, 4284, 4287, 4534, 4525, 4563, 4566
3902, 4302, 4255, 4287, 4290, 4581, 4534, 4566, 4569
3903, 4263, 4237, 4288, 4289, 4542, 4516, 4567, 4568
3904, 4336, 4323, 4282, 4337, 4615, 4602, 4561, 4616
3905, 4257, 4245, 4364, 4285, 4536, 4524, 4643, 4564
3906, 4314, 4340, 4324, 4283, 4593, 4619, 4603, 4562
3907, 4363, 4286, 4236, 4264, 4642, 4565, 4515, 4543
3908, 4340, 4348, 4278, 4324, 4619, 4627, 4557, 4603
3909, 4245, 4256, 4326, 4364, 4524, 4535, 4605, 4643
3910, 4315, 4363, 4325, 4338, 4594, 4642, 4604, 4617
3911, 4354, 4367, 4411, 4362, 4633, 4646, 4690, 4641
3912, 4289, 4325, 4303, 4263, 4568, 4604, 4582, 4542
3913, 4436, 4329, 4317, 4316, 4715, 4608, 4596, 4595
3914, 4251, 4268, 4310, 4295, 4530, 4547, 4589, 4574
3915, 4291, 4292, 4295, 4425, 4570, 4571, 4574, 4704
3916, 4297, 4293, 4200, 4199, 4576, 4572, 4479, 4478
3917, 4250, 4234, 4309, 4424, 4529, 4513, 4588, 4703
3918, 4253, 4248, 4311, 4423, 4532, 4527, 4590, 4702
3919, 4360, 4307, 4433, 4277, 4639, 4586, 4712, 4556
3920, 4311, 4272, 4332, 4438, 4590, 4551, 4611, 4717
3921, 4333, 4270, 4273, 4305, 4612, 4549, 4552, 4584
3922, 4426, 4271, 4274, 4306, 4705, 4550, 4553, 4585
3923, 4366, 4344, 4322, 4356, 4645, 4623, 4601, 4635
3924, 4307, 4360, 4323, 4336, 4586, 4639, 4602, 4615
3925, 4305, 4273, 4277, 4433, 4584, 4552, 4556, 4712
3926, 4431, 4280, 4276, 4376, 4710, 4559, 4555, 4655
3927, 4318, 4288, 4321, 4331, 4597, 4567, 4600, 4610
3928, 4425, 4319, 4294, 4291, 4704, 4598, 4573, 4570
3929, 4327, 4425, 4295, 4310, 4606, 4704, 4574, 4589
3930, 4313, 4312, 4437, 4328, 4592, 4591, 4716, 4607
3931, 4316, 4317, 4290, 4287, 4595, 4596, 4569, 4566
3932, 4342, 4339, 4364, 4326, 4621, 4618, 4643, 4605
3933, 4428, 4314, 4283, 4285, 4707, 4593, 4562, 4564
3934, 4440, 4383, 4370, 4349, 4719, 4662, 4649, 4628
3935, 4337, 4282, 4286, 4432, 4616, 4561, 4565, 4711
3936, 4455, 4384, 4387, 4389, 4734, 4663, 4666, 4668
3937, 4317, 4342, 4326, 4290, 4596, 4621, 4605, 4569
3938, 4351, 4338, 4341, 4450, 4630, 4617, 4620, 4729
3939, 4321, 4345, 4369, 4331, 4600, 4624, 4648, 4610
3940, 4341, 4289, 4288, 4318, 4620, 4568, 4567, 4597
3941, 4304, 4424, 4309, 4353, 4583, 4703, 4588, 4632
3942, 4240, 4359, 4242, 4241, 4519, 4638, 4521, 4520
3943, 4296, 4242, 4359, 4320, 4575, 4521, 4638, 4599
3944, 4280, 4345, 4301, 4261, 4559, 4624, 4580, 4540
3945, 4271, 4426, 4334, 4422, 4550, 4705, 4613, 4701
3946, 4359, 4240, 4293, 4344, 4638, 4519, 4572, 4623
3947, 4410, 4405, 4415, 4462, 4689, 4684, 4694, 4741
3948, 4365, 4427, 4327, 4400, 4644, 4706, 4606, 4679
3949, 4328, 4436, 4316, 4313, 4607, 4715, 4595, 4592
3950, 4329, 4354, 4342, 4317, 4608, 4633, 4621, 4596
3951, 4402, 4352, 4439, 4381, 4681, 4631, 4718, 4660
3952, 4330, 4438, 4346, 4429, 4609, 4717, 4625, 4708
3953, 4438, 4330, 4423, 4311, 4717, 4609, 4702, 4590
3954, 4380, 4347, 4318, 4331, 4659, 4626, 4597, 4610
3955, 4372, 4394, 4369, 4431, 4651, 4673, 4648, 4710
3956, 4385, 4332, 4430, 4304, 4664, 4611, 4709, 4583
3957, 4400, 4327, 4310, 4333, 4679, 4606, 4589, 4612
3958, 4352, 4402, 4356, 4334, 4631, 4681, 4635, 4613
3959, 4320, 4378, 4335, 4343, 4599, 4657, 4614, 4622
3960, 4372, 4308, 4335, 4357, 4651, 4587, 4614, 4636
3961, 4336, 4337, 4448, 4350, 4615, 4616, 4727, 4629
3962, 4374, 4355, 4433, 4307, 4653, 4634, 4712, 4586
3963, 4315, 4449, 4361, 4432, 4594, 4728, 4640, 4711
3964, 4340, 4314, 4435, 4349, 4619, 4593, 4714, 4628
3965, 4354, 4362, 4339, 4342, 4633, 4641, 4618, 4621
3966, 4378, 4397, 4392, 4393, 4657, 4676, 4671, 4672
3967, 4438, 4332, 4385, 4346, 4717, 4611, 4664, 4625
3968, 4358, 4362, 4411, 4447, 4637, 4641, 4690, 4726
3969, 4306, 4348, 4370, 4371, 4585, 4627, 4649, 4650
3970, 4349, 4370, 4348, 4340, 4628, 4649, 4627, 4619
3971, 4417, 4367, 4354, 4329, 4696, 4646, 4633, 4608
3972, 4361, 4448, 4337, 4432, 4640, 4727, 4616, 4711
3973, 4347, 4368, 4351, 4450, 4626, 4647, 4630, 4729
3974, 4379, 4361, 4449, 4351, 4658, 4640, 4728, 4630
3975, 4426, 4434, 4352, 4334, 4705, 4713, 4631, 4613
3976, 4402, 4397, 4366, 4356, 4681, 4676, 4645, 4635
3977, 4305, 4433, 4355, 4375, 4584, 4712, 4634, 4654
3978, 4384, 4455, 4375, 4355, 4663, 4734, 4654, 4634
3979, 4320, 4359, 4344, 4366, 4599, 4638, 4623, 4645
3980, 4397, 4378, 4320, 4366, 4676, 4657, 4599, 4645
3981, 4394, 4380, 4331, 4369, 4673, 4659, 4610, 4648
3982, 4362, 4358, 4428, 4339, 4641, 4637, 4707, 4618
3983, 4371, 4370, 4383, 4439, 4650, 4649, 4662, 4718
3984, 4432, 4286, 4363, 4315, 4711, 4565, 4642, 4594
3985, 4339, 4428, 4285, 4364, 4618, 4707, 4564, 4643
3986, 4447, 4373, 4435, 4358, 4726, 4652, 4714, 4637
3987, 4448, 4361, 4379, 4454, 4727, 4640, 4658, 4733
3988, 4389, 4400, 4333, 4455, 4668, 4679, 4612, 4734
3989, 4464, 4459, 4418, 4463, 4743, 4738, 4697, 4742
3990, 4451, 4415, 4367, 4417, 4730, 4694, 4646, 4696
3991, 4431, 4376, 4308, 4372, 4710, 4655, 4587, 4651
3992, 4426, 4306, 4371, 4434, 4705, 4585, 4650, 4713
3993, 4446, 4357, 4393, 4382, 4725, 4636, 4672, 4661
3994, 4399, 4406, 4382, 4420, 4678, 4685, 4661, 4699
3995, 4381, 4439, 4383, 4399, 4660, 4718, 4662, 4678
3996, 4377, 4440, 4373, 4447, 4656, 4719, 4652, 4726
3997, 4393, 4357, 4335, 4378, 4672, 4636, 4614, 4657
3998, 4391, 4379, 4351, 4368, 4670, 4658, 4630, 4647
3999, 4391, 4396, 4454, 4379, 4670, 4675, 4733, 4658
4000, 4394, 4403, 4395, 4380, 4673, 4682, 4674, 4659
4001, 4383, 4440, 4377, 4390, 4662, 4719, 4656, 4669
4002, 4420, 4392, 4381, 4399, 4699, 4671, 4660, 4678
4003, 4382, 4403, 4394, 4446, 4661, 4682, 4673, 4725
4004, 4395, 4401, 4391, 4368, 4674, 4680, 4670, 4647
4005, 4443, 4453, 4412, 4388, 4722, 4732, 4691, 4667
4006, 4404, 4384, 4355, 4374, 4683, 4663, 4634, 4653
4007, 4365, 4444, 4385, 4445, 4644, 4723, 4664, 4724
4008, 4443, 4388, 4437, 4346, 4722, 4667, 4716, 4625
4009, 4400, 4389, 4409, 4386, 4679, 4668, 4688, 4665
4010, 4400, 4386, 4444, 4365, 4679, 4665, 4723, 4644
4011, 4410, 4460, 4401, 4398, 4689, 4739, 4680, 4677
4012, 4418, 4387, 4384, 4404, 4697, 4666, 4663, 4683
4013, 4386, 4453, 4443, 4444, 4665, 4732, 4722, 4723
4014, 4455, 4333, 4305, 4375, 4734, 4612, 4584, 4654
4015, 4390, 4408, 4456, 4406, 4669, 4687, 4735, 4685
4016, 4377, 4398, 4408, 4390, 4656, 4677, 4687, 4669
4017, 4347, 4380, 4395, 4368, 4626, 4659, 4674, 4647
4018, 4457, 4412, 4409, 4413, 4736, 4691, 4688, 4692
4019, 4350, 4396, 4404, 4374, 4629, 4675, 4683, 4653
4020, 4381, 4392, 4397, 4402, 4660, 4671, 4676, 4681
4021, 4383, 4390, 4406, 4399, 4662, 4669, 4685, 4678
4022, 4401, 4407, 4396, 4391, 4680, 4686, 4675, 4670
4023, 4459, 4413, 4387, 4418, 4738, 4692, 4666, 4697
4024, 4382, 4393, 4392, 4420, 4661, 4672, 4671, 4699
4025, 4395, 4408, 4398, 4401, 4674, 4687, 4677, 4680
4026, 4389, 4387, 4413, 4409, 4668, 4666, 4692, 4688
4027, 4414, 4462, 4415, 4451, 4693, 4741, 4694, 4730
4028, 4410, 4398, 4377, 4405, 4689, 4677, 4656, 4684
4029, 4396, 4407, 4418, 4404, 4675, 4686, 4697, 4683
4030, 4403, 4456, 4408, 4395, 4682, 4735, 4687, 4674
4031, 4447, 4411, 4405, 4377, 4726, 4690, 4684, 4656
4032, 4386, 4409, 4412, 4453, 4665, 4688, 4691, 4732
4033, 4442, 4452, 4416, 4441, 4721, 4731, 4695, 4720
4034, 4463, 4414, 4458, 4464, 4742, 4693, 4737, 4743
4035, 4419, 4457, 4413, 4459, 4698, 4736, 4692, 4738
4036, 4414, 4463, 4461, 4462, 4693, 4742, 4740, 4741
4037, 4412, 4457, 4419, 4452, 4691, 4736, 4698, 4731
4038, 4419, 4458, 4416, 4452, 4698, 4737, 4695, 4731
4039, 4436, 4328, 4442, 4441, 4715, 4607, 4721, 4720
4040, 4329, 4436, 4441, 4417, 4608, 4715, 4720, 4696
4041, 4456, 4403, 4382, 4406, 4735, 4682, 4661, 4685
4042, 4330, 4429, 4279, 4423, 4609, 4708, 4558, 4702
4043, 4439, 4352, 4434, 4371, 4718, 4631, 4713, 4650
4044, 4353, 4309, 4319, 4427, 4632, 4588, 4598, 4706
4045, 4358, 4435, 4314, 4428, 4637, 4714, 4593, 4707
4046, 4346, 4437, 4312, 4429, 4625, 4716, 4591, 4708
4047, 4332, 4272, 4269, 4430, 4611, 4551, 4548, 4709
4048, 4369, 4345, 4280, 4431, 4648, 4624, 4559, 4710
4049, 4373, 4440, 4349, 4435, 4652, 4719, 4628, 4714
4050, 4388, 4442, 4328, 4437, 4667, 4721, 4607, 4716
4051, 4416, 4451, 4417, 4441, 4695, 4730, 4696, 4720
4052, 4444, 4443, 4346, 4385, 4723, 4722, 4625, 4664
4053, 4385, 4304, 4353, 4445, 4664, 4583, 4632, 4724
4054, 4446, 4394, 4372, 4357, 4725, 4673, 4651, 4636
4055, 4307, 4336, 4350, 4374, 4586, 4615, 4629, 4653
4056, 4448, 4454, 4396, 4350, 4727, 4733, 4675, 4629
4057, 4315, 4338, 4351, 4449, 4594, 4617, 4630, 4728
4058, 4341, 4318, 4347, 4450, 4620, 4597, 4626, 4729
4059, 4416, 4458, 4414, 4451, 4695, 4737, 4693, 4730
4060, 4442, 4388, 4412, 4452, 4721, 4667, 4691, 4731
4061, 4461, 4407, 4401, 4460, 4740, 4686, 4680, 4739
4062, 4418, 4407, 4461, 4463, 4697, 4686, 4740, 4742
4063, 4462, 4461, 4460, 4410, 4741, 4740, 4739, 4689
4064, 4458, 4419, 4459, 4464, 4737, 4698, 4738, 4743
4065, 4480, 4570, 4573, 4465, 4759, 4849, 4852, 4744
4066, 4598, 4588, 4513, 4573, 4877, 4867, 4792, 4852
4067, 4465, 4573, 4513, 4466, 4744, 4852, 4792, 4745
4068, 4529, 4467, 4466, 4513, 4808, 4746, 4745, 4792
4069, 4512, 4546, 4530, 4494, 4791, 4825, 4809, 4773
4070, 4469, 4527, 4532, 4498, 4748, 4806, 4811, 4777
4071, 4547, 4549, 4612, 4589, 4826, 4828, 4891, 4868
4072, 4579, 4491, 4510, 4544, 4858, 4770, 4789, 4823
4073, 4543, 4582, 4604, 4642, 4822, 4861, 4883, 4921
4074, 4582, 4489, 4508, 4542, 4861, 4768, 4787, 4821
4075, 4486, 4517, 4540, 4506, 4765, 4796, 4819, 4785
4076, 4580, 4487, 4506, 4540, 4859, 4766, 4785, 4819
4077, 4522, 4518, 4557, 4553, 4801, 4797, 4836, 4832
4078, 4482, 4520, 4521, 4483, 4761, 4799, 4800, 4762
4079, 4479, 4572, 4519, 4481, 4758, 4851, 4798, 4760
4080, 4520, 4482, 4481, 4519, 4799, 4761, 4760, 4798
4081, 4587, 4554, 4622, 4614, 4866, 4833, 4901, 4893
4082, 4575, 4484, 4483, 4521, 4854, 4763, 4762, 4800
4083, 4701, 4538, 4700, 4550, 4980, 4817, 4979, 4829
4084, 4613, 4635, 4601, 4701, 4892, 4914, 4880, 4980
4085, 4563, 4560, 4591, 4592, 4842, 4839, 4870, 4871
4086, 4536, 4502, 4473, 4524, 4815, 4781, 4752, 4803
4087, 4549, 4547, 4530, 4546, 4828, 4826, 4809, 4825
4088, 4534, 4500, 4471, 4525, 4813, 4779, 4750, 4804
4089, 4533, 4499, 4470, 4526, 4812, 4778, 4749, 4805
4090, 4548, 4703, 4583, 4709, 4827, 4982, 4862, 4988
4091, 4577, 4468, 4497, 4531, 4856, 4747, 4776, 4810
4092, 4598, 4704, 4606, 4706, 4877, 4983, 4885, 4985
4093, 4468, 4577, 4527, 4469, 4747, 4856, 4806, 4748
4094, 4581, 4472, 4500, 4534, 4860, 4751, 4779, 4813
4095, 4569, 4605, 4535, 4581, 4848, 4884, 4814, 4860
4096, 4578, 4474, 4502, 4536, 4857, 4753, 4781, 4815
4097, 4518, 4537, 4603, 4557, 4797, 4816, 4882, 4836
4098, 4522, 4700, 4504, 4476, 4801, 4979, 4783, 4755
4099, 4622, 4554, 4523, 4539, 4901, 4833, 4802, 4818
4100, 4541, 4507, 4487, 4580, 4820, 4786, 4766, 4859
4101, 4542, 4508, 4488, 4516, 4821, 4787, 4767, 4795
4102, 4544, 4510, 4490, 4515, 4823, 4789, 4769, 4794
4103, 4545, 4579, 4602, 4639, 4824, 4858, 4881, 4918
4104, 4514, 4493, 4492, 4528, 4793, 4772, 4771, 4807
4105, 4571, 4496, 4495, 4574, 4850, 4775, 4774, 4853
4106, 4574, 4495, 4494, 4530, 4853, 4774, 4773, 4809
4107, 4531, 4497, 4467, 4529, 4810, 4776, 4746, 4808
4108, 4546, 4512, 4493, 4514, 4825, 4791, 4772, 4793
4109, 4509, 4543, 4515, 4490, 4788, 4822, 4794, 4769
4110, 4507, 4541, 4516, 4488, 4786, 4820, 4795, 4767
4111, 4700, 4538, 4477, 4504, 4979, 4817, 4756, 4783
4112, 4485, 4523, 4517, 4486, 4764, 4802, 4796, 4765
4113, 4503, 4537, 4518, 4475, 4782, 4816, 4797, 4754
4114, 4522, 4476, 4475, 4518, 4801, 4755, 4754, 4797
4115, 4538, 4701, 4601, 4576, 4817, 4980, 4880, 4855
4116, 4539, 4505, 4484, 4575, 4818, 4784, 4763, 4854
4117, 4505, 4539, 4523, 4485, 4784, 4818, 4802, 4764
4118, 4538, 4576, 4478, 4477, 4817, 4855, 4757, 4756
4119, 4541, 4580, 4624, 4600, 4820, 4859, 4903, 4879
4120, 4592, 4595, 4566, 4563, 4871, 4874, 4845, 4842
4121, 4501, 4535, 4524, 4473, 4780, 4814, 4803, 4752
4122, 4551, 4590, 4527, 4577, 4830, 4869, 4806, 4856
4123, 4499, 4533, 4525, 4471, 4778, 4812, 4804, 4750
4124, 4708, 4591, 4560, 4558, 4987, 4870, 4839, 4837
4125, 4498, 4532, 4526, 4470, 4777, 4811, 4805, 4749
4126, 4703, 4548, 4531, 4529, 4982, 4827, 4810, 4808
4127, 4511, 4545, 4528, 4492, 4790, 4824, 4807, 4771
4128, 4552, 4549, 4546, 4514, 4831, 4828, 4825, 4793
4129, 4480, 4496, 4571, 4570, 4759, 4775, 4850, 4849
4130, 4525, 4533, 4560, 4563, 4804, 4812, 4839, 4842
4131, 4702, 4558, 4526, 4532, 4981, 4837, 4805, 4811
4132, 4535, 4501, 4472, 4581, 4814, 4780, 4751, 4860
4133, 4617, 4604, 4568, 4620, 4896, 4883, 4847, 4899
4134, 4627, 4585, 4553, 4557, 4906, 4864, 4832, 4836
4135, 4537, 4503, 4474, 4578, 4816, 4782, 4753, 4857
4136, 4517, 4523, 4554, 4555, 4796, 4802, 4833, 4834
4137, 4623, 4572, 4576, 4601, 4902, 4851, 4855, 4880
4138, 4539, 4575, 4599, 4622, 4818, 4854, 4878, 4901
4139, 4516, 4541, 4600, 4567, 4795, 4820, 4879, 4846
4140, 4655, 4555, 4554, 4587, 4934, 4834, 4833, 4866
4141, 4543, 4509, 4489, 4582, 4822, 4788, 4768, 4861
4142, 4690, 4646, 4694, 4684, 4969, 4925, 4973, 4963
4143, 4545, 4511, 4491, 4579, 4824, 4790, 4770, 4858
4144, 4644, 4724, 4632, 4706, 4923, 5003, 4911, 4985
4145, 4577, 4531, 4548, 4551, 4856, 4810, 4827, 4830
4146, 4514, 4528, 4556, 4552, 4793, 4807, 4835, 4831
4147, 4700, 4522, 4553, 4550, 4979, 4801, 4832, 4829
4148, 4533, 4526, 4558, 4560, 4812, 4805, 4837, 4839
4149, 4639, 4556, 4528, 4545, 4918, 4835, 4807, 4824
4150, 4562, 4603, 4537, 4578, 4841, 4882, 4816, 4857
4151, 4555, 4559, 4540, 4517, 4834, 4838, 4819, 4796
4152, 4565, 4561, 4544, 4515, 4844, 4840, 4823, 4794
4153, 4561, 4602, 4579, 4544, 4840, 4881, 4858, 4823
4154, 4578, 4536, 4564, 4562, 4857, 4815, 4843, 4841
4155, 4534, 4525, 4563, 4566, 4813, 4804, 4842, 4845
4156, 4581, 4534, 4566, 4569, 4860, 4813, 4845, 4848
4157, 4542, 4516, 4567, 4568, 4821, 4795, 4846, 4847
4158, 4615, 4602, 4561, 4616, 4894, 4881, 4840, 4895
4159, 4536, 4524, 4643, 4564, 4815, 4803, 4922, 4843
4160, 4593, 4619, 4603, 4562, 4872, 4898, 4882, 4841
4161, 4642, 4565, 4515, 4543, 4921, 4844, 4794, 4822
4162, 4619, 4627, 4557, 4603, 4898, 4906, 4836, 4882
4163, 4524, 4535, 4605, 4643, 4803, 4814, 4884, 4922
4164, 4594, 4642, 4604, 4617, 4873, 4921, 4883, 4896
4165, 4633, 4646, 4690, 4641, 4912, 4925, 4969, 4920
4166, 4568, 4604, 4582, 4542, 4847, 4883, 4861, 4821
4167, 4715, 4608, 4596, 4595, 4994, 4887, 4875, 4874
4168, 4530, 4547, 4589, 4574, 4809, 4826, 4868, 4853
4169, 4570, 4571, 4574, 4704, 4849, 4850, 4853, 4983
4170, 4576, 4572, 4479, 4478, 4855, 4851, 4758, 4757
4171, 4529, 4513, 4588, 4703, 4808, 4792, 4867, 4982
4172, 4532, 4527, 4590, 4702, 4811, 4806, 4869, 4981
4173, 4639, 4586, 4712, 4556, 4918, 4865, 4991, 4835
4174, 4590, 4551, 4611, 4717, 4869, 4830, 4890, 4996
4175, 4612, 4549, 4552, 4584, 4891, 4828, 4831, 4863
4176, 4705, 4550, 4553, 4585, 4984, 4829, 4832, 4864
4177, 4645, 4623, 4601, 4635, 4924, 4902, 4880, 4914
4178, 4586, 4639, 4602, 4615, 4865, 4918, 4881, 4894
4179, 4584, 4552, 4556, 4712, 4863, 4831, 4835, 4991
4180, 4710, 4559, 4555, 4655, 4989, 4838, 4834, 4934
4181, 4597, 4567, 4600, 4610, 4876, 4846, 4879, 4889
4182, 4704, 4598, 4573, 4570, 4983, 4877, 4852, 4849
4183, 4606, 4704, 4574, 4589, 4885, 4983, 4853, 4868
4184, 4592, 4591, 4716, 4607, 4871, 4870, 4995, 4886
4185, 4595, 4596, 4569, 4566, 4874, 4875, 4848, 4845
4186, 4621, 4618, 4643, 4605, 4900, 4897, 4922, 4884
4187, 4707, 4593, 4562, 4564, 4986, 4872, 4841, 4843
4188, 4719, 4662, 4649, 4628, 4998, 4941, 4928, 4907
4189, 4616, 4561, 4565, 4711, 4895, 4840, 4844, 4990
4190, 4734, 4663, 4666, 4668, 5013, 4942, 4945, 4947
4191, 4596, 4621, 4605, 4569, 4875, 4900, 4884, 4848
4192, 4630, 4617, 4620, 4729, 4909, 4896, 4899, 5008
4193, 4600, 4624, 4648, 4610, 4879, 4903, 4927, 4889
4194, 4620, 4568, 4567, 4597, 4899, 4847, 4846, 4876
4195, 4583, 4703, 4588, 4632, 4862, 4982, 4867, 4911
4196, 4519, 4638, 4521, 4520, 4798, 4917, 4800, 4799
4197, 4575, 4521, 4638, 4599, 4854, 4800, 4917, 4878
4198, 4559, 4624, 4580, 4540, 4838, 4903, 4859, 4819
4199, 4550, 4705, 4613, 4701, 4829, 4984, 4892, 4980
4200, 4638, 4519, 4572, 4623, 4917, 4798, 4851, 4902
4201, 4689, 4684, 4694, 4741, 4968, 4963, 4973, 5020
4202, 4644, 4706, 4606, 4679, 4923, 4985, 4885, 4958
4203, 4607, 4715, 4595, 4592, 4886, 4994, 4874, 4871
4204, 4608, 4633, 4621, 4596, 4887, 4912, 4900, 4875
4205, 4681, 4631, 4718, 4660, 4960, 4910, 4997, 4939
4206, 4609, 4717, 4625, 4708, 4888, 4996, 4904, 4987
4207, 4717, 4609, 4702, 4590, 4996, 4888, 4981, 4869
4208, 4659, 4626, 4597, 4610, 4938, 4905, 4876, 4889
4209, 4651, 4673, 4648, 4710, 4930, 4952, 4927, 4989
4210, 4664, 4611, 4709, 4583, 4943, 4890, 4988, 4862
4211, 4679, 4606, 4589, 4612, 4958, 4885, 4868, 4891
4212, 4631, 4681, 4635, 4613, 4910, 4960, 4914, 4892
4213, 4599, 4657, 4614, 4622, 4878, 4936, 4893, 4901
4214, 4651, 4587, 4614, 4636, 4930, 4866, 4893, 4915
4215, 4615, 4616, 4727, 4629, 4894, 4895, 5006, 4908
4216, 4653, 4634, 4712, 4586, 4932, 4913, 4991, 4865
4217, 4594, 4728, 4640, 4711, 4873, 5007, 4919, 4990
4218, 4619, 4593, 4714, 4628, 4898, 4872, 4993, 4907
4219, 4633, 4641, 4618, 4621, 4912, 4920, 4897, 4900
4220, 4657, 4676, 4671, 4672, 4936, 4955, 4950, 4951
4221, 4717, 4611, 4664, 4625, 4996, 4890, 4943, 4904
4222, 4637, 4641, 4690, 4726, 4916, 4920, 4969, 5005
4223, 4585, 4627, 4649, 4650, 4864, 4906, 4928, 4929
4224, 4628, 4649, 4627, 4619, 4907, 4928, 4906, 4898
4225, 4696, 4646, 4633, 4608, 4975, 4925, 4912, 4887
4226, 4640, 4727, 4616, 4711, 4919, 5006, 4895, 4990
4227, 4626, 4647, 4630, 4729, 4905, 4926, 4909, 5008
4228, 4658, 4640, 4728, 4630, 4937, 4919, 5007, 4909
4229, 4705, 4713, 4631, 4613, 4984, 4992, 4910, 4892
4230, 4681, 4676, 4645, 4635, 4960, 4955, 4924, 4914
4231, 4584, 4712, 4634, 4654, 4863, 4991, 4913, 4933
4232, 4663, 4734, 4654, 4634, 4942, 5013, 4933, 4913
4233, 4599, 4638, 4623, 4645, 4878, 4917, 4902, 4924
4234, 4676, 4657, 4599, 4645, 4955, 4936, 4878, 4924
4235, 4673, 4659, 4610, 4648, 4952, 4938, 4889, 4927
4236, 4641, 4637, 4707, 4618, 4920, 4916, 4986, 4897
4237, 4650, 4649, 4662, 4718, 4929, 4928, 4941, 4997
4238, 4711, 4565, 4642, 4594, 4990, 4844, 4921, 4873
4239, 4618, 4707, 4564, 4643, 4897, 4986, 4843, 4922
4240, 4726, 4652, 4714, 4637, 5005, 4931, 4993, 4916
4241, 4727, 4640, 4658, 4733, 5006, 4919, 4937, 5012
4242, 4668, 4679, 4612, 4734, 4947, 4958, 4891, 5013
4243, 4743, 4738, 4697, 4742, 5022, 5017, 4976, 5021
4244, 4730, 4694, 4646, 4696, 5009, 4973, 4925, 4975
4245, 4710, 4655, 4587, 4651, 4989, 4934, 4866, 4930
4246, 4705, 4585, 4650, 4713, 4984, 4864, 4929, 4992
4247, 4725, 4636, 4672, 4661, 5004, 4915, 4951, 4940
4248, 4678, 4685, 4661, 4699, 4957, 4964, 4940, 4978
4249, 4660, 4718, 4662, 4678, 4939, 4997, 4941, 4957
4250, 4656, 4719, 4652, 4726, 4935, 4998, 4931, 5005
4251, 4672, 4636, 4614, 4657, 4951, 4915, 4893, 4936
4252, 4670, 4658, 4630, 4647, 4949, 4937, 4909, 4926
4253, 4670, 4675, 4733, 4658, 4949, 4954, 5012, 4937
4254, 4673, 4682, 4674, 4659, 4952, 4961, 4953, 4938
4255, 4662, 4719, 4656, 4669, 4941, 4998, 4935, 4948
4256, 4699, 4671, 4660, 4678, 4978, 4950, 4939, 4957
4257, 4661, 4682, 4673, 4725, 4940, 4961, 4952, 5004
4258, 4674, 4680, 4670, 4647, 4953, 4959, 4949, 4926
4259, 4722, 4732, 4691, 4667, 5001, 5011, 4970, 4946
4260, 4683, 4663, 4634, 4653, 4962, 4942, 4913, 4932
4261, 4644, 4723, 4664, 4724, 4923, 5002, 4943, 5003
4262, 4722, 4667, 4716, 4625, 5001, 4946, 4995, 4904
4263, 4679, 4668, 4688, 4665, 4958, 4947, 4967, 4944
4264, 4679, 4665, 4723, 4644, 4958, 4944, 5002, 4923
4265, 4689, 4739, 4680, 4677, 4968, 5018, 4959, 4956
4266, 4697, 4666, 4663, 4683, 4976, 4945, 4942, 4962
4267, 4665, 4732, 4722, 4723, 4944, 5011, 5001, 5002
4268, 4734, 4612, 4584, 4654, 5013, 4891, 4863, 4933
4269, 4669, 4687, 4735, 4685, 4948, 4966, 5014, 4964
4270, 4656, 4677, 4687, 4669, 4935, 4956, 4966, 4948
4271, 4626, 4659, 4674, 4647, 4905, 4938, 4953, 4926
4272, 4736, 4691, 4688, 4692, 5015, 4970, 4967, 4971
4273, 4629, 4675, 4683, 4653, 4908, 4954, 4962, 4932
4274, 4660, 4671, 4676, 4681, 4939, 4950, 4955, 4960
4275, 4662, 4669, 4685, 4678, 4941, 4948, 4964, 4957
4276, 4680, 4686, 4675, 4670, 4959, 4965, 4954, 4949
4277, 4738, 4692, 4666, 4697, 5017, 4971, 4945, 4976
4278, 4661, 4672, 4671, 4699, 4940, 4951, 4950, 4978
4279, 4674, 4687, 4677, 4680, 4953, 4966, 4956, 4959
4280, 4668, 4666, 4692, 4688, 4947, 4945, 4971, 4967
4281, 4693, 4741, 4694, 4730, 4972, 5020, 4973, 5009
4282, 4689, 4677, 4656, 4684, 4968, 4956, 4935, 4963
4283, 4675, 4686, 4697, 4683, 4954, 4965, 4976, 4962
4284, 4682, 4735, 4687, 4674, 4961, 5014, 4966, 4953
4285, 4726, 4690, 4684, 4656, 5005, 4969, 4963, 4935
4286, 4665, 4688, 4691, 4732, 4944, 4967, 4970, 5011
4287, 4721, 4731, 4695, 4720, 5000, 5010, 4974, 4999
4288, 4742, 4693, 4737, 4743, 5021, 4972, 5016, 5022
4289, 4698, 4736, 4692, 4738, 4977, 5015, 4971, 5017
4290, 4693, 4742, 4740, 4741, 4972, 5021, 5019, 5020
4291, 4691, 4736, 4698, 4731, 4970, 5015, 4977, 5010
4292, 4698, 4737, 4695, 4731, 4977, 5016, 4974, 5010
4293, 4715, 4607, 4721, 4720, 4994, 4886, 5000, 4999
4294, 4608, 4715, 4720, 4696, 4887, 4994, 4999, 4975
4295, 4735, 4682, 4661, 4685, 5014, 4961, 4940, 4964
4296, 4609, 4708, 4558, 4702, 4888, 4987, 4837, 4981
4297, 4718, 4631, 4713, 4650, 4997, 4910, 4992, 4929
4298, 4632, 4588, 4598, 4706, 4911, 4867, 4877, 4985
4299, 4637, 4714, 4593, 4707, 4916, 4993, 4872, 4986
4300, 4625, 4716, 4591, 4708, 4904, 4995, 4870, 4987
4301, 4611, 4551, 4548, 4709, 4890, 4830, 4827, 4988
4302, 4648, 4624, 4559, 4710, 4927, 4903, 4838, 4989
4303, 4652, 4719, 4628, 4714, 4931, 4998, 4907, 4993
4304, 4667, 4721, 4607, 4716, 4946, 5000, 4886, 4995
4305, 4695, 4730, 4696, 4720, 4974, 5009, 4975, 4999
4306, 4723, 4722, 4625, 4664, 5002, 5001, 4904, 4943
4307, 4664, 4583, 4632, 4724, 4943, 4862, 4911, 5003
4308, 4725, 4673, 4651, 4636, 5004, 4952, 4930, 4915
4309, 4586, 4615, 4629, 4653, 4865, 4894, 4908, 4932
4310, 4727, 4733, 4675, 4629, 5006, 5012, 4954, 4908
4311, 4594, 4617, 4630, 4728, 4873, 4896, 4909, 5007
4312, 4620, 4597, 4626, 4729, 4899, 4876, 4905, 5008
4313, 4695, 4737, 4693, 4730, 4974, 5016, 4972, 5009
4314, 4721, 4667, 4691, 4731, 5000, 4946, 4970, 5010
4315, 4740, 4686, 4680, 4739, 5019, 4965, 4959, 5018
4316, 4697, 4686, 4740, 4742, 4976, 4965, 5019, 5021
4317, 4741, 4740, 4739, 4689, 5020, 5019, 5018, 4968
4318, 4737, 4698, 4738, 4743, 5016, 4977, 5017, 5022
4319, 4759, 4849, 4852, 4744, 5038, 5128, 5131, 5023
4320, 4877, 4867, 4792, 4852, 5156, 5146, 5071, 5131
4321, 4744, 4852, 4792, 4745, 5023, 5131, 5071, 5024
4322, 4808, 4746, 4745, 4792, 5087, 5025, 5024, 5071
4323, 4791, 4825, 4809, 4773, 5070, 5104, 5088, 5052
4324, 4748, 4806, 4811, 4777, 5027, 5085, 5090, 5056
4325, 4826, 4828, 4891, 4868, 5105, 5107, 5170, 5147
4326, 4858, 4770, 4789, 4823, 5137, 5049, 5068, 5102
4327, 4822, 4861, 4883, 4921, 5101, 5140, 5162, 5200
4328, 4861, 4768, 4787, 4821, 5140, 5047, 5066, 5100
4329, 4765, 4796, 4819, 4785, 5044, 5075, 5098, 5064
4330, 4859, 4766, 4785, 4819, 5138, 5045, 5064, 5098
4331, 4801, 4797, 4836, 4832, 5080, 5076, 5115, 5111
4332, 4761, 4799, 4800, 4762, 5040, 5078, 5079, 5041
4333, 4758, 4851, 4798, 4760, 5037, 5130, 5077, 5039
4334, 4799, 4761, 4760, 4798, 5078, 5040, 5039, 5077
4335, 4866, 4833, 4901, 4893, 5145, 5112, 5180, 5172
4336, 4854, 4763, 4762, 4800, 5133, 5042, 5041, 5079
4337, 4980, 4817, 4979, 4829, 5259, 5096, 5258, 5108
4338, 4892, 4914, 4880, 4980, 5171, 5193, 5159, 5259
4339, 4842, 4839, 4870, 4871, 5121, 5118, 5149, 5150
4340, 4815, 4781, 4752, 4803, 5094, 5060, 5031, 5082
4341, 4828, 4826, 4809, 4825, 5107, 5105, 5088, 5104
4342, 4813, 4779, 4750, 4804, 5092, 5058, 5029, 5083
4343, 4812, 4778, 4749, 4805, 5091, 5057, 5028, 5084
4344, 4827, 4982, 4862, 4988, 5106, 5261, 5141, 5267
4345, 4856, 4747, 4776, 4810, 5135, 5026, 5055, 5089
4346, 4877, 4983, 4885, 4985, 5156, 5262, 5164, 5264
4347, 4747, 4856, 4806, 4748, 5026, 5135, 5085, 5027
4348, 4860, 4751, 4779, 4813, 5139, 5030, 5058, 5092
4349, 4848, 4884, 4814, 4860, 5127, 5163, 5093, 5139
4350, 4857, 4753, 4781, 4815, 5136, 5032, 5060, 5094
4351, 4797, 4816, 4882, 4836, 5076, 5095, 5161, 5115
4352, 4801, 4979, 4783, 4755, 5080, 5258, 5062, 5034
4353, 4901, 4833, 4802, 4818, 5180, 5112, 5081, 5097
4354, 4820, 4786, 4766, 4859, 5099, 5065, 5045, 5138
4355, 4821, 4787, 4767, 4795, 5100, 5066, 5046, 5074
4356, 4823, 4789, 4769, 4794, 5102, 5068, 5048, 5073
4357, 4824, 4858, 4881, 4918, 5103, 5137, 5160, 5197
4358, 4793, 4772, 4771, 4807, 5072, 5051, 5050, 5086
4359, 4850, 4775, 4774, 4853, 5129, 5054, 5053, 5132
4360, 4853, 4774, 4773, 4809, 5132, 5053, 5052, 5088
4361, 4810, 4776, 4746, 4808, 5089, 5055, 5025, 5087
4362, 4825, 4791, 4772, 4793, 5104, 5070, 5051, 5072
4363, 4788, 4822, 4794, 4769, 5067, 5101, 5073, 5048
4364, 4786, 4820, 4795, 4767, 5065, 5099, 5074, 5046
4365, 4979, 4817, 4756, 4783, 5258, 5096, 5035, 5062
4366, 4764, 4802, 4796, 4765, 5043, 5081, 5075, 5044
4367, 4782, 4816, 4797, 4754, 5061, 5095, 5076, 5033
4368, 4801, 4755, 4754, 4797, 5080, 5034, 5033, 5076
4369, 4817, 4980, 4880, 4855, 5096, 5259, 5159, 5134
4370, 4818, 4784, 4763, 4854, 5097, 5063, 5042, 5133
4371, 4784, 4818, 4802, 4764, 5063, 5097, 5081, 5043
4372, 4817, 4855, 4757, 4756, 5096, 5134, 5036, 5035
4373, 4820, 4859, 4903, 4879, 5099, 5138, 5182, 5158
4374, 4871, 4874, 4845, 4842, 5150, 5153, 5124, 5121
4375, 4780, 4814, 4803, 4752, 5059, 5093, 5082, 5031
4376, 4830, 4869, 4806, 4856, 5109, 5148, 5085, 5135
4377, 4778, 4812, 4804, 4750, 5057, 5091, 5083, 5029
4378, 4987, 4870, 4839, 4837, 5266, 5149, 5118, 5116
4379, 4777, 4811, 4805, 4749, 5056, 5090, 5084, 5028
4380, 4982, 4827, 4810, 4808, 5261, 5106, 5089, 5087
4381, 4790, 4824, 4807, 4771, 5069, 5103, 5086, 5050
4382, 4831, 4828, 4825, 4793, 5110, 5107, 5104, 5072
4383, 4759, 4775, 4850, 4849, 5038, 5054, 5129, 5128
4384, 4804, 4812, 4839, 4842, 5083, 5091, 5118, 5121
4385, 4981, 4837, 4805, 4811, 5260, 5116, 5084, 5090
4386, 4814, 4780, 4751, 4860, 5093, 5059, 5030, 5139
4387, 4896, 4883, 4847, 4899, 5175, 5162, 5126, 5178
4388, 4906, 4864, 4832, 4836, 5185, 5143, 5111, 5115
4389, 4816, 4782, 4753, 4857, 5095, 5061, 5032, 5136
4390, 4796, 4802, 4833, 4834, 5075, 5081, 5112, 5113
4391, 4902, 4851, 4855, 4880, 5181, 5130, 5134, 5159
4392, 4818, 4854, 4878, 4901, 5097, 5133, 5157, 5180
4393, 4795, 4820, 4879, 4846, 5074, 5099, 5158, 5125
4394, 4934, 4834, 4833, 4866, 5213, 5113, 5112, 5145
4395, 4822, 4788, 4768, 4861, 5101, 5067, 5047, 5140
4396, 4969, 4925, 4973, 4963, 5248, 5204, 5252, 5242
4397, 4824, 4790, 4770, 4858, 5103, 5069, 5049, 5137
4398, 4923, 5003, 4911, 4985, 5202, 5282, 5190, 5264
4399, 4856, 4810, 4827, 4830, 5135, 5089, 5106, 5109
4400, 4793, 4807, 4835, 4831, 5072, 5086, 5114, 5110
4401, 4979, 4801, 4832, 4829, 5258, 5080, 5111, 5108
4402, 4812, 4805, 4837, 4839, 5091, 5084, 5116, 5118
4403, 4918, 4835, 4807, 4824, 5197, 5114, 5086, 5103
4404, 4841, 4882, 4816, 4857, 5120, 5161, 5095, 5136
4405, 4834, 4838, 4819, 4796, 5113, 5117, 5098, 5075
4406, 4844, 4840, 4823, 4794, 5123, 5119, 5102, 5073
4407, 4840, 4881, 4858, 4823, 5119, 5160, 5137, 5102
4408, 4857, 4815, 4843, 4841, 5136, 5094, 5122, 5120
4409, 4813, 4804, 4842, 4845, 5092, 5083, 5121, 5124
4410, 4860, 4813, 4845, 4848, 5139, 5092, 5124, 5127
4411, 4821, 4795, 4846, 4847, 5100, 5074, 5125, 5126
4412, 4894, 4881, 4840, 4895, 5173, 5160, 5119, 5174
4413, 4815, 4803, 4922, 4843, 5094, 5082, 5201, 5122
4414, 4872, 4898, 4882, 4841, 5151, 5177, 5161, 5120
4415, 4921, 4844, 4794, 4822, 5200, 5123, 5073, 5101
4416, 4898, 4906, 4836, 4882, 5177, 5185, 5115, 5161
4417, 4803, 4814, 4884, 4922, 5082, 5093, 5163, 5201
4418, 4873, 4921, 4883, 4896, 5152, 5200, 5162, 5175
4419, 4912, 4925, 4969, 4920, 5191, 5204, 5248, 5199
4420, 4847, 4883, 4861, 4821, 5126, 5162, 5140, 5100
4421, 4994, 4887, 4875, 4874, 5273, 5166, 5154, 5153
4422, 4809, 4826, 4868, 4853, 5088, 5105, 5147, 5132
4423, 4849, 4850, 4853, 4983, 5128, 5129, 5132, 5262
4424, 4855, 4851, 4758, 4757, 5134, 5130, 5037, 5036
4425, 4808, 4792, 4867, 4982, 5087, 5071, 5146, 5261
4426, 4811, 4806, 4869, 4981, 5090, 5085, 5148, 5260
4427, 4918, 4865, 4991, 4835, 5197, 5144, 5270, 5114
4428, 4869, 4830, 4890, 4996, 5148, 5109, 5169, 5275
4429, 4891, 4828, 4831, 4863, 5170, 5107, 5110, 5142
4430, 4984, 4829, 4832, 4864, 5263, 5108, 5111, 5143
4431, 4924, 4902, 4880, 4914, 5203, 5181, 5159, 5193
4432, 4865, 4918, 4881, 4894, 5144, 5197, 5160, 5173
4433, 4863, 4831, 4835, 4991, 5142, 5110, 5114, 5270
4434, 4989, 4838, 4834, 4934, 5268, 5117, 5113, 5213
4435, 4876, 4846, 4879, 4889, 5155, 5125, 5158, 5168
4436, 4983, 4877, 4852, 4849, 5262, 5156, 5131, 5128
4437, 4885, 4983, 4853, 4868, 5164, 5262, 5132, 5147
4438, 4871, 4870, 4995, 4886, 5150, 5149, 5274, 5165
4439, 4874, 4875, 4848, 4845, 5153, 5154, 5127, 5124
4440, 4900, 4897, 4922, 4884, 5179, 5176, 5201, 5163
4441, 4986, 4872, 4841, 4843, 5265, 5151, 5120, 5122
4442, 4998, 4941, 4928, 4907, 5277, 5220, 5207, 5186
4443, 4895, 4840, 4844, 4990, 5174, 5119, 5123, 5269
4444, 5013, 4942, 4945, 4947, 5292, 5221, 5224, 5226
4445, 4875, 4900, 4884, 4848, 5154, 5179, 5163, 5127
4446, 4909, 4896, 4899, 5008, 5188, 5175, 5178, 5287
4447, 4879, 4903, 4927, 4889, 5158, 5182, 5206, 5168
4448, 4899, 4847, 4846, 4876, 5178, 5126, 5125, 5155
4449, 4862, 4982, 4867, 4911, 5141, 5261, 5146, 5190
4450, 4798, 4917, 4800, 4799, 5077, 5196, 5079, 5078
4451, 4854, 4800, 4917, 4878, 5133, 5079, 5196, 5157
4452, 4838, 4903, 4859, 4819, 5117, 5182, 5138, 5098
4453, 4829, 4984, 4892, 4980, 5108, 5263, 5171, 5259
4454, 4917, 4798, 4851, 4902, 5196, 5077, 5130, 5181
4455, 4968, 4963, 4973, 5020, 5247, 5242, 5252, 5299
4456, 4923, 4985, 4885, 4958, 5202, 5264, 5164, 5237
4457, 4886, 4994, 4874, 4871, 5165, 5273, 5153, 5150
4458, 4887, 4912, 4900, 4875, 5166, 5191, 5179, 5154
4459, 4960, 4910, 4997, 4939, 5239, 5189, 5276, 5218
4460, 4888, 4996, 4904, 4987, 5167, 5275, 5183, 5266
4461, 4996, 4888, 4981, 4869, 5275, 5167, 5260, 5148
4462, 4938, 4905, 4876, 4889, 5217, 5184, 5155, 5168
4463, 4930, 4952, 4927, 4989, 5209, 5231, 5206, 5268
4464, 4943, 4890, 4988, 4862, 5222, 5169, 5267, 5141
4465, 4958, 4885, 4868, 4891, 5237, 5164, 5147, 5170
4466, 4910, 4960, 4914, 4892, 5189, 5239, 5193, 5171
4467, 4878, 4936, 4893, 4901, 5157, 5215, 5172, 5180
4468, 4930, 4866, 4893, 4915, 5209, 5145, 5172, 5194
4469, 4894, 4895, 5006, 4908, 5173, 5174, 5285, 5187
4470, 4932, 4913, 4991, 4865, 5211, 5192, 5270, 5144
4471, 4873, 5007, 4919, 4990, 5152, 5286, 5198, 5269
4472, 4898, 4872, 4993, 4907, 5177, 5151, 5272, 5186
4473, 4912, 4920, 4897, 4900, 5191, 5199, 5176, 5179
4474, 4936, 4955, 4950, 4951, 5215, 5234, 5229, 5230
4475, 4996, 4890, 4943, 4904, 5275, 5169, 5222, 5183
4476, 4916, 4920, 4969, 5005, 5195, 5199, 5248, 5284
4477, 4864, 4906, 4928, 4929, 5143, 5185, 5207, 5208
4478, 4907, 4928, 4906, 4898, 5186, 5207, 5185, 5177
4479, 4975, 4925, 4912, 4887, 5254, 5204, 5191, 5166
4480, 4919, 5006, 4895, 4990, 5198, 5285, 5174, 5269
4481, 4905, 4926, 4909, 5008, 5184, 5205, 5188, 5287
4482, 4937, 4919, 5007, 4909, 5216, 5198, 5286, 5188
4483, 4984, 4992, 4910, 4892, 5263, 5271, 5189, 5171
4484, 4960, 4955, 4924, 4914, 5239, 5234, 5203, 5193
4485, 4863, 4991, 4913, 4933, 5142, 5270, 5192, 5212
4486, 4942, 5013, 4933, 4913, 5221, 5292, 5212, 5192
4487, 4878, 4917, 4902, 4924, 5157, 5196, 5181, 5203
4488, 4955, 4936, 4878, 4924, 5234, 5215, 5157, 5203
4489, 4952, 4938, 4889, 4927, 5231, 5217, 5168, 5206
4490, 4920, 4916, 4986, 4897, 5199, 5195, 5265, 5176
4491, 4929, 4928, 4941, 4997, 5208, 5207, 5220, 5276
4492, 4990, 4844, 4921, 4873, 5269, 5123, 5200, 5152
4493, 4897, 4986, 4843, 4922, 5176, 5265, 5122, 5201
4494, 5005, 4931, 4993, 4916, 5284, 5210, 5272, 5195
4495, 5006, 4919, 4937, 5012, 5285, 5198, 5216, 5291
4496, 4947, 4958, 4891, 5013, 5226, 5237, 5170, 5292
4497, 5022, 5017, 4976, 5021, 5301, 5296, 5255, 5300
4498, 5009, 4973, 4925, 4975, 5288, 5252, 5204, 5254
4499, 4989, 4934, 4866, 4930, 5268, 5213, 5145, 5209
4500, 4984, 4864, 4929, 4992, 5263, 5143, 5208, 5271
4501, 5004, 4915, 4951, 4940, 5283, 5194, 5230, 5219
4502, 4957, 4964, 4940, 4978, 5236, 5243, 5219, 5257
4503, 4939, 4997, 4941, 4957, 5218, 5276, 5220, 5236
4504, 4935, 4998, 4931, 5005, 5214, 5277, 5210, 5284
4505, 4951, 4915, 4893, 4936, 5230, 5194, 5172, 5215
4506, 4949, 4937, 4909, 4926, 5228, 5216, 5188, 5205
4507, 4949, 4954, 5012, 4937, 5228, 5233, 5291, 5216
4508, 4952, 4961, 4953, 4938, 5231, 5240, 5232, 5217
4509, 4941, 4998, 4935, 4948, 5220, 5277, 5214, 5227
4510, 4978, 4950, 4939, 4957, 5257, 5229, 5218, 5236
4511, 4940, 4961, 4952, 5004, 5219, 5240, 5231, 5283
4512, 4953, 4959, 4949, 4926, 5232, 5238, 5228, 5205
4513, 5001, 5011, 4970, 4946, 5280, 5290, 5249, 5225
4514, 4962, 4942, 4913, 4932, 5241, 5221, 5192, 5211
4515, 4923, 5002, 4943, 5003, 5202, 5281, 5222, 5282
4516, 5001, 4946, 4995, 4904, 5280, 5225, 5274, 5183
4517, 4958, 4947, 4967, 4944, 5237, 5226, 5246, 5223
4518, 4958, 4944, 5002, 4923, 5237, 5223, 5281, 5202
4519, 4968, 5018, 4959, 4956, 5247, 5297, 5238, 5235
4520, 4976, 4945, 4942, 4962, 5255, 5224, 5221, 5241
4521, 4944, 5011, 5001, 5002, 5223, 5290, 5280, 5281
4522, 5013, 4891, 4863, 4933, 5292, 5170, 5142, 5212
4523, 4948, 4966, 5014, 4964, 5227, 5245, 5293, 5243
4524, 4935, 4956, 4966, 4948, 5214, 5235, 5245, 5227
4525, 4905, 4938, 4953, 4926, 5184, 5217, 5232, 5205
4526, 5015, 4970, 4967, 4971, 5294, 5249, 5246, 5250
4527, 4908, 4954, 4962, 4932, 5187, 5233, 5241, 5211
4528, 4939, 4950, 4955, 4960, 5218, 5229, 5234, 5239
4529, 4941, 4948, 4964, 4957, 5220, 5227, 5243, 5236
4530, 4959, 4965, 4954, 4949, 5238, 5244, 5233, 5228
4531, 5017, 4971, 4945, 4976, 5296, 5250, 5224, 5255
4532, 4940, 4951, 4950, 4978, 5219, 5230, 5229, 5257
4533, 4953, 4966, 4956, 4959, 5232, 5245, 5235, 5238
4534, 4947, 4945, 4971, 4967, 5226, 5224, 5250, 5246
4535, 4972, 5020, 4973, 5009, 5251, 5299, 5252, 5288
4536, 4968, 4956, 4935, 4963, 5247, 5235, 5214, 5242
4537, 4954, 4965, 4976, 4962, 5233, 5244, 5255, 5241
4538, 4961, 5014, 4966, 4953, 5240, 5293, 5245, 5232
4539, 5005, 4969, 4963, 4935, 5284, 5248, 5242, 5214
4540, 4944, 4967, 4970, 5011, 5223, 5246, 5249, 5290
4541, 5000, 5010, 4974, 4999, 5279, 5289, 5253, 5278
4542, 5021, 4972, 5016, 5022, 5300, 5251, 5295, 5301
4543, 4977, 5015, 4971, 5017, 5256, 5294, 5250, 5296
4544, 4972, 5021, 5019, 5020, 5251, 5300, 5298, 5299
4545, 4970, 5015, 4977, 5010, 5249, 5294, 5256, 5289
4546, 4977, 5016, 4974, 5010, 5256, 5295, 5253, 5289
4547, 4994, 4886, 5000, 4999, 5273, 5165, 5279, 5278
4548, 4887, 4994, 4999, 4975, 5166, 5273, 5278, 5254
4549, 5014, 4961, 4940, 4964, 5293, 5240, 5219, 5243
4550, 4888, 4987, 4837, 4981, 5167, 5266, 5116, 5260
4551, 4997, 4910, 4992, 4929, 5276, 5189, 5271, 5208
4552, 4911, 4867, 4877, 4985, 5190, 5146, 5156, 5264
4553, 4916, 4993, 4872, 4986, 5195, 5272, 5151, 5265
4554, 4904, 4995, 4870, 4987, 5183, 5274, 5149, 5266
4555, 4890, 4830, 4827, 4988, 5169, 5109, 5106, 5267
4556, 4927, 4903, 4838, 4989, 5206, 5182, 5117, 5268
4557, 4931, 4998, 4907, 4993, 5210, 5277, 5186, 5272
4558, 4946, 5000, 4886, 4995, 5225, 5279, 5165, 5274
4559, 4974, 5009, 4975, 4999, 5253, 5288, 5254, 5278
4560, 5002, 5001, 4904, 4943, 5281, 5280, 5183, 5222
4561, 4943, 4862, 4911, 5003, 5222, 5141, 5190, 5282
4562, 5004, 4952, 4930, 4915, 5283, 5231, 5209, 5194
4563, 4865, 4894, 4908, 4932, 5144, 5173, 5187, 5211
4564, 5006, 5012, 4954, 4908, 5285, 5291, 5233, 5187
4565, 4873, 4896, 4909, 5007, 5152, 5175, 5188, 5286
4566, 4899, 4876, 4905, 5008, 5178, 5155, 5184, 5287
4567, 4974, 5016, 4972, 5009, 5253, 5295, 5251, 5288
4568, 5000, 4946, 4970, 5010, 5279, 5225, 5249, 5289
4569, 5019, 4965, 4959, 5018, 5298, 5244, 5238, 5297
4570, 4976, 4965, 5019, 5021, 5255, 5244, 5298, 5300
4571, 5020, 5019, 5018, 4968, 5299, 5298, 5297, 5247
4572, 5016, 4977, 5017, 5022, 5295, 5256, 5296, 5301
4573, 5038, 5128, 5131, 5023, 5317, 5407, 5410, 5302
4574, 5156, 5146, 5071, 5131, 5435, 5425, 5350, 5410
4575, 5023, 5131, 5071, 5024, 5302, 5410, 5350, 5303
4576, 5087, 5025, 5024, 5071, 5366, 5304, 5303, 5350
4577, 5070, 5104, 5088, 5052, 5349, 5383, 5367, 5331
4578, 5027, 5085, 5090, 5056, 5306, 5364, 5369, 5335
4579, 5105, 5107, 5170, 5147, 5384, 5386, 5449, 5426
4580, 5137, 5049, 5068, 5102, 5416, 5328, 5347, 5381
4581, 5101, 5140, 5162, 5200, 5380, 5419, 5441, 5479
4582, 5140, 5047, 5066, 5100, 5419, 5326, 5345, 5379
4583, 5044, 5075, 5098, 5064, 5323, 5354, 5377, 5343
4584, 5138, 5045, 5064, 5098, 5417, 5324, 5343, 5377
4585, 5080, 5076, 5115, 5111, 5359, 5355, 5394, 5390
4586, 5040, 5078, 5079, 5041, 5319, 5357, 5358, 5320
4587, 5037, 5130, 5077, 5039, 5316, 5409, 5356, 5318
4588, 5078, 5040, 5039, 5077, 5357, 5319, 5318, 5356
4589, 5145, 5112, 5180, 5172, 5424, 5391, 5459, 5451
4590, 5133, 5042, 5041, 5079, 5412, 5321, 5320, 5358
4591, 5259, 5096, 5258, 5108, 5538, 5375, 5537, 5387
4592, 5171, 5193, 5159, 5259, 5450, 5472, 5438, 5538
4593, 5121, 5118, 5149, 5150, 5400, 5397, 5428, 5429
4594, 5094, 5060, 5031, 5082, 5373, 5339, 5310, 5361
4595, 5107, 5105, 5088, 5104, 5386, 5384, 5367, 5383
4596, 5092, 5058, 5029, 5083, 5371, 5337, 5308, 5362
4597, 5091, 5057, 5028, 5084, 5370, 5336, 5307, 5363
4598, 5106, 5261, 5141, 5267, 5385, 5540, 5420, 5546
4599, 5135, 5026, 5055, 5089, 5414, 5305, 5334, 5368
4600, 5156, 5262, 5164, 5264, 5435, 5541, 5443, 5543
4601, 5026, 5135, 5085, 5027, 5305, 5414, 5364, 5306
4602, 5139, 5030, 5058, 5092, 5418, 5309, 5337, 5371
4603, 5127, 5163, 5093, 5139, 5406, 5442, 5372, 5418
4604, 5136, 5032, 5060, 5094, 5415, 5311, 5339, 5373
4605, 5076, 5095, 5161, 5115, 5355, 5374, 5440, 5394
4606, 5080, 5258, 5062, 5034, 5359, 5537, 5341, 5313
4607, 5180, 5112, 5081, 5097, 5459, 5391, 5360, 5376
4608, 5099, 5065, 5045, 5138, 5378, 5344, 5324, 5417
4609, 5100, 5066, 5046, 5074, 5379, 5345, 5325, 5353
4610, 5102, 5068, 5048, 5073, 5381, 5347, 5327, 5352
4611, 5103, 5137, 5160, 5197, 5382, 5416, 5439, 5476
4612, 5072, 5051, 5050, 5086, 5351, 5330, 5329, 5365
4613, 5129, 5054, 5053, 5132, 5408, 5333, 5332, 5411
4614, 5132, 5053, 5052, 5088, 5411, 5332, 5331, 5367
4615, 5089, 5055, 5025, 5087, 5368, 5334, 5304, 5366
4616, 5104, 5070, 5051, 5072, 5383, 5349, 5330, 5351
4617, 5067, 5101, 5073, 5048, 5346, 5380, 5352, 5327
4618, 5065, 5099, 5074, 5046, 5344, 5378, 5353, 5325
4619, 5258, 5096, 5035, 5062, 5537, 5375, 5314, 5341
4620, 5043, 5081, 5075, 5044, 5322, 5360, 5354, 5323
4621, 5061, 5095, 5076, 5033, 5340, 5374, 5355, 5312
4622, 5080, 5034, 5033, 5076, 5359, 5313, 5312, 5355
4623, 5096, 5259, 5159, 5134, 5375, 5538, 5438, 5413
4624, 5097, 5063, 5042, 5133, 5376, 5342, 5321, 5412
4625, 5063, 5097, 5081, 5043, 5342, 5376, 5360, 5322
4626, 5096, 5134, 5036, 5035, 5375, 5413, 5315, 5314
4627, 5099, 5138, 5182, 5158, 5378, 5417, 5461, 5437
4628, 5150, 5153, 5124, 5121, 5429, 5432, 5403, 5400
4629, 5059, 5093, 5082, 5031, 5338, 5372, 5361, 5310
4630, 5109, 5148, 5085, 5135, 5388, 5427, 5364, 5414
4631, 5057, 5091, 5083, 5029, 5336, 5370, 5362, 5308
4632, 5266, 5149, 5118, 5116, 5545, 5428, 5397, 5395
4633, 5056, 5090, 5084, 5028, 5335, 5369, 5363, 5307
4634, 5261, 5106, 5089, 5087, 5540, 5385, 5368, 5366
4635, 5069, 5103, 5086, 5050, 5348, 5382, 5365, 5329
4636, 5110, 5107, 5104, 5072, 5389, 5386, 5383, 5351
4637, 5038, 5054, 5129, 5128, 5317, 5333, 5408, 5407
4638, 5083, 5091, 5118, 5121, 5362, 5370, 5397, 5400
4639, 5260, 5116, 5084, 5090, 5539, 5395, 5363, 5369
4640, 5093, 5059, 5030, 5139, 5372, 5338, 5309, 5418
4641, 5175, 5162, 5126, 5178, 5454, 5441, 5405, 5457
4642, 5185, 5143, 5111, 5115, 5464, 5422, 5390, 5394
4643, 5095, 5061, 5032, 5136, 5374, 5340, 5311, 5415
4644, 5075, 5081, 5112, 5113, 5354, 5360, 5391, 5392
4645, 5181, 5130, 5134, 5159, 5460, 5409, 5413, 5438
4646, 5097, 5133, 5157, 5180, 5376, 5412, 5436, 5459
4647, 5074, 5099, 5158, 5125, 5353, 5378, 5437, 5404
4648, 5213, 5113, 5112, 5145, 5492, 5392, 5391, 5424
4649, 5101, 5067, 5047, 5140, 5380, 5346, 5326, 5419
4650, 5248, 5204, 5252, 5242, 5527, 5483, 5531, 5521
4651, 5103, 5069, 5049, 5137, 5382, 5348, 5328, 5416
4652, 5202, 5282, 5190, 5264, 5481, 5561, 5469, 5543
4653, 5135, 5089, 5106, 5109, 5414, 5368, 5385, 5388
4654, 5072, 5086, 5114, 5110, 5351, 5365, 5393, 5389
4655, 5258, 5080, 5111, 5108, 5537, 5359, 5390, 5387
4656, 5091, 5084, 5116, 5118, 5370, 5363, 5395, 5397
4657, 5197, 5114, 5086, 5103, 5476, 5393, 5365, 5382
4658, 5120, 5161, 5095, 5136, 5399, 5440, 5374, 5415
4659, 5113, 5117, 5098, 5075, 5392, 5396, 5377, 5354
4660, 5123, 5119, 5102, 5073, 5402, 5398, 5381, 5352
4661, 5119, 5160, 5137, 5102, 5398, 5439, 5416, 5381
4662, 5136, 5094, 5122, 5120, 5415, 5373, 5401, 5399
4663, 5092, 5083, 5121, 5124, 5371, 5362, 5400, 5403
4664, 5139, 5092, 5124, 5127, 5418, 5371, 5403, 5406
4665, 5100, 5074, 5125, 5126, 5379, 5353, 5404, 5405
4666, 5173, 5160, 5119, 5174, 5452, 5439, 5398, 5453
4667, 5094, 5082, 5201, 5122, 5373, 5361, 5480, 5401
4668, 5151, 5177, 5161, 5120, 5430, 5456, 5440, 5399
4669, 5200, 5123, 5073, 5101, 5479, 5402, 5352, 5380
4670, 5177, 5185, 5115, 5161, 5456, 5464, 5394, 5440
4671, 5082, 5093, 5163, 5201, 5361, 5372, 5442, 5480
4672, 5152, 5200, 5162, 5175, 5431, 5479, 5441, 5454
4673, 5191, 5204, 5248, 5199, 5470, 5483, 5527, 5478
4674, 5126, 5162, 5140, 5100, 5405, 5441, 5419, 5379
4675, 5273, 5166, 5154, 5153, 5552, 5445, 5433, 5432
4676, 5088, 5105, 5147, 5132, 5367, 5384, 5426, 5411
4677, 5128, 5129, 5132, 5262, 5407, 5408, 5411, 5541
4678, 5134, 5130, 5037, 5036, 5413, 5409, 5316, 5315
4679, 5087, 5071, 5146, 5261, 5366, 5350, 5425, 5540
4680, 5090, 5085, 5148, 5260, 5369, 5364, 5427, 5539
4681, 5197, 5144, 5270, 5114, 5476, 5423, 5549, 5393
4682, 5148, 5109, 5169, 5275, 5427, 5388, 5448, 5554
4683, 5170, 5107, 5110, 5142, 5449, 5386, 5389, 5421
4684, 5263, 5108, 5111, 5143, 5542, 5387, 5390, 5422
4685, 5203, 5181, 5159, 5193, 5482, 5460, 5438, 5472
4686, 5144, 5197, 5160, 5173, 5423, 5476, 5439, 5452
4687, 5142, 5110, 5114, 5270, 5421, 5389, 5393, 5549
4688, 5268, 5117, 5113, 5213, 5547, 5396, 5392, 5492
4689, 5155, 5125, 5158, 5168, 5434, 5404, 5437, 5447
4690, 5262, 5156, 5131, 5128, 5541, 5435, 5410, 5407
4691, 5164, 5262, 5132, 5147, 5443, 5541, 5411, 5426
4692, 5150, 5149, 5274, 5165, 5429, 5428, 5553, 5444
4693, 5153, 5154, 5127, 5124, 5432, 5433, 5406, 5403
4694, 5179, 5176, 5201, 5163, 5458, 5455, 5480, 5442
4695, 5265, 5151, 5120, 5122, 5544, 5430, 5399, 5401
4696, 5277, 5220, 5207, 5186, 5556, 5499, 5486, 5465
4697, 5174, 5119, 5123, 5269, 5453, 5398, 5402, 5548
4698, 5292, 5221, 5224, 5226, 5571, 5500, 5503, 5505
4699, 5154, 5179, 5163, 5127, 5433, 5458, 5442, 5406
4700, 5188, 5175, 5178, 5287, 5467, 5454, 5457, 5566
4701, 5158, 5182, 5206, 5168, 5437, 5461, 5485, 5447
4702, 5178, 5126, 5125, 5155, 5457, 5405, 5404, 5434
4703, 5141, 5261, 5146, 5190, 5420, 5540, 5425, 5469
4704, 5077, 5196, 5079, 5078, 5356, 5475, 5358, 5357
4705, 5133, 5079, 5196, 5157, 5412, 5358, 5475, 5436
4706, 5117, 5182, 5138, 5098, 5396, 5461, 5417, 5377
4707, 5108, 5263, 5171, 5259, 5387, 5542, 5450, 5538
4708, 5196, 5077, 5130, 5181, 5475, 5356, 5409, 5460
4709, 5247, 5242, 5252, 5299, 5526, 5521, 5531, 5578
4710, 5202, 5264, 5164, 5237, 5481, 5543, 5443, 5516
4711, 5165, 5273, 5153, 5150, 5444, 5552, 5432, 5429
4712, 5166, 5191, 5179, 5154, 5445, 5470, 5458, 5433
4713, 5239, 5189, 5276, 5218, 5518, 5468, 5555, 5497
4714, 5167, 5275, 5183, 5266, 5446, 5554, 5462, 5545
4715, 5275, 5167, 5260, 5148, 5554, 5446, 5539, 5427
4716, 5217, 5184, 5155, 5168, 5496, 5463, 5434, 5447
4717, 5209, 5231, 5206, 5268, 5488, 5510, 5485, 5547
4718, 5222, 5169, 5267, 5141, 5501, 5448, 5546, 5420
4719, 5237, 5164, 5147, 5170, 5516, 5443, 5426, 5449
4720, 5189, 5239, 5193, 5171, 5468, 5518, 5472, 5450
4721, 5157, 5215, 5172, 5180, 5436, 5494, 5451, 5459
4722, 5209, 5145, 5172, 5194, 5488, 5424, 5451, 5473
4723, 5173, 5174, 5285, 5187, 5452, 5453, 5564, 5466
4724, 5211, 5192, 5270, 5144, 5490, 5471, 5549, 5423
4725, 5152, 5286, 5198, 5269, 5431, 5565, 5477, 5548
4726, 5177, 5151, 5272, 5186, 5456, 5430, 5551, 5465
4727, 5191, 5199, 5176, 5179, 5470, 5478, 5455, 5458
4728, 5215, 5234, 5229, 5230, 5494, 5513, 5508, 5509
4729, 5275, 5169, 5222, 5183, 5554, 5448, 5501, 5462
4730, 5195, 5199, 5248, 5284, 5474, 5478, 5527, 5563
4731, 5143, 5185, 5207, 5208, 5422, 5464, 5486, 5487
4732, 5186, 5207, 5185, 5177, 5465, 5486, 5464, 5456
4733, 5254, 5204, 5191, 5166, 5533, 5483, 5470, 5445
4734, 5198, 5285, 5174, 5269, 5477, 5564, 5453, 5548
4735, 5184, 5205, 5188, 5287, 5463, 5484, 5467, 5566
4736, 5216, 5198, 5286, 5188, 5495, 5477, 5565, 5467
4737, 5263, 5271, 5189, 5171, 5542, 5550, 5468, 5450
4738, 5239, 5234, 5203, 5193, 5518, 5513, 5482, 5472
4739, 5142, 5270, 5192, 5212, 5421, 5549, 5471, 5491
4740, 5221, 5292, 5212, 5192, 5500, 5571, 5491, 5471
4741, 5157, 5196, 5181, 5203, 5436, 5475, 5460, 5482
4742, 5234, 5215, 5157, 5203, 5513, 5494, 5436, 5482
4743, 5231, 5217, 5168, 5206, 5510, 5496, 5447, 5485
4744, 5199, 5195, 5265, 5176, 5478, 5474, 5544, 5455
4745, 5208, 5207, 5220, 5276, 5487, 5486, 5499, 5555
4746, 5269, 5123, 5200, 5152, 5548, 5402, 5479, 5431
4747, 5176, 5265, 5122, 5201, 5455, 5544, 5401, 5480
4748, 5284, 5210, 5272, 5195, 5563, 5489, 5551, 5474
4749, 5285, 5198, 5216, 5291, 5564, 5477, 5495, 5570
4750, 5226, 5237, 5170, 5292, 5505, 5516, 5449, 5571
4751, 5301, 5296, 5255, 5300, 5580, 5575, 5534, 5579
4752, 5288, 5252, 5204, 5254, 5567, 5531, 5483, 5533
4753, 5268, 5213, 5145, 5209, 5547, 5492, 5424, 5488
4754, 5263, 5143, 5208, 5271, 5542, 5422, 5487, 5550
4755, 5283, 5194, 5230, 5219, 5562, 5473, 5509, 5498
4756, 5236, 5243, 5219, 5257, 5515, 5522, 5498, 5536
4757, 5218, 5276, 5220, 5236, 5497, 5555, 5499, 5515
4758, 5214, 5277, 5210, 5284, 5493, 5556, 5489, 5563
4759, 5230, 5194, 5172, 5215, 5509, 5473, 5451, 5494
4760, 5228, 5216, 5188, 5205, 5507, 5495, 5467, 5484
4761, 5228, 5233, 5291, 5216, 5507, 5512, 5570, 5495
4762, 5231, 5240, 5232, 5217, 5510, 5519, 5511, 5496
4763, 5220, 5277, 5214, 5227, 5499, 5556, 5493, 5506
4764, 5257, 5229, 5218, 5236, 5536, 5508, 5497, 5515
4765, 5219, 5240, 5231, 5283, 5498, 5519, 5510, 5562
4766, 5232, 5238, 5228, 5205, 5511, 5517, 5507, 5484
4767, 5280, 5290, 5249, 5225, 5559, 5569, 5528, 5504
4768, 5241, 5221, 5192, 5211, 5520, 5500, 5471, 5490
4769, 5202, 5281, 5222, 5282, 5481, 5560, 5501, 5561
4770, 5280, 5225, 5274, 5183, 5559, 5504, 5553, 5462
4771, 5237, 5226, 5246, 5223, 5516, 5505, 5525, 5502
4772, 5237, 5223, 5281, 5202, 5516, 5502, 5560, 5481
4773, 5247, 5297, 5238, 5235, 5526, 5576, 5517, 5514
4774, 5255, 5224, 5221, 5241, 5534, 5503, 5500, 5520
4775, 5223, 5290, 5280, 5281, 5502, 5569, 5559, 5560
4776, 5292, 5170, 5142, 5212, 5571, 5449, 5421, 5491
4777, 5227, 5245, 5293, 5243, 5506, 5524, 5572, 5522
4778, 5214, 5235, 5245, 5227, 5493, 5514, 5524, 5506
4779, 5184, 5217, 5232, 5205, 5463, 5496, 5511, 5484
4780, 5294, 5249, 5246, 5250, 5573, 5528, 5525, 5529
4781, 5187, 5233, 5241, 5211, 5466, 5512, 5520, 5490
4782, 5218, 5229, 5234, 5239, 5497, 5508, 5513, 5518
4783, 5220, 5227, 5243, 5236, 5499, 5506, 5522, 5515
4784, 5238, 5244, 5233, 5228, 5517, 5523, 5512, 5507
4785, 5296, 5250, 5224, 5255, 5575, 5529, 5503, 5534
4786, 5219, 5230, 5229, 5257, 5498, 5509, 5508, 5536
4787, 5232, 5245, 5235, 5238, 5511, 5524, 5514, 5517
4788, 5226, 5224, 5250, 5246, 5505, 5503, 5529, 5525
4789, 5251, 5299, 5252, 5288, 5530, 5578, 5531, 5567
4790, 5247, 5235, 5214, 5242, 5526, 5514, 5493, 5521
4791, 5233, 5244, 5255, 5241, 5512, 5523, 5534, 5520
4792, 5240, 5293, 5245, 5232, 5519, 5572, 5524, 5511
4793, 5284, 5248, 5242, 5214, 5563, 5527, 5521, 5493
4794, 5223, 5246, 5249, 5290, 5502, 5525, 5528, 5569
4795, 5279, 5289, 5253, 5278, 5558, 5568, 5532, 5557
4796, 5300, 5251, 5295, 5301, 5579, 5530, 5574, 5580
4797, 5256, 5294, 5250, 5296, 5535, 5573, 5529, 5575
4798, 5251, 5300, 5298, 5299, 5530, 5579, 5577, 5578
4799, 5249, 5294, 5256, 5289, 5528, 5573, 5535, 5568
4800, 5256, 5295, 5253, 5289, 5535, 5574, 5532, 5568
4801, 5273, 5165, 5279, 5278, 5552, 5444, 5558, 5557
4802, 5166, 5273, 5278, 5254, 5445, 5552, 5557, 5533
4803, 5293, 5240, 5219, 5243, 5572, 5519, 5498, 5522
4804, 5167, 5266, 5116, 5260, 5446, 5545, 5395, 5539
4805, 5276, 5189, 5271, 5208, 5555, 5468, 5550, 5487
4806, 5190, 5146, 5156, 5264, 5469, 5425, 5435, 5543
4807, 5195, 5272, 5151, 5265, 5474, 5551, 5430, 5544
4808, 5183, 5274, 5149, 5266, 5462, 5553, 5428, 5545
4809, 5169, 5109, 5106, 5267, 5448, 5388, 5385, 5546
4810, 5206, 5182, 5117, 5268, 5485, 5461, 5396, 5547
4811, 5210, 5277, 5186, 5272, 5489, 5556, 5465, 5551
4812, 5225, 5279, 5165, 5274, 5504, 5558, 5444, 5553
4813, 5253, 5288, 5254, 5278, 5532, 5567, 5533, 5557
4814, 5281, 5280, 5183, 5222, 5560, 5559, 5462, 5501
4815, 5222, 5141, 5190, 5282, 5501, 5420, 5469, 5561
4816, 5283, 5231, 5209, 5194, 5562, 5510, 5488, 5473
4817, 5144, 5173, 5187, 5211, 5423, 5452, 5466, 5490
4818, 5285, 5291, 5233, 5187, 5564, 5570, 5512, 5466
4819, 5152, 5175, 5188, 5286, 5431, 5454, 5467, 5565
4820, 5178, 5155, 5184, 5287, 5457, 5434, 5463, 5566
4821, 5253, 5295, 5251, 5288, 5532, 5574, 5530, 5567
4822, 5279, 5225, 5249, 5289, 5558, 5504, 5528, 5568
4823, 5298, 5244, 5238, 5297, 5577, 5523, 5517, 5576
4824, 5255, 5244, 5298, 5300, 5534, 5523, 5577, 5579
4825, 5299, 5298, 5297, 5247, 5578, 5577, 5576, 5526
4826, 5295, 5256, 5296, 5301, 5574, 5535, 5575, 5580
4827, 5317, 5407, 5410, 5302, 5596, 5686, 5689, 5581
4828, 5435, 5425, 5350, 5410, 5714, 5704, 5629, 5689
4829, 5302, 5410, 5350, 5303, 5581, 5689, 5629, 5582
4830, 5366, 5304, 5303, 5350, 5645, 5583, 5582, 5629
4831, 5349, 5383, 5367, 5331, 5628, 5662, 5646, 5610
4832, 5306, 5364, 5369, 5335, 5585, 5643, 5648, 5614
4833, 5384, 5386, 5449, 5426, 5663, 5665, 5728, 5705
4834, 5416, 5328, 5347, 5381, 5695, 5607, 5626, 5660
4835, 5380, 5419, 5441, 5479, 5659, 5698, 5720, 5758
4836, 5419, 5326, 5345, 5379, 5698, 5605, 5624, 5658
4837, 5323, 5354, 5377, 5343, 5602, 5633, 5656, 5622
4838, 5417, 5324, 5343, 5377, 5696, 5603, 5622, 5656
4839, 5359, 5355, 5394, 5390, 5638, 5634, 5673, 5669
4840, 5319, 5357, 5358, 5320, 5598, 5636, 5637, 5599
4841, 5316, 5409, 5356, 5318, 5595, 5688, 5635, 5597
4842, 5357, 5319, 5318, 5356, 5636, 5598, 5597, 5635
4843, 5424, 5391, 5459, 5451, 5703, 5670, 5738, 5730
4844, 5412, 5321, 5320, 5358, 5691, 5600, 5599, 5637
4845, 5538, 5375, 5537, 5387, 5817, 5654, 5816, 5666
4846, 5450, 5472, 5438, 5538, 5729, 5751, 5717, 5817
4847, 5400, 5397, 5428, 5429, 5679, 5676, 5707, 5708
4848, 5373, 5339, 5310, 5361, 5652, 5618, 5589, 5640
4849, 5386, 5384, 5367, 5383, 5665, 5663, 5646, 5662
4850, 5371, 5337, 5308, 5362, 5650, 5616, 5587, 5641
4851, 5370, 5336, 5307, 5363, 5649, 5615, 5586, 5642
4852, 5385, 5540, 5420, 5546, 5664, 5819, 5699, 5825
4853, 5414, 5305, 5334, 5368, 5693, 5584, 5613, 5647
4854, 5435, 5541, 5443, 5543, 5714, 5820, 5722, 5822
4855, 5305, 5414, 5364, 5306, 5584, 5693, 5643, 5585
4856, 5418, 5309, 5337, 5371, 5697, 5588, 5616, 5650
4857, 5406, 5442, 5372, 5418, 5685, 5721, 5651, 5697
4858, 5415, 5311, 5339, 5373, 5694, 5590, 5618, 5652
4859, 5355, 5374, 5440, 5394, 5634, 5653, 5719, 5673
4860, 5359, 5537, 5341, 5313, 5638, 5816, 5620, 5592
4861, 5459, 5391, 5360, 5376, 5738, 5670, 5639, 5655
4862, 5378, 5344, 5324, 5417, 5657, 5623, 5603, 5696
4863, 5379, 5345, 5325, 5353, 5658, 5624, 5604, 5632
4864, 5381, 5347, 5327, 5352, 5660, 5626, 5606, 5631
4865, 5382, 5416, 5439, 5476, 5661, 5695, 5718, 5755
4866, 5351, 5330, 5329, 5365, 5630, 5609, 5608, 5644
4867, 5408, 5333, 5332, 5411, 5687, 5612, 5611, 5690
4868, 5411, 5332, 5331, 5367, 5690, 5611, 5610, 5646
4869, 5368, 5334, 5304, 5366, 5647, 5613, 5583, 5645
4870, 5383, 5349, 5330, 5351, 5662, 5628, 5609, 5630
4871, 5346, 5380, 5352, 5327, 5625, 5659, 5631, 5606
4872, 5344, 5378, 5353, 5325, 5623, 5657, 5632, 5604
4873, 5537, 5375, 5314, 5341, 5816, 5654, 5593, 5620
4874, 5322, 5360, 5354, 5323, 5601, 5639, 5633, 5602
4875, 5340, 5374, 5355, 5312, 5619, 5653, 5634, 5591
4876, 5359, 5313, 5312, 5355, 5638, 5592, 5591, 5634
4877, 5375, 5538, 5438, 5413, 5654, 5817, 5717, 5692
4878, 5376, 5342, 5321, 5412, 5655, 5621, 5600, 5691
4879, 5342, 5376, 5360, 5322, 5621, 5655, 5639, 5601
4880, 5375, 5413, 5315, 5314, 5654, 5692, 5594, 5593
4881, 5378, 5417, 5461, 5437, 5657, 5696, 5740, 5716
4882, 5429, 5432, 5403, 5400, 5708, 5711, 5682, 5679
4883, 5338, 5372, 5361, 5310, 5617, 5651, 5640, 5589
4884, 5388, 5427, 5364, 5414, 5667, 5706, 5643, 5693
4885, 5336, 5370, 5362, 5308, 5615, 5649, 5641, 5587
4886, 5545, 5428, 5397, 5395, 5824, 5707, 5676, 5674
4887, 5335, 5369, 5363, 5307, 5614, 5648, 5642, 5586
4888, 5540, 5385, 5368, 5366, 5819, 5664, 5647, 5645
4889, 5348, 5382, 5365, 5329, 5627, 5661, 5644, 5608
4890, 5389, 5386, 5383, 5351, 5668, 5665, 5662, 5630
4891, 5317, 5333, 5408, 5407, 5596, 5612, 5687, 5686
4892, 5362, 5370, 5397, 5400, 5641, 5649, 5676, 5679
4893, 5539, 5395, 5363, 5369, 5818, 5674, 5642, 5648
4894, 5372, 5338, 5309, 5418, 5651, 5617, 5588, 5697
4895, 5454, 5441, 5405, 5457, 5733, 5720, 5684, 5736
4896, 5464, 5422, 5390, 5394, 5743, 5701, 5669, 5673
4897, 5374, 5340, 5311, 5415, 5653, 5619, 5590, 5694
4898, 5354, 5360, 5391, 5392, 5633, 5639, 5670, 5671
4899, 5460, 5409, 5413, 5438, 5739, 5688, 5692, 5717
4900, 5376, 5412, 5436, 5459, 5655, 5691, 5715, 5738
4901, 5353, 5378, 5437, 5404, 5632, 5657, 5716, 5683
4902, 5492, 5392, 5391, 5424, 5771, 5671, 5670, 5703
4903, 5380, 5346, 5326, 5419, 5659, 5625, 5605, 5698
4904, 5527, 5483, 5531, 5521, 5806, 5762, 5810, 5800
4905, 5382, 5348, 5328, 5416, 5661, 5627, 5607, 5695
4906, 5481, 5561, 5469, 5543, 5760, 5840, 5748, 5822
4907, 5414, 5368, 5385, 5388, 5693, 5647, 5664, 5667
4908, 5351, 5365, 5393, 5389, 5630, 5644, 5672, 5668
4909, 5537, 5359, 5390, 5387, 5816, 5638, 5669, 5666
4910, 5370, 5363, 5395, 5397, 5649, 5642, 5674, 5676
4911, 5476, 5393, 5365, 5382, 5755, 5672, 5644, 5661
4912, 5399, 5440, 5374, 5415, 5678, 5719, 5653, 5694
4913, 5392, 5396, 5377, 5354, 5671, 5675, 5656, 5633
4914, 5402, 5398, 5381, 5352, 5681, 5677, 5660, 5631
4915, 5398, 5439, 5416, 5381, 5677, 5718, 5695, 5660
4916, 5415, 5373, 5401, 5399, 5694, 5652, 5680, 5678
4917, 5371, 5362, 5400, 5403, 5650, 5641, 5679, 5682
4918, 5418, 5371, 5403, 5406, 5697, 5650, 5682, 5685
4919, 5379, 5353, 5404, 5405, 5658, 5632, 5683, 5684
4920, 5452, 5439, 5398, 5453, 5731, 5718, 5677, 5732
4921, 5373, 5361, 5480, 5401, 5652, 5640, 5759, 5680
4922, 5430, 5456, 5440, 5399, 5709, 5735, 5719, 5678
4923, 5479, 5402, 5352, 5380, 5758, 5681, 5631, 5659
4924, 5456, 5464, 5394, 5440, 5735, 5743, 5673, 5719
4925, 5361, 5372, 5442, 5480, 5640, 5651, 5721, 5759
4926, 5431, 5479, 5441, 5454, 5710, 5758, 5720, 5733
4927, 5470, 5483, 5527, 5478, 5749, 5762, 5806, 5757
4928, 5405, 5441, 5419, 5379, 5684, 5720, 5698, 5658
4929, 5552, 5445, 5433, 5432, 5831, 5724, 5712, 5711
4930, 5367, 5384, 5426, 5411, 5646, 5663, 5705, 5690
4931, 5407, 5408, 5411, 5541, 5686, 5687, 5690, 5820
4932, 5413, 5409, 5316, 5315, 5692, 5688, 5595, 5594
4933, 5366, 5350, 5425, 5540, 5645, 5629, 5704, 5819
4934, 5369, 5364, 5427, 5539, 5648, 5643, 5706, 5818
4935, 5476, 5423, 5549, 5393, 5755, 5702, 5828, 5672
4936, 5427, 5388, 5448, 5554, 5706, 5667, 5727, 5833
4937, 5449, 5386, 5389, 5421, 5728, 5665, 5668, 5700
4938, 5542, 5387, 5390, 5422, 5821, 5666, 5669, 5701
4939, 5482, 5460, 5438, 5472, 5761, 5739, 5717, 5751
4940, 5423, 5476, 5439, 5452, 5702, 5755, 5718, 5731
4941, 5421, 5389, 5393, 5549, 5700, 5668, 5672, 5828
4942, 5547, 5396, 5392, 5492, 5826, 5675, 5671, 5771
4943, 5434, 5404, 5437, 5447, 5713, 5683, 5716, 5726
4944, 5541, 5435, 5410, 5407, 5820, 5714, 5689, 5686
4945, 5443, 5541, 5411, 5426, 5722, 5820, 5690, 5705
4946, 5429, 5428, 5553, 5444, 5708, 5707, 5832, 5723
4947, 5432, 5433, 5406, 5403, 5711, 5712, 5685, 5682
4948, 5458, 5455, 5480, 5442, 5737, 5734, 5759, 5721
4949, 5544, 5430, 5399, 5401, 5823, 5709, 5678, 5680
4950, 5556, 5499, 5486, 5465, 5835, 5778, 5765, 5744
4951, 5453, 5398, 5402, 5548, 5732, 5677, 5681, 5827
4952, 5571, 5500, 5503, 5505, 5850, 5779, 5782, 5784
4953, 5433, 5458, 5442, 5406, 5712, 5737, 5721, 5685
4954, 5467, 5454, 5457, 5566, 5746, 5733, 5736, 5845
4955, 5437, 5461, 5485, 5447, 5716, 5740, 5764, 5726
4956, 5457, 5405, 5404, 5434, 5736, 5684, 5683, 5713
4957, 5420, 5540, 5425, 5469, 5699, 5819, 5704, 5748
4958, 5356, 5475, 5358, 5357, 5635, 5754, 5637, 5636
4959, 5412, 5358, 5475, 5436, 5691, 5637, 5754, 5715
4960, 5396, 5461, 5417, 5377, 5675, 5740, 5696, 5656
4961, 5387, 5542, 5450, 5538, 5666, 5821, 5729, 5817
4962, 5475, 5356, 5409, 5460, 5754, 5635, 5688, 5739
4963, 5526, 5521, 5531, 5578, 5805, 5800, 5810, 5857
4964, 5481, 5543, 5443, 5516, 5760, 5822, 5722, 5795
4965, 5444, 5552, 5432, 5429, 5723, 5831, 5711, 5708
4966, 5445, 5470, 5458, 5433, 5724, 5749, 5737, 5712
4967, 5518, 5468, 5555, 5497, 5797, 5747, 5834, 5776
4968, 5446, 5554, 5462, 5545, 5725, 5833, 5741, 5824
4969, 5554, 5446, 5539, 5427, 5833, 5725, 5818, 5706
4970, 5496, 5463, 5434, 5447, 5775, 5742, 5713, 5726
4971, 5488, 5510, 5485, 5547, 5767, 5789, 5764, 5826
4972, 5501, 5448, 5546, 5420, 5780, 5727, 5825, 5699
4973, 5516, 5443, 5426, 5449, 5795, 5722, 5705, 5728
4974, 5468, 5518, 5472, 5450, 5747, 5797, 5751, 5729
4975, 5436, 5494, 5451, 5459, 5715, 5773, 5730, 5738
4976, 5488, 5424, 5451, 5473, 5767, 5703, 5730, 5752
4977, 5452, 5453, 5564, 5466, 5731, 5732, 5843, 5745
4978, 5490, 5471, 5549, 5423, 5769, 5750, 5828, 5702
4979, 5431, 5565, 5477, 5548, 5710, 5844, 5756, 5827
4980, 5456, 5430, 5551, 5465, 5735, 5709, 5830, 5744
4981, 5470, 5478, 5455, 5458, 5749, 5757, 5734, 5737
4982, 5494, 5513, 5508, 5509, 5773, 5792, 5787, 5788
4983, 5554, 5448, 5501, 5462, 5833, 5727, 5780, 5741
4984, 5474, 5478, 5527, 5563, 5753, 5757, 5806, 5842
4985, 5422, 5464, 5486, 5487, 5701, 5743, 5765, 5766
4986, 5465, 5486, 5464, 5456, 5744, 5765, 5743, 5735
4987, 5533, 5483, 5470, 5445, 5812, 5762, 5749, 5724
4988, 5477, 5564, 5453, 5548, 5756, 5843, 5732, 5827
4989, 5463, 5484, 5467, 5566, 5742, 5763, 5746, 5845
4990, 5495, 5477, 5565, 5467, 5774, 5756, 5844, 5746
4991, 5542, 5550, 5468, 5450, 5821, 5829, 5747, 5729
4992, 5518, 5513, 5482, 5472, 5797, 5792, 5761, 5751
4993, 5421, 5549, 5471, 5491, 5700, 5828, 5750, 5770
4994, 5500, 5571, 5491, 5471, 5779, 5850, 5770, 5750
4995, 5436, 5475, 5460, 5482, 5715, 5754, 5739, 5761
4996, 5513, 5494, 5436, 5482, 5792, 5773, 5715, 5761
4997, 5510, 5496, 5447, 5485, 5789, 5775, 5726, 5764
4998, 5478, 5474, 5544, 5455, 5757, 5753, 5823, 5734
4999, 5487, 5486, 5499, 5555, 5766, 5765, 5778, 5834
5000, 5548, 5402, 5479, 5431, 5827, 5681, 5758, 5710
5001, 5455, 5544, 5401, 5480, 5734, 5823, 5680, 5759
5002, 5563, 5489, 5551, 5474, 5842, 5768, 5830, 5753
5003, 5564, 5477, 5495, 5570, 5843, 5756, 5774, 5849
5004, 5505, 5516, 5449, 5571, 5784, 5795, 5728, 5850
5005, 5580, 5575, 5534, 5579, 5859, 5854, 5813, 5858
5006, 5567, 5531, 5483, 5533, 5846, 5810, 5762, 5812
5007, 5547, 5492, 5424, 5488, 5826, 5771, 5703, 5767
5008, 5542, 5422, 5487, 5550, 5821, 5701, 5766, 5829
5009, 5562, 5473, 5509, 5498, 5841, 5752, 5788, 5777
5010, 5515, 5522, 5498, 5536, 5794, 5801, 5777, 5815
5011, 5497, 5555, 5499, 5515, 5776, 5834, 5778, 5794
5012, 5493, 5556, 5489, 5563, 5772, 5835, 5768, 5842
5013, 5509, 5473, 5451, 5494, 5788, 5752, 5730, 5773
5014, 5507, 5495, 5467, 5484, 5786, 5774, 5746, 5763
5015, 5507, 5512, 5570, 5495, 5786, 5791, 5849, 5774
5016, 5510, 5519, 5511, 5496, 5789, 5798, 5790, 5775
5017, 5499, 5556, 5493, 5506, 5778, 5835, 5772, 5785
5018, 5536, 5508, 5497, 5515, 5815, 5787, 5776, 5794
5019, 5498, 5519, 5510, 5562, 5777, 5798, 5789, 5841
5020, 5511, 5517, 5507, 5484, 5790, 5796, 5786, 5763
5021, 5559, 5569, 5528, 5504, 5838, 5848, 5807, 5783
5022, 5520, 5500, 5471, 5490, 5799, 5779, 5750, 5769
5023, 5481, 5560, 5501, 5561, 5760, 5839, 5780, 5840
5024, 5559, 5504, 5553, 5462, 5838, 5783, 5832, 5741
5025, 5516, 5505, 5525, 5502, 5795, 5784, 5804, 5781
5026, 5516, 5502, 5560, 5481, 5795, 5781, 5839, 5760
5027, 5526, 5576, 5517, 5514, 5805, 5855, 5796, 5793
5028, 5534, 5503, 5500, 5520, 5813, 5782, 5779, 5799
5029, 5502, 5569, 5559, 5560, 5781, 5848, 5838, 5839
5030, 5571, 5449, 5421, 5491, 5850, 5728, 5700, 5770
5031, 5506, 5524, 5572, 5522, 5785, 5803, 5851, 5801
5032, 5493, 5514, 5524, 5506, 5772, 5793, 5803, 5785
5033, 5463, 5496, 5511, 5484, 5742, 5775, 5790, 5763
5034, 5573, 5528, 5525, 5529, 5852, 5807, 5804, 5808
5035, 5466, 5512, 5520, 5490, 5745, 5791, 5799, 5769
5036, 5497, 5508, 5513, 5518, 5776, 5787, 5792, 5797
5037, 5499, 5506, 5522, 5515, 5778, 5785, 5801, 5794
5038, 5517, 5523, 5512, 5507, 5796, 5802, 5791, 5786
5039, 5575, 5529, 5503, 5534, 5854, 5808, 5782, 5813
5040, 5498, 5509, 5508, 5536, 5777, 5788, 5787, 5815
5041, 5511, 5524, 5514, 5517, 5790, 5803, 5793, 5796
5042, 5505, 5503, 5529, 5525, 5784, 5782, 5808, 5804
5043, 5530, 5578, 5531, 5567, 5809, 5857, 5810, 5846
5044, 5526, 5514, 5493, 5521, 5805, 5793, 5772, 5800
5045, 5512, 5523, 5534, 5520, 5791, 5802, 5813, 5799
5046, 5519, 5572, 5524, 5511, 5798, 5851, 5803, 5790
5047, 5563, 5527, 5521, 5493, 5842, 5806, 5800, 5772
5048, 5502, 5525, 5528, 5569, 5781, 5804, 5807, 5848
5049, 5558, 5568, 5532, 5557, 5837, 5847, 5811, 5836
5050, 5579, 5530, 5574, 5580, 5858, 5809, 5853, 5859
5051, 5535, 5573, 5529, 5575, 5814, 5852, 5808, 5854
5052, 5530, 5579, 5577, 5578, 5809, 5858, 5856, 5857
5053, 5528, 5573, 5535, 5568, 5807, 5852, 5814, 5847
5054, 5535, 5574, 5532, 5568, 5814, 5853, 5811, 5847
5055, 5552, 5444, 5558, 5557, 5831, 5723, 5837, 5836
5056, 5445, 5552, 5557, 5533, 5724, 5831, 5836, 5812
5057, 5572, 5519, 5498, 5522, 5851, 5798, 5777, 5801
5058, 5446, 5545, 5395, 5539, 5725, 5824, 5674, 5818
5059, 5555, 5468, 5550, 5487, 5834, 5747, 5829, 5766
5060, 5469, 5425, 5435, 5543, 5748, 5704, 5714, 5822
5061, 5474, 5551, 5430, 5544, 5753, 5830, 5709, 5823
5062, 5462, 5553, 5428, 5545, 5741, 5832, 5707, 5824
5063, 5448, 5388, 5385, 5546, 5727, 5667, 5664, 5825
5064, 5485, 5461, 5396, 5547, 5764, 5740, 5675, 5826
5065, 5489, 5556, 5465, 5551, 5768, 5835, 5744, 5830
5066, 5504, 5558, 5444, 5553, 5783, 5837, 5723, 5832
5067, 5532, 5567, 5533, 5557, 5811, 5846, 5812, 5836
5068, 5560, 5559, 5462, 5501, 5839, 5838, 5741, 5780
5069, 5501, 5420, 5469, 5561, 5780, 5699, 5748, 5840
5070, 5562, 5510, 5488, 5473, 5841, 5789, 5767, 5752
5071, 5423, 5452, 5466, 5490, 5702, 5731, 5745, 5769
5072, 5564, 5570, 5512, 5466, 5843, 5849, 5791, 5745
5073, 5431, 5454, 5467, 5565, 5710, 5733, 5746, 5844
5074, 5457, 5434, 5463, 5566, 5736, 5713, 5742, 5845
5075, 5532, 5574, 5530, 5567, 5811, 5853, 5809, 5846
5076, 5558, 5504, 5528, 5568, 5837, 5783, 5807, 5847
5077, 5577, 5523, 5517, 5576, 5856, 5802, 5796, 5855
5078, 5534, 5523, 5577, 5579, 5813, 5802, 5856, 5858
5079, 5578, 5577, 5576, 5526, 5857, 5856, 5855, 5805
5080, 5574, 5535, 5575, 5580, 5853, 5814, 5854, 5859
*Nset, nset=contact
    1,    2,    3,    4,    5,    6,    7,    8,    9,   10,   11,   12,   13,   14,   15,   16
   17,   18,   19,   20,   21,   22,   23,   24,   25,   26,   27,   28,   29,   30,   31,   32
   33,   34,   35,   36,   37,   38,   39,   40,   41,   42,   43,   44,   45,   46,   47,   48
   49,   50,   51,   52,   53,   54,   55,   56,   57,   58,   59,   60,   61,   62,   63,   64
   65,   66,   67,   68,   69,   70,   71,   72,   73,   74,   75,   76,   77,   78,   79,   80
   81,   82,   83,   84,   85,   86,   87,   88,   89,   90,   91,   92,   93,   94,   95,   96
   97,   98,   99,  100,  101,  102,  103,  104,  105,  106,  107,  108,  109,  110,  111,  112
  113,  114,  115,  116,  117,  118,  119,  120,  121,  122,  123,  124,  125,  126,  127,  128
  129,  130,  131,  132,  133,  134,  135,  136,  137,  138,  139,  140,  141,  142,  143,  144
  145,  146,  147,  148,  149,  150,  151,  152,  153,  154,  155,  156,  157,  158,  159,  160
  161,  162,  163,  164,  165,  166,  167,  168,  169,  170,  171,  172,  173,  174,  175,  176
  177,  178,  179,  180,  181,  182,  183,  184,  185,  186,  187,  188,  189,  190,  191,  192
  193,  194,  195,  196,  197,  198,  199,  200,  201,  202,  203,  204,  205,  206,  207,  208
  209,  210,  211,  212,  213,  214,  215,  216,  217,  218,  219,  220,  221,  222,  223,  224
  225,  226,  227,  228,  229,  230,  231,  232,  233,  234,  235,  236,  237,  238,  239,  240
  241,  242,  243,  244,  245,  246,  247,  248,  249,  250,  251,  252,  253,  254,  255,  256
  257,  258,  259,  260,  261,  262,  263,  264,  265,  266,  267,  268,  269,  270,  271,  272
  273,  274,  275,  276,  277,  278,  279,  280,  281,  282,  283,  284,  285,  286,  287,  288
  289,  290,  291,  292,  293,  294,  295,  296,  297,  298,  299,  300,  301,  302,  303,  304
  305,  306,  307,  308,  309,  310,  311,  312,  313,  314,  315,  316,  317,  318,  319,  320
  321,  322,  323,  324,  325,  326,  327,  559,  560,  561,  562,  563,  564,  565,  566,  567
  568,  569,  570,  571,  572,  573,  574,  575,  576,  577,  578,  579,  580,  581,  582,  583
  584,  585,  586,  587,  588,  589,  590,  591,  592,  593,  594,  595,  596,  597,  598,  599
  600,  601,  602,  603,  604,  605,  606,  838,  839,  840,  841,  842,  843,  844,  845,  846
  847,  848,  849,  850,  851,  852,  853,  854,  855,  856,  857,  858,  859,  860,  861,  862
  863,  864,  865,  866,  867,  868,  869,  870,  871,  872,  873,  874,  875,  876,  877,  878
  879,  880,  881,  882,  883,  884,  885, 1117, 1118, 1119, 1120, 1121, 1122, 1123, 1124, 1125
 1126, 1127, 1128, 1129, 1130, 1131, 1132, 1133, 1134, 1135, 1136, 1137, 1138, 1139, 1140, 1141
 1142, 1143, 1144, 1145, 1146, 1147, 1148, 1149, 1150, 1151, 1152, 1153, 1154, 1155, 1156, 1157
 1158, 1159, 1160, 1161, 1162, 1163, 1164, 1396, 1397, 1398, 1399, 1400, 1401, 1402, 1403, 1404
 1405, 1406, 1407, 1408, 1409, 1410, 1411, 1412, 1413, 1414, 1415, 1416, 1417, 1418, 1419, 1420
 1421, 1422, 1423, 1424, 1425, 1426, 1427, 1428, 1429, 1430, 1431, 1432, 1433, 1434, 1435, 1436
 1437, 1438, 1439, 1440, 1441, 1442, 1443, 1675, 1676, 1677, 1678, 1679, 1680, 1681, 1682, 1683
 1684, 1685, 1686, 1687, 1688, 1689, 1690, 1691, 1692, 1693, 1694, 1695, 1696, 1697, 1698, 1699
 1700, 1701, 1702, 1703, 1704, 1705, 1706, 1707, 1708, 1709, 1710, 1711, 1712, 1713, 1714, 1715
 1716, 1717, 1718, 1719, 1720, 1721, 1722, 1954, 1955, 1956, 1957, 1958, 1959, 1960, 1961, 1962
 1963, 1964, 1965, 1966, 1967, 1968, 1969, 1970, 1971, 1972, 1973, 1974, 1975, 1976, 1977, 1978
 1979, 1980, 1981, 1982, 1983, 1984, 1985, 1986, 1987, 1988, 1989, 1990, 1991, 1992, 1993, 1994
 1995, 1996, 1997, 1998, 1999, 2000, 2001, 2233, 2234, 2235, 2236, 2237, 2238, 2239, 2240, 2241
 2242, 2243, 2244, 2245, 2246, 2247, 2248, 2249, 2250, 2251, 2252, 2253, 2254, 2255, 2256, 2257
 2258, 2259, 2260, 2261, 2262, 2263, 2264, 2265, 2266, 2267, 2268, 2269, 2270, 2271, 2272, 2273
 2274, 2275, 2276, 2277, 2278, 2279, 2280, 2512, 2513, 2514, 2515, 2516, 2517, 2518, 2519, 2520
 2521, 2522, 2523, 2524, 2525, 2526, 2527, 2528, 2529, 2530, 2531, 2532, 2533, 2534, 2535, 2536
 2537, 2538, 2539, 2540, 2541, 2542, 2543, 2544, 2545, 2546, 2547, 2548, 2549, 2550, 2551, 2552
 2553, 2554, 2555, 2556, 2557, 2558, 2559, 2791, 2792, 2793, 2794, 2795, 2796, 2797, 2798, 2799
 2800, 2801, 2802, 2803, 2804, 2805, 2806, 2807, 2808, 2809, 2810, 2811, 2812, 2813, 2814, 2815
 2816, 2817, 2818, 2819, 2820, 2821, 2822, 2823, 2824, 2825, 2826, 2827, 2828, 2829, 2830, 2831
 2832, 2833, 2834, 2835, 2836, 2837, 2838, 3070, 3071, 3072, 3073, 3074, 3075, 3076, 3077, 3078
 3079, 3080, 3081, 3082, 3083, 3084, 3085, 3086, 3087, 3088, 3089, 3090, 3091, 3092, 3093, 3094
 3095, 3096, 3097, 3098, 3099, 3100, 3101, 3102, 3103, 3104, 3105, 3106, 3107, 3108, 3109, 3110
 3111, 3112, 3113, 3114, 3115, 3116, 3117, 3349, 3350, 3351, 3352, 3353, 3354, 3355, 3356, 3357
 3358, 3359, 3360, 3361, 3362, 3363, 3364, 3365, 3366, 3367, 3368, 3369, 3370, 3371, 3372, 3373
 3374, 3375, 3376, 3377, 3378, 3379, 3380, 3381, 3382, 3383, 3384, 3385, 3386, 3387, 3388, 3389
 3390, 3391, 3392, 3393, 3394, 3395, 3396, 3628, 3629, 3630, 3631, 3632, 3633, 3634, 3635, 3636
 3637, 3638, 3639, 3640, 3641, 3642, 3643, 3644, 3645, 3646, 3647, 3648, 3649, 3650, 3651, 3652
 3653, 3654, 3655, 3656, 3657, 3658, 3659, 3660, 3661, 3662, 3663, 3664, 3665, 3666, 3667, 3668
 3669, 3670, 3671, 3672, 3673, 3674, 3675, 3907, 3908, 3909, 3910, 3911, 3912, 3913, 3914, 3915
 3916, 3917, 3918, 3919, 3920, 3921, 3922, 3923, 3924, 3925, 3926, 3927, 3928, 3929, 3930, 3931
 3932, 3933, 3934, 3935, 3936, 3937, 3938, 3939, 3940, 3941, 3942, 3943, 3944, 3945, 3946, 3947
 3948, 3949, 3950, 3951, 3952, 3953, 3954, 4186, 4187, 4188, 4189, 4190, 4191, 4192, 4193, 4194
 4195, 4196, 4197, 4198, 4199, 4200, 4201, 4202, 4203, 4204, 4205, 4206, 4207, 4208, 4209, 4210
 4211, 4212, 4213, 4214, 4215, 4216, 4217, 4218, 4219, 4220, 4221, 4222, 4223, 4224, 4225, 4226
 4227, 4228, 4229, 4230, 4231, 4232, 4233, 4465, 4466, 4467, 4468, 4469, 4470, 4471, 4472, 4473
 4474, 4475, 4476, 4477, 4478, 4479, 4480, 4481, 4482, 4483, 4484, 4485, 4486, 4487, 4488, 4489
 4490, 4491, 4492, 4493, 4494, 4495, 4496, 4497, 4498, 4499, 4500, 4501, 4502, 4503, 4504, 4505
 4506, 4507, 4508, 4509, 4510, 4511, 4512, 4744, 4745, 4746, 4747, 4748, 4749, 4750, 4751, 4752
 4753, 4754, 4755, 4756, 4757, 4758, 4759, 4760, 4761, 4762, 4763, 4764, 4765, 4766, 4767, 4768
 4769, 4770, 4771, 4772, 4773, 4774, 4775, 4776, 4777, 4778, 4779, 4780, 4781, 4782, 4783, 4784
 4785, 4786, 4787, 4788, 4789, 4790, 4791, 5023, 5024, 5025, 5026, 5027, 5028, 5029, 5030, 5031
 5032, 5033, 5034, 5035, 5036, 5037, 5038, 5039, 5040, 5041, 5042, 5043, 5044, 5045, 5046, 5047
 5048, 5049, 5050, 5051, 5052, 5053, 5054, 5055, 5056, 5057, 5058, 5059, 5060, 5061, 5062, 5063
 5064, 5065, 5066, 5067, 5068, 5069, 5070, 5302, 5303, 5304, 5305, 5306, 5307, 5308, 5309, 5310
 5311, 5312, 5313, 5314, 5315, 5316, 5317, 5318, 5319, 5320, 5321, 5322, 5323, 5324, 5325, 5326
 5327, 5328, 5329, 5330, 5331, 5332, 5333, 5334, 5335, 5336, 5337, 5338, 5339, 5340, 5341, 5342
 5343, 5344, 5345, 5346, 5347, 5348, 5349, 5581, 5582, 5583, 5584, 5585, 5586, 5587, 5588, 5589
 5590, 5591, 5592, 5593, 5594, 5595, 5596, 5597, 5598, 5599, 5600, 5601, 5602, 5603, 5604, 5605
 5606, 5607, 5608, 5609, 5610, 5611, 5612, 5613, 5614, 5615, 5616, 5617, 5618, 5619, 5620, 5621
 5622, 5623, 5624, 5625, 5626, 5627, 5628, 5629, 5630, 5631, 5632, 5633, 5634, 5635, 5636, 5637
 5638, 5639, 5640, 5641, 5642, 5643, 5644, 5645, 5646, 5647, 5648, 5649, 5650, 5651, 5652, 5653
 5654, 5655, 5656, 5657, 5658, 5659, 5660, 5661, 5662, 5663, 5664, 5665, 5666, 5667, 5668, 5669
 5670, 5671, 5672, 5673, 5674, 5675, 5676, 5677, 5678, 5679, 5680, 5681, 5682, 5683, 5684, 5685
 5686, 5687, 5688, 5689, 5690, 5691, 5692, 5693, 5694, 5695, 5696, 5697, 5698, 5699, 5700, 5701
 5702, 5703, 5704, 5705, 5706, 5707, 5708, 5709, 5710, 5711, 5712, 5713, 5714, 5715, 5716, 5717
 5718, 5719, 5720, 5721, 5722, 5723, 5724, 5725, 5726, 5727, 5728, 5729, 5730, 5731, 5732, 5733
 5734, 5735, 5736, 5737, 5738, 5739, 5740, 5741, 5742, 5743, 5744, 5745, 5746, 5747, 5748, 5749
 5750, 5751, 5752, 5753, 5754, 5755, 5756, 5757, 5758, 5759, 5760, 5761, 5762, 5763, 5764, 5765
 5766, 5767, 5768, 5769, 5770, 5771, 5772, 5773, 5774, 5775, 5776, 5777, 5778, 5779, 5780, 5781
 5782, 5783, 5784, 5785, 5786, 5787, 5788, 5789, 5790, 5791, 5792, 5793, 5794, 5795, 5796, 5797
 5798, 5799, 5800, 5801, 5802, 5803, 5804, 5805, 5806, 5807, 5808, 5809, 5810, 5811, 5812, 5813
 5814, 5815, 5816, 5817, 5818, 5819, 5820, 5821, 5822, 5823, 5824, 5825, 5826, 5827, 5828, 5829
 5830, 5831, 5832, 5833, 5834, 5835, 5836, 5837, 5838, 5839, 5840, 5841, 5842, 5843, 5844, 5845
 5846, 5847, 5848, 5849, 5850, 5851, 5852, 5853, 5854, 5855, 5856, 5857, 5858, 5859
*Elset, elset=contact
    1,    2,    3,    4,    5,    6,    7,    8,    9,   10,   11,   12,   13,   14,   15,   16
   17,   18,   19,   20,   21,   22,   23,   24,   25,   26,   27,   28,   29,   30,   31,   32
   33,   34,   35,   36,   37,   38,   39,   40,   41,   42,   43,   44,   45,   46,   47,   48
   49,   50,   51,   52,   53,   54,   55,   56,   57,   58,   59,   60,   61,   62,   63,   64
   65,   66,   67,   68,   69,   70,   71,   72,   73,   74,   75,   76,   77,   78,   79,   80
   81,   82,   83,   84,   85,   86,   87,   88,   89,   90,   91,   92,   93,   94,   95,   96
   97,   98,   99,  100,  101,  102,  103,  104,  105,  106,  107,  108,  109,  110,  111,  112
  113,  114,  115,  116,  117,  118,  119,  120,  121,  122,  123,  124,  125,  126,  127,  128
  129,  130,  131,  132,  133,  134,  135,  136,  137,  138,  139,  140,  141,  142,  143,  144
  145,  146,  147,  148,  149,  150,  151,  152,  153,  154,  155,  156,  157,  158,  159,  160
  161,  162,  163,  164,  165,  166,  167,  168,  169,  170,  171,  172,  173,  174,  175,  176
  177,  178,  179,  180,  181,  182,  183,  184,  185,  186,  187,  188,  189,  190,  191,  192
  193,  194,  195,  196,  197,  198,  199,  200,  201,  202,  203,  204,  205,  206,  207,  208
  209,  210,  211,  212,  213,  214,  215,  216,  217,  218,  219,  220,  221,  222,  223,  224
  225,  226,  227,  228,  229,  230,  231,  232,  233,  234,  235,  236,  237,  238,  239,  240
  241,  242,  243,  244,  245,  246,  247,  248,  249,  250,  251,  252,  253,  254,  255,  257
  258,  259,  260,  262,  264,  265,  266,  268,  269,  270,  272,  276,  278,  279,  281,  283
  284,  286,  288,  290,  291,  292,  294,  295,  296,  297,  298,  299,  300,  301,  302,  303
  304,  306,  307,  308,  311,  313,  315,  317,  319,  322,  325,  331,  333,  360,  509,  511
  512,  513,  514,  516,  518,  519,  520,  522,  523,  524,  526,  530,  532,  533,  535,  537
  538,  540,  542,  544,  545,  546,  548,  549,  550,  551,  552,  553,  554,  555,  556,  557
  558,  560,  561,  562,  565,  567,  569,  571,  573,  576,  579,  585,  587,  614,  763,  765
  766,  767,  768,  770,  772,  773,  774,  776,  777,  778,  780,  784,  786,  787,  789,  791
  792,  794,  796,  798,  799,  800,  802,  803,  804,  805,  806,  807,  808,  809,  810,  811
  812,  814,  815,  816,  819,  821,  823,  825,  827,  830,  833,  839,  841,  868, 1017, 1019
 1020, 1021, 1022, 1024, 1026, 1027, 1028, 1030, 1031, 1032, 1034, 1038, 1040, 1041, 1043, 1045
 1046, 1048, 1050, 1052, 1053, 1054, 1056, 1057, 1058, 1059, 1060, 1061, 1062, 1063, 1064, 1065
 1066, 1068, 1069, 1070, 1073, 1075, 1077, 1079, 1081, 1084, 1087, 1093, 1095, 1122, 1271, 1273
 1274, 1275, 1276, 1278, 1280, 1281, 1282, 1284, 1285, 1286, 1288, 1292, 1294, 1295, 1297, 1299
 1300, 1302, 1304, 1306, 1307, 1308, 1310, 1311, 1312, 1313, 1314, 1315, 1316, 1317, 1318, 1319
 1320, 1322, 1323, 1324, 1327, 1329, 1331, 1333, 1335, 1338, 1341, 1347, 1349, 1376, 1525, 1527
 1528, 1529, 1530, 1532, 1534, 1535, 1536, 1538, 1539, 1540, 1542, 1546, 1548, 1549, 1551, 1553
 1554, 1556, 1558, 1560, 1561, 1562, 1564, 1565, 1566, 1567, 1568, 1569, 1570, 1571, 1572, 1573
 1574, 1576, 1577, 1578, 1581, 1583, 1585, 1587, 1589, 1592, 1595, 1601, 1603, 1630, 1779, 1781
 1782, 1783, 1784, 1786, 1788, 1789, 1790, 1792, 1793, 1794, 1796, 1800, 1802, 1803, 1805, 1807
 1808, 1810, 1812, 1814, 1815, 1816, 1818, 1819, 1820, 1821, 1822, 1823, 1824, 1825, 1826, 1827
 1828, 1830, 1831, 1832, 1835, 1837, 1839, 1841, 1843, 1846, 1849, 1855, 1857, 1884, 2033, 2035
 2036, 2037, 2038, 2040, 2042, 2043, 2044, 2046, 2047, 2048, 2050, 2054, 2056, 2057, 2059, 2061
 2062, 2064, 2066, 2068, 2069, 2070, 2072, 2073, 2074, 2075, 2076, 2077, 2078, 2079, 2080, 2081
 2082, 2084, 2085, 2086, 2089, 2091, 2093, 2095, 2097, 2100, 2103, 2109, 2111, 2138, 2287, 2289
 2290, 2291, 2292, 2294, 2296, 2297, 2298, 2300, 2301, 2302, 2304, 2308, 2310, 2311, 2313, 2315
 2316, 2318, 2320, 2322, 2323, 2324, 2326, 2327, 2328, 2329, 2330, 2331, 2332, 2333, 2334, 2335
 2336, 2338, 2339, 2340, 2343, 2345, 2347, 2349, 2351, 2354, 2357, 2363, 2365, 2392, 2541, 2543
 2544, 2545, 2546, 2548, 2550, 2551, 2552, 2554, 2555, 2556, 2558, 2562, 2564, 2565, 2567, 2569
 2570, 2572, 2574, 2576, 2577, 2578, 2580, 2581, 2582, 2583, 2584, 2585, 2586, 2587, 2588, 2589
 2590, 2592, 2593, 2594, 2597, 2599, 2601, 2603, 2605, 2608, 2611, 2617, 2619, 2646, 2795, 2797
 2798, 2799, 2800, 2802, 2804, 2805, 2806, 2808, 2809, 2810, 2812, 2816, 2818, 2819, 2821, 2823
 2824, 2826, 2828, 2830, 2831, 2832, 2834, 2835, 2836, 2837, 2838, 2839, 2840, 2841, 2842, 2843
 2844, 2846, 2847, 2848, 2851, 2853, 2855, 2857, 2859, 2862, 2865, 2871, 2873, 2900, 3049, 3051
 3052, 3053, 3054, 3056, 3058, 3059, 3060, 3062, 3063, 3064, 3066, 3070, 3072, 3073, 3075, 3077
 3078, 3080, 3082, 3084, 3085, 3086, 3088, 3089, 3090, 3091, 3092, 3093, 3094, 3095, 3096, 3097
 3098, 3100, 3101, 3102, 3105, 3107, 3109, 3111, 3113, 3116, 3119, 3125, 3127, 3154, 3303, 3305
 3306, 3307, 3308, 3310, 3312, 3313, 3314, 3316, 3317, 3318, 3320, 3324, 3326, 3327, 3329, 3331
 3332, 3334, 3336, 3338, 3339, 3340, 3342, 3343, 3344, 3345, 3346, 3347, 3348, 3349, 3350, 3351
 3352, 3354, 3355, 3356, 3359, 3361, 3363, 3365, 3367, 3370, 3373, 3379, 3381, 3408, 3557, 3559
 3560, 3561, 3562, 3564, 3566, 3567, 3568, 3570, 3571, 3572, 3574, 3578, 3580, 3581, 3583, 3585
 3586, 3588, 3590, 3592, 3593, 3594, 3596, 3597, 3598, 3599, 3600, 3601, 3602, 3603, 3604, 3605
 3606, 3608, 3609, 3610, 3613, 3615, 3617, 3619, 3621, 3624, 3627, 3633, 3635, 3662, 3811, 3813
 3814, 3815, 3816, 3818, 3820, 3821, 3822, 3824, 3825, 3826, 3828, 3832, 3834, 3835, 3837, 3839
 3840, 3842, 3844, 3846, 3847, 3848, 3850, 3851, 3852, 3853, 3854, 3855, 3856, 3857, 3858, 3859
 3860, 3862, 3863, 3864, 3867, 3869, 3871, 3873, 3875, 3878, 3881, 3887, 3889, 3916, 4065, 4067
 4068, 4069, 4070, 4072, 4074, 4075, 4076, 4078, 4079, 4080, 4082, 4086, 4088, 4089, 4091, 4093
 4094, 4096, 4098, 4100, 4101, 4102, 4104, 4105, 4106, 4107, 4108, 4109, 4110, 4111, 4112, 4113
 4114, 4116, 4117, 4118, 4121, 4123, 4125, 4127, 4129, 4132, 4135, 4141, 4143, 4170, 4319, 4321
 4322, 4323, 4324, 4326, 4328, 4329, 4330, 4332, 4333, 4334, 4336, 4340, 4342, 4343, 4345, 4347
 4348, 4350, 4352, 4354, 4355, 4356, 4358, 4359, 4360, 4361, 4362, 4363, 4364, 4365, 4366, 4367
 4368, 4370, 4371, 4372, 4375, 4377, 4379, 4381, 4383, 4386, 4389, 4395, 4397, 4424, 4573, 4575
 4576, 4577, 4578, 4580, 4582, 4583, 4584, 4586, 4587, 4588, 4590, 4594, 4596, 4597, 4599, 4601
 4602, 4604, 4606, 4608, 4609, 4610, 4612, 4613, 4614, 4615, 4616, 4617, 4618, 4619, 4620, 4621
 4622, 4624, 4625, 4626, 4629, 4631, 4633, 4635, 4637, 4640, 4643, 4649, 4651, 4678, 4827, 4828
 4829, 4830, 4831, 4832, 4833, 4834, 4835, 4836, 4837, 4838, 4839, 4840, 4841, 4842, 4843, 4844
 4845, 4846, 4847, 4848, 4849, 4850, 4851, 4852, 4853, 4854, 4855, 4856, 4857, 4858, 4859, 4860
 4861, 4862, 4863, 4864, 4865, 4866, 4867, 4868, 4869, 4870, 4871, 4872, 4873, 4874, 4875, 4876
 4877, 4878, 4879, 4880, 4881, 4882, 4883, 4884, 4885, 4886, 4887, 4888, 4889, 4890, 4891, 4892
 4893, 4894, 4895, 4896, 4897, 4898, 4899, 4900, 4901, 4902, 4903, 4904, 4905, 4906, 4907, 4908
 4909, 4910, 4911, 4912, 4913, 4914, 4915, 4916, 4917, 4918, 4919, 4920, 4921, 4922, 4923, 4924
 4925, 4926, 4927, 4928, 4929, 4930, 4931, 4932, 4933, 4934, 4935, 4936, 4937, 4938, 4939, 4940
 4941, 4942, 4943, 4944, 4945, 4946, 4947, 4948, 4949, 4950, 4951, 4952, 4953, 4954, 4955, 4956
 4957, 4958, 4959, 4960, 4961, 4962, 4963, 4964, 4965, 4966, 4967, 4968, 4969, 4970, 4971, 4972
 4973, 4974, 4975, 4976, 4977, 4978, 4979, 4980, 4981, 4982, 4983, 4984, 4985, 4986, 4987, 4988
 4989, 4990, 4991, 4992, 4993, 4994, 4995, 4996, 4997, 4998, 4999, 5000, 5001, 5002, 5003, 5004
 5005, 5006, 5007, 5008, 5009, 5010, 5011, 5012, 5013, 5014, 5015, 5016, 5017, 5018, 5019, 5020
 5021, 5022, 5023, 5024, 5025, 5026, 5027, 5028, 5029, 5030, 5031, 5032, 5033, 5034, 5035, 5036
 5037, 5038, 5039, 5040, 5041, 5042, 5043, 5044, 5045, 5046, 5047, 5048, 5049, 5050, 5051, 5052
 5053, 5054, 5055, 5056, 5057, 5058, 5059, 5060, 5061, 5062, 5063, 5064, 5065, 5066, 5067, 5068
 5069, 5070, 5071, 5072, 5073, 5074, 5075, 5076, 5077, 5078, 5079, 5080
*Nset, nset=cylinder, generate
    1,  5859,     1
*Elset, elset=cylinder, generate
    1,  5080,     1
*Elset, elset=_contact_S6, internal
    1,    3,    5,    6,   11,   14,   15,   29,   45,   46,   48,   49,   53,   57,   59,   61
   63,  255,  257,  259,  260,  265,  268,  269,  283,  299,  300,  302,  303,  307,  311,  313
  315,  317,  509,  511,  513,  514,  519,  522,  523,  537,  553,  554,  556,  557,  561,  565
  567,  569,  571,  763,  765,  767,  768,  773,  776,  777,  791,  807,  808,  810,  811,  815
  819,  821,  823,  825, 1017, 1019, 1021, 1022, 1027, 1030, 1031, 1045, 1061, 1062, 1064, 1065
 1069, 1073, 1075, 1077, 1079, 1271, 1273, 1275, 1276, 1281, 1284, 1285, 1299, 1315, 1316, 1318
 1319, 1323, 1327, 1329, 1331, 1333, 1525, 1527, 1529, 1530, 1535, 1538, 1539, 1553, 1569, 1570
 1572, 1573, 1577, 1581, 1583, 1585, 1587, 1779, 1781, 1783, 1784, 1789, 1792, 1793, 1807, 1823
 1824, 1826, 1827, 1831, 1835, 1837, 1839, 1841, 2033, 2035, 2037, 2038, 2043, 2046, 2047, 2061
 2077, 2078, 2080, 2081, 2085, 2089, 2091, 2093, 2095, 2287, 2289, 2291, 2292, 2297, 2300, 2301
 2315, 2331, 2332, 2334, 2335, 2339, 2343, 2345, 2347, 2349, 2541, 2543, 2545, 2546, 2551, 2554
 2555, 2569, 2585, 2586, 2588, 2589, 2593, 2597, 2599, 2601, 2603, 2795, 2797, 2799, 2800, 2805
 2808, 2809, 2823, 2839, 2840, 2842, 2843, 2847, 2851, 2853, 2855, 2857, 3049, 3051, 3053, 3054
 3059, 3062, 3063, 3077, 3093, 3094, 3096, 3097, 3101, 3105, 3107, 3109, 3111, 3303, 3305, 3307
 3308, 3313, 3316, 3317, 3331, 3347, 3348, 3350, 3351, 3355, 3359, 3361, 3363, 3365, 3557, 3559
 3561, 3562, 3567, 3570, 3571, 3585, 3601, 3602, 3604, 3605, 3609, 3613, 3615, 3617, 3619, 3811
 3813, 3815, 3816, 3821, 3824, 3825, 3839, 3855, 3856, 3858, 3859, 3863, 3867, 3869, 3871, 3873
 4065, 4067, 4069, 4070, 4075, 4078, 4079, 4093, 4109, 4110, 4112, 4113, 4117, 4121, 4123, 4125
 4127, 4319, 4321, 4323, 4324, 4329, 4332, 4333, 4347, 4363, 4364, 4366, 4367, 4371, 4375, 4377
 4379, 4381, 4573, 4575, 4577, 4578, 4583, 4586, 4587, 4601, 4617, 4618, 4620, 4621, 4625, 4629
 4631, 4633, 4635, 4827, 4829, 4831, 4832, 4837, 4840, 4841, 4855, 4871, 4872, 4874, 4875, 4879
 4883, 4885, 4887, 4889
*Elset, elset=_contact_S4, internal
    4,    8,   10,   12,   16,   18,   22,   24,   25,   27,   30,   32,   36,   37,   38,   40
   41,   42,   43,   44,   50,   52,   68,   71,   77,   79,  258,  262,  264,  266,  270,  272
  276,  278,  279,  281,  284,  286,  290,  291,  292,  294,  295,  296,  297,  298,  304,  306
  322,  325,  331,  333,  512,  516,  518,  520,  524,  526,  530,  532,  533,  535,  538,  540
  544,  545,  546,  548,  549,  550,  551,  552,  558,  560,  576,  579,  585,  587,  766,  770
  772,  774,  778,  780,  784,  786,  787,  789,  792,  794,  798,  799,  800,  802,  803,  804
  805,  806,  812,  814,  830,  833,  839,  841, 1020, 1024, 1026, 1028, 1032, 1034, 1038, 1040
 1041, 1043, 1046, 1048, 1052, 1053, 1054, 1056, 1057, 1058, 1059, 1060, 1066, 1068, 1084, 1087
 1093, 1095, 1274, 1278, 1280, 1282, 1286, 1288, 1292, 1294, 1295, 1297, 1300, 1302, 1306, 1307
 1308, 1310, 1311, 1312, 1313, 1314, 1320, 1322, 1338, 1341, 1347, 1349, 1528, 1532, 1534, 1536
 1540, 1542, 1546, 1548, 1549, 1551, 1554, 1556, 1560, 1561, 1562, 1564, 1565, 1566, 1567, 1568
 1574, 1576, 1592, 1595, 1601, 1603, 1782, 1786, 1788, 1790, 1794, 1796, 1800, 1802, 1803, 1805
 1808, 1810, 1814, 1815, 1816, 1818, 1819, 1820, 1821, 1822, 1828, 1830, 1846, 1849, 1855, 1857
 2036, 2040, 2042, 2044, 2048, 2050, 2054, 2056, 2057, 2059, 2062, 2064, 2068, 2069, 2070, 2072
 2073, 2074, 2075, 2076, 2082, 2084, 2100, 2103, 2109, 2111, 2290, 2294, 2296, 2298, 2302, 2304
 2308, 2310, 2311, 2313, 2316, 2318, 2322, 2323, 2324, 2326, 2327, 2328, 2329, 2330, 2336, 2338
 2354, 2357, 2363, 2365, 2544, 2548, 2550, 2552, 2556, 2558, 2562, 2564, 2565, 2567, 2570, 2572
 2576, 2577, 2578, 2580, 2581, 2582, 2583, 2584, 2590, 2592, 2608, 2611, 2617, 2619, 2798, 2802
 2804, 2806, 2810, 2812, 2816, 2818, 2819, 2821, 2824, 2826, 2830, 2831, 2832, 2834, 2835, 2836
 2837, 2838, 2844, 2846, 2862, 2865, 2871, 2873, 3052, 3056, 3058, 3060, 3064, 3066, 3070, 3072
 3073, 3075, 3078, 3080, 3084, 3085, 3086, 3088, 3089, 3090, 3091, 3092, 3098, 3100, 3116, 3119
 3125, 3127, 3306, 3310, 3312, 3314, 3318, 3320, 3324, 3326, 3327, 3329, 3332, 3334, 3338, 3339
 3340, 3342, 3343, 3344, 3345, 3346, 3352, 3354, 3370, 3373, 3379, 3381, 3560, 3564, 3566, 3568
 3572, 3574, 3578, 3580, 3581, 3583, 3586, 3588, 3592, 3593, 3594, 3596, 3597, 3598, 3599, 3600
 3606, 3608, 3624, 3627, 3633, 3635, 3814, 3818, 3820, 3822, 3826, 3828, 3832, 3834, 3835, 3837
 3840, 3842, 3846, 3847, 3848, 3850, 3851, 3852, 3853, 3854, 3860, 3862, 3878, 3881, 3887, 3889
 4068, 4072, 4074, 4076, 4080, 4082, 4086, 4088, 4089, 4091, 4094, 4096, 4100, 4101, 4102, 4104
 4105, 4106, 4107, 4108, 4114, 4116, 4132, 4135, 4141, 4143, 4322, 4326, 4328, 4330, 4334, 4336
 4340, 4342, 4343, 4345, 4348, 4350, 4354, 4355, 4356, 4358, 4359, 4360, 4361, 4362, 4368, 4370
 4386, 4389, 4395, 4397, 4576, 4580, 4582, 4584, 4588, 4590, 4594, 4596, 4597, 4599, 4602, 4604
 4608, 4609, 4610, 4612, 4613, 4614, 4615, 4616, 4622, 4624, 4640, 4643, 4649, 4651, 4830, 4834
 4836, 4838, 4842, 4844, 4848, 4850, 4851, 4853, 4856, 4858, 4862, 4863, 4864, 4866, 4867, 4868
 4869, 4870, 4876, 4878, 4894, 4897, 4903, 4905
*Elset, elset=_contact_S5, internal
   34,   47,   54,  106,  288,  301,  308,  360,  542,  555,  562,  614,  796,  809,  816,  868
 1050, 1063, 1070, 1122, 1304, 1317, 1324, 1376, 1558, 1571, 1578, 1630, 1812, 1825, 1832, 1884
 2066, 2079, 2086, 2138, 2320, 2333, 2340, 2392, 2574, 2587, 2594, 2646, 2828, 2841, 2848, 2900
 3082, 3095, 3102, 3154, 3336, 3349, 3356, 3408, 3590, 3603, 3610, 3662, 3844, 3857, 3864, 3916
 4098, 4111, 4118, 4170, 4352, 4365, 4372, 4424, 4606, 4619, 4626, 4678, 4860, 4873, 4880, 4932
*Elset, elset=_contact_S3, internal, generate
   65,  4891,   254
*Elset, elset=_contact_S2, internal, generate
 4827,  5080,     1
*Elset, elset=_contact_S1, internal, generate
   1,  254,    1
*Surface, type=ELEMENT, name=contact
_contact_S6, S6
_contact_S4, S4
_contact_S2, S2
_contact_S5, S5
_contact_S3, S3
_contact_S1, S1
** Section: Section-1
*Solid Section, elset=cylinder, material=Material-1
,
*End Part
**  
**
** ASSEMBLY
**
*Assembly, name=Assembly
**  
*Instance, name=cylinder-1, part=cylinder
*End Instance
**  
*End Assembly
** 
** MATERIALS
** 
*Material, name=Material-1
*Hyperelastic, neo hooke
 0.24, 0.4
