*Heading
** Job name: ellipseshu Model name: ellipseShu
** Generated by: Abaqus/CAE 2021
*Preprint, echo=NO, model=NO, history=NO, contact=NO
**
** PARTS
**
*Part, name=cylinder
*Node
      1,   29.9750156,          30.,   20.3451309
      2,    27.095583,          30.,   21.3371277
      3,   24.4627323,          30.,   22.8705158
      4,    20.085886,          30.,   27.0924091
      5,     18.34025,          30.,   29.5927353
      6,   15.6555128,          30.,   35.0624733
      7,    13.415472,          30.,   43.9169006
      8,          13.,          30.,   50.0000496
      9,   13.4154854,          30.,   56.0831985
     10,   15.6555481,          30.,   64.9376221
     11,   18.3403015,          30.,   70.4073486
     12,    20.085947,          30.,   72.9076691
     13,   24.4627781,          30.,   77.1295166
     14,   27.0956306,          30.,   78.6628952
     15,   29.9750633,          30.,   79.6548843
     16,          33.,          30.,          20.
     17,          33.,          30.,          80.
     18,   36.0249863,          30.,   79.6548691
     19,   38.9044151,          30.,   78.6628723
     20,   41.5372658,          30.,   77.1294861
     21,   45.9141159,          30.,   72.9075928
     22,   47.6597481,          30.,   70.4072647
     23,   50.3444862,          30.,   64.9375305
     24,   52.5845299,          30.,   56.0830994
     25,          53.,          30.,   49.9999504
     26,   52.5845146,          30.,   43.9168015
     27,   50.3444519,          30.,   35.0623779
     28,   47.6596985,          30.,   29.5926533
     29,   45.9140511,          30.,   27.0923309
     30,   41.5372238,          30.,   22.8704834
     31,   38.9043694,          30.,   21.3371067
     32,   36.0249367,          30.,   20.3451195
     33,   22.1232681,          30.,   24.8242664
     34,   16.8693237,          30.,   32.2643623
     35,   14.6832371,          30.,   37.9535713
     36,    13.939785,          30.,   40.9119034
     37,   13.1035376,          30.,   46.9513474
     38,   13.1035442,          30.,    53.048748
     39,    13.939806,          30.,    59.088192
     40,   14.6832647,          30.,    62.046524
     41,   16.8693657,          30.,   67.7357254
     42,   22.1233082,          30.,   75.1757736
     43,   43.8767319,          30.,   75.1757355
     44,   49.1306763,          30.,   67.7356415
     45,    51.316761,          30.,   62.0464287
     46,    52.060215,          30.,   59.0880966
     47,   52.8964615,          30.,   53.0486526
     48,   52.8964539,          30.,    46.951252
     49,   52.0601959,          30.,    40.911808
     50,   51.3167343,          30.,    37.953476
     51,   49.1306343,          30.,   32.2642746
     52,   43.8766899,          30.,   24.8242264
     53,   35.2298889,          30.,   23.1984615
     54,   20.4570503,          30.,   31.3369122
     55,   46.6730194,          30.,    33.252388
     56,   16.5533028,          30.,   41.7955284
     57,   50.0400925,          30.,   46.7889481
     58,   50.0673599,          30.,   52.4844589
     59,   17.1770935,          30.,   61.5136795
     60,   46.6494408,          30.,   66.2046814
     61,   22.1052074,          30.,   71.0997238
     62,   41.8038635,          30.,   72.9968567
     63,   28.1828575,          30.,   76.0426025
     64,   30.6447296,          30.,   76.8130264
     65,   33.5107384,          30.,   76.5985718
     66,   35.9339676,          30.,   74.4850311
     67,   39.7629509,          30.,   74.8180466
     68,   23.9128456,          30.,   73.0552368
     69,    45.260479,          30.,   68.6413727
     70,   19.1435146,          30.,   66.5725861
     71,    16.606966,          30.,   58.8154831
     72,   15.9526415,          30.,   53.1909065
     73,   15.8824272,          30.,   47.4536209
     74,   17.1885414,          30.,    39.043087
     75,   19.1558971,          30.,   33.7840691
     76,   43.7848396,          30.,   28.7325592
     77,   23.6976719,          30.,   27.0323467
     78,   37.6279945,          30.,   23.9462585
     79,   21.9855061,          30.,   29.0968304
     80,   18.0608215,          30.,   36.3642044
     81,   49.2940331,          30.,   41.1765022
     82,   16.1116581,          30.,   44.6017036
     83,   15.8250637,          30.,   50.3196259
     84,    16.206522,          30.,   56.0279121
     85,   48.6924019,          30.,   60.9169769
     86,   17.9767151,          30.,    64.108963
     87,   20.5047836,          30.,   68.9114838
     88,   25.9560127,          30.,    74.734848
     89,   43.6397972,          30.,   70.9107056
     90,   47.7911758,          30.,   63.6094627
     91,   49.3568611,          30.,    58.140377
     92,   49.8132744,          30.,   55.3227539
     93,   50.1526871,          30.,   49.6321831
     94,   49.7709999,          30.,   43.9702225
     95,   48.6431351,          30.,   38.4496384
     96,   47.7798462,          30.,   35.7961159
     97,   45.3624268,          30.,   30.8999939
     98,   39.9014206,          30.,   25.1751041
     99,   38.4278908,          30.,   27.3225994
    100,   29.2505646,          30.,   73.7055588
    101,   27.3673935,          30.,   72.4830399
    102,   37.9883919,          30.,   72.7471848
    103,   25.5790176,          30.,   70.9442749
    104,    39.831852,          30.,   70.9426956
    105,    26.976965,          30.,   27.5720348
    106,   23.9780636,          30.,   69.1934433
    107,   24.0299911,          30.,   31.1150627
    108,   41.5061607,          30.,   68.9794998
    109,   22.7052479,          30.,   33.1463318
    110,   42.9987068,          30.,   66.8800354
    111,   43.1580048,          30.,   32.2201118
    112,   22.5213356,          30.,   67.3223801
    113,   44.3611374,          30.,   34.2434273
    114,   21.1884995,          30.,    65.351387
    115,   44.2910881,          30.,   64.6571274
    116,   21.4741039,          30.,   35.3257484
    117,   45.3731155,          30.,   36.5341988
    118,   20.0984821,          30.,   63.3377953
    119,   20.4319611,          30.,   37.6162834
    120,   45.3556976,          30.,   62.3061447
    121,   46.1257286,          30.,   38.9348259
    122,   19.5682163,          30.,     61.09235
    123,     46.17696,          30.,   59.8231087
    124,   19.6441994,          30.,   40.0624466
    125,    46.659977,          30.,   41.4290199
    126,   19.2696419,          30.,   58.6330948
    127,   46.7590561,          30.,   57.2337112
    128,   19.0930805,          30.,   42.5710716
    129,   47.0355186,          30.,   44.0046234
    130,   18.9781055,          30.,   56.0168648
    131,   47.1419945,          30.,   54.6037941
    132,   18.7357635,          30.,   45.1917572
    133,   47.3483658,          30.,   51.9430046
    134,   18.5629845,          30.,   47.8785248
    135,   47.2773933,          30.,   46.6244431
    136,   18.7200165,          30.,   53.3207169
    137,   47.3942909,          30.,   49.2757759
    138,   18.5624676,          30.,    50.603096
    139,    30.259304,          30.,   23.1705284
    140,   27.8521633,          30.,   23.9805584
    141,    32.786644,          30.,   22.9029446
    142,   25.7019634,          30.,   25.2896709
    143,   41.9629555,          30.,   26.7987347
    144,   34.5407333,          30.,   25.7996216
    145,   27.1182175,          30.,   68.9016647
    146,   37.9515305,          30.,   68.9892349
    147,   30.5744743,          30.,   25.6376686
    148,   28.8751526,          30.,   29.8509731
    149,   24.2644939,          30.,   65.6617584
    150,   39.4683342,          30.,   67.0804214
    151,   40.8387947,          30.,   65.0889587
    152,   26.7863464,          30.,   33.1728821
    153,    42.338871,          30.,   35.1894417
    154,    22.995245,          30.,   63.8894196
    155,   43.2096786,          30.,   37.1935806
    156,   42.0297928,          30.,   63.0641098
    157,   21.7352524,          30.,    62.749115
    158,   23.7637959,          30.,   36.9400597
    159,   43.7055893,          30.,    39.305603
    160,   43.0122528,          30.,   60.9972153
    161,   22.6931839,          30.,   38.7998962
    162,   21.9802685,          30.,   58.6512871
    163,   22.0440807,          30.,   40.9488564
    164,   44.0562363,          30.,   41.5735207
    165,   43.7808647,          30.,   58.7634735
    166,   21.7366829,          30.,   56.0787888
    167,   21.6134186,          30.,   43.2461586
    168,   44.3434067,          30.,    43.965271
    169,   44.2881088,          30.,   56.3836784
    170,   44.5689354,          30.,   46.4370689
    171,   44.5913391,          30.,   53.9445686
    172,   21.4469013,          30.,   53.4764633
    173,   21.3120117,          30.,   45.6868134
    174,   44.7098198,          30.,   48.9346962
    175,   44.7356148,          30.,   51.4473801
    176,   21.1774864,          30.,   48.2474365
    177,   21.2321167,          30.,   50.8668022
    178,   40.1745033,          30.,   28.6882305
    179,   27.3638897,          30.,   64.8150558
    180,   38.6932716,          30.,   63.2661514
    181,   28.3316441,          30.,   36.1577072
    182,   41.1911659,          30.,   37.5593529
    183,   39.7603493,          30.,   61.3570061
    184,   24.5382042,          30.,   61.8899002
    185,   41.4323616,          30.,   41.5545158
    186,   40.7257347,          30.,   59.5978622
    187,   26.2227859,          30.,   38.8305817
    188,   24.5318241,          30.,   58.8894768
    189,   41.7058067,          30.,   43.8800354
    190,   41.5627174,          30.,   57.7380142
    191,   24.4461765,          30.,    41.607254
    192,    24.486824,          30.,   56.2420769
    193,   41.9455452,          30.,   46.2727165
    194,   24.1666527,          30.,   43.7927437
    195,   24.1311913,          30.,   53.6443939
    196,   41.9341393,          30.,   55.6113052
    197,   23.8670311,          30.,   46.1065674
    198,   23.8018913,          30.,   51.0779877
    199,   42.1323891,          30.,   53.3672829
    200,   42.1204567,          30.,   48.6403198
    201,   23.7161045,          30.,   48.5511742
    202,   42.2200165,          30.,   51.0121613
    203,   34.4459457,          30.,   72.4494934
    204,   39.8169022,          30.,   31.9585323
    205,   37.4126778,          30.,   59.4230576
    206,   26.8620396,          30.,   59.1682243
    207,   39.2112732,          30.,   43.7804718
    208,   26.7995777,          30.,   41.6393852
    209,   39.7752838,          30.,   56.8871956
    210,   27.6322765,          30.,   56.4825134
    211,   26.1002903,          30.,   48.7901268
    212,   39.5555992,          30.,   48.4135056
    213,   26.2168846,          30.,   51.1596413
    214,   39.6887512,          30.,   52.8789101
    215,   29.5085411,          30.,   68.7704086
    216,   40.9394455,          30.,   36.0396919
    217,   34.7007332,          30.,     68.91922
    218,   30.9264431,          30.,   66.1856537
    219,   39.1172905,          30.,   35.3504791
    220,   26.9174976,          30.,   61.8150711
    221,   37.8518257,          30.,   33.3850365
    222,   38.9509506,          30.,   41.4390945
    223,   32.2640419,          30.,   68.8226166
    224,   37.4644775,          30.,   65.2379761
    225,   30.8650894,          30.,   71.5005112
    226,   36.9193497,          30.,   29.2947922
    227,   32.4634933,          30.,   73.8507233
    228,   29.8351727,          30.,   58.6326981
    229,   35.4549408,          30.,   63.5692291
    230,   36.6233826,          30.,   41.4300232
    231,   35.6482735,          30.,   34.1962585
    232,   41.7752571,          30.,   30.3696976
    233,   34.2850456,          30.,   65.5180893
    234,    32.495266,          30.,     64.19767
    235,   38.4731674,          30.,   30.4168186
    236,   33.8004532,          30.,   28.5802727
    237,   34.4093933,          30.,   38.1263657
    238,    31.204258,          30.,   61.0132217
    239,   34.2902794,          30.,   41.1476212
    240,   35.0429382,          30.,   31.3149853
    241,   36.4704704,          30.,   61.4890556
    242,   33.4260788,          30.,    62.227623
    243,   30.9817219,          30.,   27.7963696
    244,    33.211422,          30.,   35.0252151
    245,   31.5110893,          30.,   29.7243919
    246,   31.7536335,          30.,     57.66819
    247,   31.4871025,          30.,   38.4802361
    248,     32.46912,          30.,   43.9770584
    249,   32.3174782,          30.,   32.1934662
    250,   31.9007587,          30.,   41.2907066
    251,   30.6531124,          30.,   35.5962181
    252,   29.6950054,          30.,   32.7314949
    253,   34.5554504,          30.,   57.2206192
    254,   29.7920914,          30.,   44.6156235
    255,   37.0106888,          30.,   45.9838295
    256,    30.251791,          30.,   55.3745003
    257,   36.6805038,          30.,   48.5069923
    258,   28.9423904,          30.,   38.8007965
    259,   34.2125816,          30.,   60.1016312
    260,   32.4381409,          30.,   54.3419609
    261,   31.4640541,          30.,   46.6273117
    262,   30.8045063,          30.,     52.34338
    263,   32.0543785,          30.,   51.0084305
    264,   36.6140747,          30.,   55.0438194
    265,   28.7308064,          30.,   47.0539856
    266,   28.2519054,          30.,   51.0942726
    267,   34.0245171,          30.,    52.829319
    268,   29.0057583,          30.,   53.1791153
    269,   37.3016167,          30.,   52.2721786
    270,   30.8459568,          30.,   48.1337814
    271,   37.5935478,          30.,    76.365387
    272,   35.7007408,          30.,   77.5998535
    273,   36.5526581,          30.,   26.2779942
    274,   32.6173592,          30.,   25.4151535
    275,   28.6381111,          30.,   26.3364983
    276,   25.3941898,          30.,   29.1225357
    277,   30.8019142,          30.,   74.7542038
    278,   36.3091774,          30.,   70.7726288
    279,   41.1140327,          30.,    33.583416
    280,   35.7763786,          30.,    28.135746
    281,   32.4396095,          30.,   27.3184891
    282,   29.5573635,          30.,   28.0138321
    283,   27.1048393,          30.,   30.7011929
    284,   24.9730968,          30.,   34.9972649
    285,   25.6657143,          30.,   67.1950302
    286,   28.6628227,          30.,   70.4281311
    287,   36.1281815,          30.,    67.161026
    288,   33.1101646,          30.,   70.4627075
    289,   33.0951729,          30.,   67.3279572
    290,   28.7017727,          30.,   67.1404724
    291,   25.4617767,          30.,   64.2270508
    292,   21.9800339,          30.,   61.0507736
    293,   30.8850765,          30.,   68.8059845
    294,   41.2441788,          30.,   39.3864899
    295,   37.1356583,          30.,   31.7583656
    296,   26.6214104,          30.,   36.6761856
    297,   24.5088139,          30.,   39.7677078
    298,   29.5326118,          30.,   63.8859558
    299,   29.0016937,          30.,   61.6118927
    300,    31.052103,          30.,   63.0994148
    301,   39.5305595,          30.,   55.0216827
    302,   39.8451309,          30.,   50.6602554
    303,    39.418499,          30.,   46.1473656
    304,   29.3761883,          30.,   41.5743484
    305,   26.7800503,          30.,   44.1478004
    306,   39.5841484,          30.,   37.3409462
    307,   26.7693729,          30.,   53.6653824
    308,    26.388216,          30.,   46.4751167
    309,   38.5553513,          30.,   57.8505402
    310,   32.4059296,          30.,   59.6345558
    311,   28.5802422,          30.,    59.731472
    312,   36.8198204,          30.,   36.5500145
    313,   38.5496216,          30.,    38.827282
    314,   28.2660351,          30.,    49.089016
    315,   34.6045685,          30.,   43.5706329
    316,   36.8660393,          30.,   43.6677284
    317,   36.6087227,          30.,    39.505085
    318,   35.2368279,          30.,   50.7404442
    319,   33.0260963,          30.,   49.2205124
    320,   37.9749527,          30.,     50.56493
    321,   33.6914444,          30.,   46.7883492
    322,   35.0569992,          30.,   45.5107498
    323,   30.2348843,          30.,   49.7392235
    324,   29.7386932,          30.,   50.9975395
    325,   29.9750156,          27.,   20.3451309
    326,    27.095583,          27.,   21.3371277
    327,   24.4627323,          27.,   22.8705158
    328,    20.085886,          27.,   27.0924091
    329,     18.34025,          27.,   29.5927353
    330,   15.6555128,          27.,   35.0624733
    331,    13.415472,          27.,   43.9169006
    332,          13.,          27.,   50.0000496
    333,   13.4154854,          27.,   56.0831985
    334,   15.6555481,          27.,   64.9376221
    335,   18.3403015,          27.,   70.4073486
    336,    20.085947,          27.,   72.9076691
    337,   24.4627781,          27.,   77.1295166
    338,   27.0956306,          27.,   78.6628952
    339,   29.9750633,          27.,   79.6548843
    340,          33.,          27.,          20.
    341,          33.,          27.,          80.
    342,   36.0249863,          27.,   79.6548691
    343,   38.9044151,          27.,   78.6628723
    344,   41.5372658,          27.,   77.1294861
    345,   45.9141159,          27.,   72.9075928
    346,   47.6597481,          27.,   70.4072647
    347,   50.3444862,          27.,   64.9375305
    348,   52.5845299,          27.,   56.0830994
    349,          53.,          27.,   49.9999504
    350,   52.5845146,          27.,   43.9168015
    351,   50.3444519,          27.,   35.0623779
    352,   47.6596985,          27.,   29.5926533
    353,   45.9140511,          27.,   27.0923309
    354,   41.5372238,          27.,   22.8704834
    355,   38.9043694,          27.,   21.3371067
    356,   36.0249367,          27.,   20.3451195
    357,   22.1232681,          27.,   24.8242664
    358,   16.8693237,          27.,   32.2643623
    359,   14.6832371,          27.,   37.9535713
    360,    13.939785,          27.,   40.9119034
    361,   13.1035376,          27.,   46.9513474
    362,   13.1035442,          27.,    53.048748
    363,    13.939806,          27.,    59.088192
    364,   14.6832647,          27.,    62.046524
    365,   16.8693657,          27.,   67.7357254
    366,   22.1233082,          27.,   75.1757736
    367,   43.8767319,          27.,   75.1757355
    368,   49.1306763,          27.,   67.7356415
    369,    51.316761,          27.,   62.0464287
    370,    52.060215,          27.,   59.0880966
    371,   52.8964615,          27.,   53.0486526
    372,   52.8964539,          27.,    46.951252
    373,   52.0601959,          27.,    40.911808
    374,   51.3167343,          27.,    37.953476
    375,   49.1306343,          27.,   32.2642746
    376,   43.8766899,          27.,   24.8242264
    377,   35.2298889,          27.,   23.1984615
    378,   20.4570503,          27.,   31.3369122
    379,   46.6730194,          27.,    33.252388
    380,   16.5533028,          27.,   41.7955284
    381,   50.0400925,          27.,   46.7889481
    382,   50.0673599,          27.,   52.4844589
    383,   17.1770935,          27.,   61.5136795
    384,   46.6494408,          27.,   66.2046814
    385,   22.1052074,          27.,   71.0997238
    386,   41.8038635,          27.,   72.9968567
    387,   28.1828575,          27.,   76.0426025
    388,   30.6447296,          27.,   76.8130264
    389,   33.5107384,          27.,   76.5985718
    390,   35.9339676,          27.,   74.4850311
    391,   39.7629509,          27.,   74.8180466
    392,   23.9128456,          27.,   73.0552368
    393,    45.260479,          27.,   68.6413727
    394,   19.1435146,          27.,   66.5725861
    395,    16.606966,          27.,   58.8154831
    396,   15.9526415,          27.,   53.1909065
    397,   15.8824272,          27.,   47.4536209
    398,   17.1885414,          27.,    39.043087
    399,   19.1558971,          27.,   33.7840691
    400,   43.7848396,          27.,   28.7325592
    401,   23.6976719,          27.,   27.0323467
    402,   37.6279945,          27.,   23.9462585
    403,   21.9855061,          27.,   29.0968304
    404,   18.0608215,          27.,   36.3642044
    405,   49.2940331,          27.,   41.1765022
    406,   16.1116581,          27.,   44.6017036
    407,   15.8250637,          27.,   50.3196259
    408,    16.206522,          27.,   56.0279121
    409,   48.6924019,          27.,   60.9169769
    410,   17.9767151,          27.,    64.108963
    411,   20.5047836,          27.,   68.9114838
    412,   25.9560127,          27.,    74.734848
    413,   43.6397972,          27.,   70.9107056
    414,   47.7911758,          27.,   63.6094627
    415,   49.3568611,          27.,    58.140377
    416,   49.8132744,          27.,   55.3227539
    417,   50.1526871,          27.,   49.6321831
    418,   49.7709999,          27.,   43.9702225
    419,   48.6431351,          27.,   38.4496384
    420,   47.7798462,          27.,   35.7961159
    421,   45.3624268,          27.,   30.8999939
    422,   39.9014206,          27.,   25.1751041
    423,   38.4278908,          27.,   27.3225994
    424,   29.2505646,          27.,   73.7055588
    425,   27.3673935,          27.,   72.4830399
    426,   37.9883919,          27.,   72.7471848
    427,   25.5790176,          27.,   70.9442749
    428,    39.831852,          27.,   70.9426956
    429,    26.976965,          27.,   27.5720348
    430,   23.9780636,          27.,   69.1934433
    431,   24.0299911,          27.,   31.1150627
    432,   41.5061607,          27.,   68.9794998
    433,   22.7052479,          27.,   33.1463318
    434,   42.9987068,          27.,   66.8800354
    435,   43.1580048,          27.,   32.2201118
    436,   22.5213356,          27.,   67.3223801
    437,   44.3611374,          27.,   34.2434273
    438,   21.1884995,          27.,    65.351387
    439,   44.2910881,          27.,   64.6571274
    440,   21.4741039,          27.,   35.3257484
    441,   45.3731155,          27.,   36.5341988
    442,   20.0984821,          27.,   63.3377953
    443,   20.4319611,          27.,   37.6162834
    444,   45.3556976,          27.,   62.3061447
    445,   46.1257286,          27.,   38.9348259
    446,   19.5682163,          27.,     61.09235
    447,     46.17696,          27.,   59.8231087
    448,   19.6441994,          27.,   40.0624466
    449,    46.659977,          27.,   41.4290199
    450,   19.2696419,          27.,   58.6330948
    451,   46.7590561,          27.,   57.2337112
    452,   19.0930805,          27.,   42.5710716
    453,   47.0355186,          27.,   44.0046234
    454,   18.9781055,          27.,   56.0168648
    455,   47.1419945,          27.,   54.6037941
    456,   18.7357635,          27.,   45.1917572
    457,   47.3483658,          27.,   51.9430046
    458,   18.5629845,          27.,   47.8785248
    459,   47.2773933,          27.,   46.6244431
    460,   18.7200165,          27.,   53.3207169
    461,   47.3942909,          27.,   49.2757759
    462,   18.5624676,          27.,    50.603096
    463,    30.259304,          27.,   23.1705284
    464,   27.8521633,          27.,   23.9805584
    465,    32.786644,          27.,   22.9029446
    466,   25.7019634,          27.,   25.2896709
    467,   41.9629555,          27.,   26.7987347
    468,   34.5407333,          27.,   25.7996216
    469,   27.1182175,          27.,   68.9016647
    470,   37.9515305,          27.,   68.9892349
    471,   30.5744743,          27.,   25.6376686
    472,   28.8751526,          27.,   29.8509731
    473,   24.2644939,          27.,   65.6617584
    474,   39.4683342,          27.,   67.0804214
    475,   40.8387947,          27.,   65.0889587
    476,   26.7863464,          27.,   33.1728821
    477,    42.338871,          27.,   35.1894417
    478,    22.995245,          27.,   63.8894196
    479,   43.2096786,          27.,   37.1935806
    480,   42.0297928,          27.,   63.0641098
    481,   21.7352524,          27.,    62.749115
    482,   23.7637959,          27.,   36.9400597
    483,   43.7055893,          27.,    39.305603
    484,   43.0122528,          27.,   60.9972153
    485,   22.6931839,          27.,   38.7998962
    486,   21.9802685,          27.,   58.6512871
    487,   22.0440807,          27.,   40.9488564
    488,   44.0562363,          27.,   41.5735207
    489,   43.7808647,          27.,   58.7634735
    490,   21.7366829,          27.,   56.0787888
    491,   21.6134186,          27.,   43.2461586
    492,   44.3434067,          27.,    43.965271
    493,   44.2881088,          27.,   56.3836784
    494,   44.5689354,          27.,   46.4370689
    495,   44.5913391,          27.,   53.9445686
    496,   21.4469013,          27.,   53.4764633
    497,   21.3120117,          27.,   45.6868134
    498,   44.7098198,          27.,   48.9346962
    499,   44.7356148,          27.,   51.4473801
    500,   21.1774864,          27.,   48.2474365
    501,   21.2321167,          27.,   50.8668022
    502,   40.1745033,          27.,   28.6882305
    503,   27.3638897,          27.,   64.8150558
    504,   38.6932716,          27.,   63.2661514
    505,   28.3316441,          27.,   36.1577072
    506,   41.1911659,          27.,   37.5593529
    507,   39.7603493,          27.,   61.3570061
    508,   24.5382042,          27.,   61.8899002
    509,   41.4323616,          27.,   41.5545158
    510,   40.7257347,          27.,   59.5978622
    511,   26.2227859,          27.,   38.8305817
    512,   24.5318241,          27.,   58.8894768
    513,   41.7058067,          27.,   43.8800354
    514,   41.5627174,          27.,   57.7380142
    515,   24.4461765,          27.,    41.607254
    516,    24.486824,          27.,   56.2420769
    517,   41.9455452,          27.,   46.2727165
    518,   24.1666527,          27.,   43.7927437
    519,   24.1311913,          27.,   53.6443939
    520,   41.9341393,          27.,   55.6113052
    521,   23.8670311,          27.,   46.1065674
    522,   23.8018913,          27.,   51.0779877
    523,   42.1323891,          27.,   53.3672829
    524,   42.1204567,          27.,   48.6403198
    525,   23.7161045,          27.,   48.5511742
    526,   42.2200165,          27.,   51.0121613
    527,   34.4459457,          27.,   72.4494934
    528,   39.8169022,          27.,   31.9585323
    529,   37.4126778,          27.,   59.4230576
    530,   26.8620396,          27.,   59.1682243
    531,   39.2112732,          27.,   43.7804718
    532,   26.7995777,          27.,   41.6393852
    533,   39.7752838,          27.,   56.8871956
    534,   27.6322765,          27.,   56.4825134
    535,   26.1002903,          27.,   48.7901268
    536,   39.5555992,          27.,   48.4135056
    537,   26.2168846,          27.,   51.1596413
    538,   39.6887512,          27.,   52.8789101
    539,   29.5085411,          27.,   68.7704086
    540,   40.9394455,          27.,   36.0396919
    541,   34.7007332,          27.,     68.91922
    542,   30.9264431,          27.,   66.1856537
    543,   39.1172905,          27.,   35.3504791
    544,   26.9174976,          27.,   61.8150711
    545,   37.8518257,          27.,   33.3850365
    546,   38.9509506,          27.,   41.4390945
    547,   32.2640419,          27.,   68.8226166
    548,   37.4644775,          27.,   65.2379761
    549,   30.8650894,          27.,   71.5005112
    550,   36.9193497,          27.,   29.2947922
    551,   32.4634933,          27.,   73.8507233
    552,   29.8351727,          27.,   58.6326981
    553,   35.4549408,          27.,   63.5692291
    554,   36.6233826,          27.,   41.4300232
    555,   35.6482735,          27.,   34.1962585
    556,   41.7752571,          27.,   30.3696976
    557,   34.2850456,          27.,   65.5180893
    558,    32.495266,          27.,     64.19767
    559,   38.4731674,          27.,   30.4168186
    560,   33.8004532,          27.,   28.5802727
    561,   34.4093933,          27.,   38.1263657
    562,    31.204258,          27.,   61.0132217
    563,   34.2902794,          27.,   41.1476212
    564,   35.0429382,          27.,   31.3149853
    565,   36.4704704,          27.,   61.4890556
    566,   33.4260788,          27.,    62.227623
    567,   30.9817219,          27.,   27.7963696
    568,    33.211422,          27.,   35.0252151
    569,   31.5110893,          27.,   29.7243919
    570,   31.7536335,          27.,     57.66819
    571,   31.4871025,          27.,   38.4802361
    572,     32.46912,          27.,   43.9770584
    573,   32.3174782,          27.,   32.1934662
    574,   31.9007587,          27.,   41.2907066
    575,   30.6531124,          27.,   35.5962181
    576,   29.6950054,          27.,   32.7314949
    577,   34.5554504,          27.,   57.2206192
    578,   29.7920914,          27.,   44.6156235
    579,   37.0106888,          27.,   45.9838295
    580,    30.251791,          27.,   55.3745003
    581,   36.6805038,          27.,   48.5069923
    582,   28.9423904,          27.,   38.8007965
    583,   34.2125816,          27.,   60.1016312
    584,   32.4381409,          27.,   54.3419609
    585,   31.4640541,          27.,   46.6273117
    586,   30.8045063,          27.,     52.34338
    587,   32.0543785,          27.,   51.0084305
    588,   36.6140747,          27.,   55.0438194
    589,   28.7308064,          27.,   47.0539856
    590,   28.2519054,          27.,   51.0942726
    591,   34.0245171,          27.,    52.829319
    592,   29.0057583,          27.,   53.1791153
    593,   37.3016167,          27.,   52.2721786
    594,   30.8459568,          27.,   48.1337814
    595,   37.5935478,          27.,    76.365387
    596,   35.7007408,          27.,   77.5998535
    597,   36.5526581,          27.,   26.2779942
    598,   32.6173592,          27.,   25.4151535
    599,   28.6381111,          27.,   26.3364983
    600,   25.3941898,          27.,   29.1225357
    601,   30.8019142,          27.,   74.7542038
    602,   36.3091774,          27.,   70.7726288
    603,   41.1140327,          27.,    33.583416
    604,   35.7763786,          27.,    28.135746
    605,   32.4396095,          27.,   27.3184891
    606,   29.5573635,          27.,   28.0138321
    607,   27.1048393,          27.,   30.7011929
    608,   24.9730968,          27.,   34.9972649
    609,   25.6657143,          27.,   67.1950302
    610,   28.6628227,          27.,   70.4281311
    611,   36.1281815,          27.,    67.161026
    612,   33.1101646,          27.,   70.4627075
    613,   33.0951729,          27.,   67.3279572
    614,   28.7017727,          27.,   67.1404724
    615,   25.4617767,          27.,   64.2270508
    616,   21.9800339,          27.,   61.0507736
    617,   30.8850765,          27.,   68.8059845
    618,   41.2441788,          27.,   39.3864899
    619,   37.1356583,          27.,   31.7583656
    620,   26.6214104,          27.,   36.6761856
    621,   24.5088139,          27.,   39.7677078
    622,   29.5326118,          27.,   63.8859558
    623,   29.0016937,          27.,   61.6118927
    624,    31.052103,          27.,   63.0994148
    625,   39.5305595,          27.,   55.0216827
    626,   39.8451309,          27.,   50.6602554
    627,    39.418499,          27.,   46.1473656
    628,   29.3761883,          27.,   41.5743484
    629,   26.7800503,          27.,   44.1478004
    630,   39.5841484,          27.,   37.3409462
    631,   26.7693729,          27.,   53.6653824
    632,    26.388216,          27.,   46.4751167
    633,   38.5553513,          27.,   57.8505402
    634,   32.4059296,          27.,   59.6345558
    635,   28.5802422,          27.,    59.731472
    636,   36.8198204,          27.,   36.5500145
    637,   38.5496216,          27.,    38.827282
    638,   28.2660351,          27.,    49.089016
    639,   34.6045685,          27.,   43.5706329
    640,   36.8660393,          27.,   43.6677284
    641,   36.6087227,          27.,    39.505085
    642,   35.2368279,          27.,   50.7404442
    643,   33.0260963,          27.,   49.2205124
    644,   37.9749527,          27.,     50.56493
    645,   33.6914444,          27.,   46.7883492
    646,   35.0569992,          27.,   45.5107498
    647,   30.2348843,          27.,   49.7392235
    648,   29.7386932,          27.,   50.9975395
    649,   29.9750156,          24.,   20.3451309
    650,    27.095583,          24.,   21.3371277
    651,   24.4627323,          24.,   22.8705158
    652,    20.085886,          24.,   27.0924091
    653,     18.34025,          24.,   29.5927353
    654,   15.6555128,          24.,   35.0624733
    655,    13.415472,          24.,   43.9169006
    656,          13.,          24.,   50.0000496
    657,   13.4154854,          24.,   56.0831985
    658,   15.6555481,          24.,   64.9376221
    659,   18.3403015,          24.,   70.4073486
    660,    20.085947,          24.,   72.9076691
    661,   24.4627781,          24.,   77.1295166
    662,   27.0956306,          24.,   78.6628952
    663,   29.9750633,          24.,   79.6548843
    664,          33.,          24.,          20.
    665,          33.,          24.,          80.
    666,   36.0249863,          24.,   79.6548691
    667,   38.9044151,          24.,   78.6628723
    668,   41.5372658,          24.,   77.1294861
    669,   45.9141159,          24.,   72.9075928
    670,   47.6597481,          24.,   70.4072647
    671,   50.3444862,          24.,   64.9375305
    672,   52.5845299,          24.,   56.0830994
    673,          53.,          24.,   49.9999504
    674,   52.5845146,          24.,   43.9168015
    675,   50.3444519,          24.,   35.0623779
    676,   47.6596985,          24.,   29.5926533
    677,   45.9140511,          24.,   27.0923309
    678,   41.5372238,          24.,   22.8704834
    679,   38.9043694,          24.,   21.3371067
    680,   36.0249367,          24.,   20.3451195
    681,   22.1232681,          24.,   24.8242664
    682,   16.8693237,          24.,   32.2643623
    683,   14.6832371,          24.,   37.9535713
    684,    13.939785,          24.,   40.9119034
    685,   13.1035376,          24.,   46.9513474
    686,   13.1035442,          24.,    53.048748
    687,    13.939806,          24.,    59.088192
    688,   14.6832647,          24.,    62.046524
    689,   16.8693657,          24.,   67.7357254
    690,   22.1233082,          24.,   75.1757736
    691,   43.8767319,          24.,   75.1757355
    692,   49.1306763,          24.,   67.7356415
    693,    51.316761,          24.,   62.0464287
    694,    52.060215,          24.,   59.0880966
    695,   52.8964615,          24.,   53.0486526
    696,   52.8964539,          24.,    46.951252
    697,   52.0601959,          24.,    40.911808
    698,   51.3167343,          24.,    37.953476
    699,   49.1306343,          24.,   32.2642746
    700,   43.8766899,          24.,   24.8242264
    701,   35.2298889,          24.,   23.1984615
    702,   20.4570503,          24.,   31.3369122
    703,   46.6730194,          24.,    33.252388
    704,   16.5533028,          24.,   41.7955284
    705,   50.0400925,          24.,   46.7889481
    706,   50.0673599,          24.,   52.4844589
    707,   17.1770935,          24.,   61.5136795
    708,   46.6494408,          24.,   66.2046814
    709,   22.1052074,          24.,   71.0997238
    710,   41.8038635,          24.,   72.9968567
    711,   28.1828575,          24.,   76.0426025
    712,   30.6447296,          24.,   76.8130264
    713,   33.5107384,          24.,   76.5985718
    714,   35.9339676,          24.,   74.4850311
    715,   39.7629509,          24.,   74.8180466
    716,   23.9128456,          24.,   73.0552368
    717,    45.260479,          24.,   68.6413727
    718,   19.1435146,          24.,   66.5725861
    719,    16.606966,          24.,   58.8154831
    720,   15.9526415,          24.,   53.1909065
    721,   15.8824272,          24.,   47.4536209
    722,   17.1885414,          24.,    39.043087
    723,   19.1558971,          24.,   33.7840691
    724,   43.7848396,          24.,   28.7325592
    725,   23.6976719,          24.,   27.0323467
    726,   37.6279945,          24.,   23.9462585
    727,   21.9855061,          24.,   29.0968304
    728,   18.0608215,          24.,   36.3642044
    729,   49.2940331,          24.,   41.1765022
    730,   16.1116581,          24.,   44.6017036
    731,   15.8250637,          24.,   50.3196259
    732,    16.206522,          24.,   56.0279121
    733,   48.6924019,          24.,   60.9169769
    734,   17.9767151,          24.,    64.108963
    735,   20.5047836,          24.,   68.9114838
    736,   25.9560127,          24.,    74.734848
    737,   43.6397972,          24.,   70.9107056
    738,   47.7911758,          24.,   63.6094627
    739,   49.3568611,          24.,    58.140377
    740,   49.8132744,          24.,   55.3227539
    741,   50.1526871,          24.,   49.6321831
    742,   49.7709999,          24.,   43.9702225
    743,   48.6431351,          24.,   38.4496384
    744,   47.7798462,          24.,   35.7961159
    745,   45.3624268,          24.,   30.8999939
    746,   39.9014206,          24.,   25.1751041
    747,   38.4278908,          24.,   27.3225994
    748,   29.2505646,          24.,   73.7055588
    749,   27.3673935,          24.,   72.4830399
    750,   37.9883919,          24.,   72.7471848
    751,   25.5790176,          24.,   70.9442749
    752,    39.831852,          24.,   70.9426956
    753,    26.976965,          24.,   27.5720348
    754,   23.9780636,          24.,   69.1934433
    755,   24.0299911,          24.,   31.1150627
    756,   41.5061607,          24.,   68.9794998
    757,   22.7052479,          24.,   33.1463318
    758,   42.9987068,          24.,   66.8800354
    759,   43.1580048,          24.,   32.2201118
    760,   22.5213356,          24.,   67.3223801
    761,   44.3611374,          24.,   34.2434273
    762,   21.1884995,          24.,    65.351387
    763,   44.2910881,          24.,   64.6571274
    764,   21.4741039,          24.,   35.3257484
    765,   45.3731155,          24.,   36.5341988
    766,   20.0984821,          24.,   63.3377953
    767,   20.4319611,          24.,   37.6162834
    768,   45.3556976,          24.,   62.3061447
    769,   46.1257286,          24.,   38.9348259
    770,   19.5682163,          24.,     61.09235
    771,     46.17696,          24.,   59.8231087
    772,   19.6441994,          24.,   40.0624466
    773,    46.659977,          24.,   41.4290199
    774,   19.2696419,          24.,   58.6330948
    775,   46.7590561,          24.,   57.2337112
    776,   19.0930805,          24.,   42.5710716
    777,   47.0355186,          24.,   44.0046234
    778,   18.9781055,          24.,   56.0168648
    779,   47.1419945,          24.,   54.6037941
    780,   18.7357635,          24.,   45.1917572
    781,   47.3483658,          24.,   51.9430046
    782,   18.5629845,          24.,   47.8785248
    783,   47.2773933,          24.,   46.6244431
    784,   18.7200165,          24.,   53.3207169
    785,   47.3942909,          24.,   49.2757759
    786,   18.5624676,          24.,    50.603096
    787,    30.259304,          24.,   23.1705284
    788,   27.8521633,          24.,   23.9805584
    789,    32.786644,          24.,   22.9029446
    790,   25.7019634,          24.,   25.2896709
    791,   41.9629555,          24.,   26.7987347
    792,   34.5407333,          24.,   25.7996216
    793,   27.1182175,          24.,   68.9016647
    794,   37.9515305,          24.,   68.9892349
    795,   30.5744743,          24.,   25.6376686
    796,   28.8751526,          24.,   29.8509731
    797,   24.2644939,          24.,   65.6617584
    798,   39.4683342,          24.,   67.0804214
    799,   40.8387947,          24.,   65.0889587
    800,   26.7863464,          24.,   33.1728821
    801,    42.338871,          24.,   35.1894417
    802,    22.995245,          24.,   63.8894196
    803,   43.2096786,          24.,   37.1935806
    804,   42.0297928,          24.,   63.0641098
    805,   21.7352524,          24.,    62.749115
    806,   23.7637959,          24.,   36.9400597
    807,   43.7055893,          24.,    39.305603
    808,   43.0122528,          24.,   60.9972153
    809,   22.6931839,          24.,   38.7998962
    810,   21.9802685,          24.,   58.6512871
    811,   22.0440807,          24.,   40.9488564
    812,   44.0562363,          24.,   41.5735207
    813,   43.7808647,          24.,   58.7634735
    814,   21.7366829,          24.,   56.0787888
    815,   21.6134186,          24.,   43.2461586
    816,   44.3434067,          24.,    43.965271
    817,   44.2881088,          24.,   56.3836784
    818,   44.5689354,          24.,   46.4370689
    819,   44.5913391,          24.,   53.9445686
    820,   21.4469013,          24.,   53.4764633
    821,   21.3120117,          24.,   45.6868134
    822,   44.7098198,          24.,   48.9346962
    823,   44.7356148,          24.,   51.4473801
    824,   21.1774864,          24.,   48.2474365
    825,   21.2321167,          24.,   50.8668022
    826,   40.1745033,          24.,   28.6882305
    827,   27.3638897,          24.,   64.8150558
    828,   38.6932716,          24.,   63.2661514
    829,   28.3316441,          24.,   36.1577072
    830,   41.1911659,          24.,   37.5593529
    831,   39.7603493,          24.,   61.3570061
    832,   24.5382042,          24.,   61.8899002
    833,   41.4323616,          24.,   41.5545158
    834,   40.7257347,          24.,   59.5978622
    835,   26.2227859,          24.,   38.8305817
    836,   24.5318241,          24.,   58.8894768
    837,   41.7058067,          24.,   43.8800354
    838,   41.5627174,          24.,   57.7380142
    839,   24.4461765,          24.,    41.607254
    840,    24.486824,          24.,   56.2420769
    841,   41.9455452,          24.,   46.2727165
    842,   24.1666527,          24.,   43.7927437
    843,   24.1311913,          24.,   53.6443939
    844,   41.9341393,          24.,   55.6113052
    845,   23.8670311,          24.,   46.1065674
    846,   23.8018913,          24.,   51.0779877
    847,   42.1323891,          24.,   53.3672829
    848,   42.1204567,          24.,   48.6403198
    849,   23.7161045,          24.,   48.5511742
    850,   42.2200165,          24.,   51.0121613
    851,   34.4459457,          24.,   72.4494934
    852,   39.8169022,          24.,   31.9585323
    853,   37.4126778,          24.,   59.4230576
    854,   26.8620396,          24.,   59.1682243
    855,   39.2112732,          24.,   43.7804718
    856,   26.7995777,          24.,   41.6393852
    857,   39.7752838,          24.,   56.8871956
    858,   27.6322765,          24.,   56.4825134
    859,   26.1002903,          24.,   48.7901268
    860,   39.5555992,          24.,   48.4135056
    861,   26.2168846,          24.,   51.1596413
    862,   39.6887512,          24.,   52.8789101
    863,   29.5085411,          24.,   68.7704086
    864,   40.9394455,          24.,   36.0396919
    865,   34.7007332,          24.,     68.91922
    866,   30.9264431,          24.,   66.1856537
    867,   39.1172905,          24.,   35.3504791
    868,   26.9174976,          24.,   61.8150711
    869,   37.8518257,          24.,   33.3850365
    870,   38.9509506,          24.,   41.4390945
    871,   32.2640419,          24.,   68.8226166
    872,   37.4644775,          24.,   65.2379761
    873,   30.8650894,          24.,   71.5005112
    874,   36.9193497,          24.,   29.2947922
    875,   32.4634933,          24.,   73.8507233
    876,   29.8351727,          24.,   58.6326981
    877,   35.4549408,          24.,   63.5692291
    878,   36.6233826,          24.,   41.4300232
    879,   35.6482735,          24.,   34.1962585
    880,   41.7752571,          24.,   30.3696976
    881,   34.2850456,          24.,   65.5180893
    882,    32.495266,          24.,     64.19767
    883,   38.4731674,          24.,   30.4168186
    884,   33.8004532,          24.,   28.5802727
    885,   34.4093933,          24.,   38.1263657
    886,    31.204258,          24.,   61.0132217
    887,   34.2902794,          24.,   41.1476212
    888,   35.0429382,          24.,   31.3149853
    889,   36.4704704,          24.,   61.4890556
    890,   33.4260788,          24.,    62.227623
    891,   30.9817219,          24.,   27.7963696
    892,    33.211422,          24.,   35.0252151
    893,   31.5110893,          24.,   29.7243919
    894,   31.7536335,          24.,     57.66819
    895,   31.4871025,          24.,   38.4802361
    896,     32.46912,          24.,   43.9770584
    897,   32.3174782,          24.,   32.1934662
    898,   31.9007587,          24.,   41.2907066
    899,   30.6531124,          24.,   35.5962181
    900,   29.6950054,          24.,   32.7314949
    901,   34.5554504,          24.,   57.2206192
    902,   29.7920914,          24.,   44.6156235
    903,   37.0106888,          24.,   45.9838295
    904,    30.251791,          24.,   55.3745003
    905,   36.6805038,          24.,   48.5069923
    906,   28.9423904,          24.,   38.8007965
    907,   34.2125816,          24.,   60.1016312
    908,   32.4381409,          24.,   54.3419609
    909,   31.4640541,          24.,   46.6273117
    910,   30.8045063,          24.,     52.34338
    911,   32.0543785,          24.,   51.0084305
    912,   36.6140747,          24.,   55.0438194
    913,   28.7308064,          24.,   47.0539856
    914,   28.2519054,          24.,   51.0942726
    915,   34.0245171,          24.,    52.829319
    916,   29.0057583,          24.,   53.1791153
    917,   37.3016167,          24.,   52.2721786
    918,   30.8459568,          24.,   48.1337814
    919,   37.5935478,          24.,    76.365387
    920,   35.7007408,          24.,   77.5998535
    921,   36.5526581,          24.,   26.2779942
    922,   32.6173592,          24.,   25.4151535
    923,   28.6381111,          24.,   26.3364983
    924,   25.3941898,          24.,   29.1225357
    925,   30.8019142,          24.,   74.7542038
    926,   36.3091774,          24.,   70.7726288
    927,   41.1140327,          24.,    33.583416
    928,   35.7763786,          24.,    28.135746
    929,   32.4396095,          24.,   27.3184891
    930,   29.5573635,          24.,   28.0138321
    931,   27.1048393,          24.,   30.7011929
    932,   24.9730968,          24.,   34.9972649
    933,   25.6657143,          24.,   67.1950302
    934,   28.6628227,          24.,   70.4281311
    935,   36.1281815,          24.,    67.161026
    936,   33.1101646,          24.,   70.4627075
    937,   33.0951729,          24.,   67.3279572
    938,   28.7017727,          24.,   67.1404724
    939,   25.4617767,          24.,   64.2270508
    940,   21.9800339,          24.,   61.0507736
    941,   30.8850765,          24.,   68.8059845
    942,   41.2441788,          24.,   39.3864899
    943,   37.1356583,          24.,   31.7583656
    944,   26.6214104,          24.,   36.6761856
    945,   24.5088139,          24.,   39.7677078
    946,   29.5326118,          24.,   63.8859558
    947,   29.0016937,          24.,   61.6118927
    948,    31.052103,          24.,   63.0994148
    949,   39.5305595,          24.,   55.0216827
    950,   39.8451309,          24.,   50.6602554
    951,    39.418499,          24.,   46.1473656
    952,   29.3761883,          24.,   41.5743484
    953,   26.7800503,          24.,   44.1478004
    954,   39.5841484,          24.,   37.3409462
    955,   26.7693729,          24.,   53.6653824
    956,    26.388216,          24.,   46.4751167
    957,   38.5553513,          24.,   57.8505402
    958,   32.4059296,          24.,   59.6345558
    959,   28.5802422,          24.,    59.731472
    960,   36.8198204,          24.,   36.5500145
    961,   38.5496216,          24.,    38.827282
    962,   28.2660351,          24.,    49.089016
    963,   34.6045685,          24.,   43.5706329
    964,   36.8660393,          24.,   43.6677284
    965,   36.6087227,          24.,    39.505085
    966,   35.2368279,          24.,   50.7404442
    967,   33.0260963,          24.,   49.2205124
    968,   37.9749527,          24.,     50.56493
    969,   33.6914444,          24.,   46.7883492
    970,   35.0569992,          24.,   45.5107498
    971,   30.2348843,          24.,   49.7392235
    972,   29.7386932,          24.,   50.9975395
    973,   29.9750156,          21.,   20.3451309
    974,    27.095583,          21.,   21.3371277
    975,   24.4627323,          21.,   22.8705158
    976,    20.085886,          21.,   27.0924091
    977,     18.34025,          21.,   29.5927353
    978,   15.6555128,          21.,   35.0624733
    979,    13.415472,          21.,   43.9169006
    980,          13.,          21.,   50.0000496
    981,   13.4154854,          21.,   56.0831985
    982,   15.6555481,          21.,   64.9376221
    983,   18.3403015,          21.,   70.4073486
    984,    20.085947,          21.,   72.9076691
    985,   24.4627781,          21.,   77.1295166
    986,   27.0956306,          21.,   78.6628952
    987,   29.9750633,          21.,   79.6548843
    988,          33.,          21.,          20.
    989,          33.,          21.,          80.
    990,   36.0249863,          21.,   79.6548691
    991,   38.9044151,          21.,   78.6628723
    992,   41.5372658,          21.,   77.1294861
    993,   45.9141159,          21.,   72.9075928
    994,   47.6597481,          21.,   70.4072647
    995,   50.3444862,          21.,   64.9375305
    996,   52.5845299,          21.,   56.0830994
    997,          53.,          21.,   49.9999504
    998,   52.5845146,          21.,   43.9168015
    999,   50.3444519,          21.,   35.0623779
   1000,   47.6596985,          21.,   29.5926533
   1001,   45.9140511,          21.,   27.0923309
   1002,   41.5372238,          21.,   22.8704834
   1003,   38.9043694,          21.,   21.3371067
   1004,   36.0249367,          21.,   20.3451195
   1005,   22.1232681,          21.,   24.8242664
   1006,   16.8693237,          21.,   32.2643623
   1007,   14.6832371,          21.,   37.9535713
   1008,    13.939785,          21.,   40.9119034
   1009,   13.1035376,          21.,   46.9513474
   1010,   13.1035442,          21.,    53.048748
   1011,    13.939806,          21.,    59.088192
   1012,   14.6832647,          21.,    62.046524
   1013,   16.8693657,          21.,   67.7357254
   1014,   22.1233082,          21.,   75.1757736
   1015,   43.8767319,          21.,   75.1757355
   1016,   49.1306763,          21.,   67.7356415
   1017,    51.316761,          21.,   62.0464287
   1018,    52.060215,          21.,   59.0880966
   1019,   52.8964615,          21.,   53.0486526
   1020,   52.8964539,          21.,    46.951252
   1021,   52.0601959,          21.,    40.911808
   1022,   51.3167343,          21.,    37.953476
   1023,   49.1306343,          21.,   32.2642746
   1024,   43.8766899,          21.,   24.8242264
   1025,   35.2298889,          21.,   23.1984615
   1026,   20.4570503,          21.,   31.3369122
   1027,   46.6730194,          21.,    33.252388
   1028,   16.5533028,          21.,   41.7955284
   1029,   50.0400925,          21.,   46.7889481
   1030,   50.0673599,          21.,   52.4844589
   1031,   17.1770935,          21.,   61.5136795
   1032,   46.6494408,          21.,   66.2046814
   1033,   22.1052074,          21.,   71.0997238
   1034,   41.8038635,          21.,   72.9968567
   1035,   28.1828575,          21.,   76.0426025
   1036,   30.6447296,          21.,   76.8130264
   1037,   33.5107384,          21.,   76.5985718
   1038,   35.9339676,          21.,   74.4850311
   1039,   39.7629509,          21.,   74.8180466
   1040,   23.9128456,          21.,   73.0552368
   1041,    45.260479,          21.,   68.6413727
   1042,   19.1435146,          21.,   66.5725861
   1043,    16.606966,          21.,   58.8154831
   1044,   15.9526415,          21.,   53.1909065
   1045,   15.8824272,          21.,   47.4536209
   1046,   17.1885414,          21.,    39.043087
   1047,   19.1558971,          21.,   33.7840691
   1048,   43.7848396,          21.,   28.7325592
   1049,   23.6976719,          21.,   27.0323467
   1050,   37.6279945,          21.,   23.9462585
   1051,   21.9855061,          21.,   29.0968304
   1052,   18.0608215,          21.,   36.3642044
   1053,   49.2940331,          21.,   41.1765022
   1054,   16.1116581,          21.,   44.6017036
   1055,   15.8250637,          21.,   50.3196259
   1056,    16.206522,          21.,   56.0279121
   1057,   48.6924019,          21.,   60.9169769
   1058,   17.9767151,          21.,    64.108963
   1059,   20.5047836,          21.,   68.9114838
   1060,   25.9560127,          21.,    74.734848
   1061,   43.6397972,          21.,   70.9107056
   1062,   47.7911758,          21.,   63.6094627
   1063,   49.3568611,          21.,    58.140377
   1064,   49.8132744,          21.,   55.3227539
   1065,   50.1526871,          21.,   49.6321831
   1066,   49.7709999,          21.,   43.9702225
   1067,   48.6431351,          21.,   38.4496384
   1068,   47.7798462,          21.,   35.7961159
   1069,   45.3624268,          21.,   30.8999939
   1070,   39.9014206,          21.,   25.1751041
   1071,   38.4278908,          21.,   27.3225994
   1072,   29.2505646,          21.,   73.7055588
   1073,   27.3673935,          21.,   72.4830399
   1074,   37.9883919,          21.,   72.7471848
   1075,   25.5790176,          21.,   70.9442749
   1076,    39.831852,          21.,   70.9426956
   1077,    26.976965,          21.,   27.5720348
   1078,   23.9780636,          21.,   69.1934433
   1079,   24.0299911,          21.,   31.1150627
   1080,   41.5061607,          21.,   68.9794998
   1081,   22.7052479,          21.,   33.1463318
   1082,   42.9987068,          21.,   66.8800354
   1083,   43.1580048,          21.,   32.2201118
   1084,   22.5213356,          21.,   67.3223801
   1085,   44.3611374,          21.,   34.2434273
   1086,   21.1884995,          21.,    65.351387
   1087,   44.2910881,          21.,   64.6571274
   1088,   21.4741039,          21.,   35.3257484
   1089,   45.3731155,          21.,   36.5341988
   1090,   20.0984821,          21.,   63.3377953
   1091,   20.4319611,          21.,   37.6162834
   1092,   45.3556976,          21.,   62.3061447
   1093,   46.1257286,          21.,   38.9348259
   1094,   19.5682163,          21.,     61.09235
   1095,     46.17696,          21.,   59.8231087
   1096,   19.6441994,          21.,   40.0624466
   1097,    46.659977,          21.,   41.4290199
   1098,   19.2696419,          21.,   58.6330948
   1099,   46.7590561,          21.,   57.2337112
   1100,   19.0930805,          21.,   42.5710716
   1101,   47.0355186,          21.,   44.0046234
   1102,   18.9781055,          21.,   56.0168648
   1103,   47.1419945,          21.,   54.6037941
   1104,   18.7357635,          21.,   45.1917572
   1105,   47.3483658,          21.,   51.9430046
   1106,   18.5629845,          21.,   47.8785248
   1107,   47.2773933,          21.,   46.6244431
   1108,   18.7200165,          21.,   53.3207169
   1109,   47.3942909,          21.,   49.2757759
   1110,   18.5624676,          21.,    50.603096
   1111,    30.259304,          21.,   23.1705284
   1112,   27.8521633,          21.,   23.9805584
   1113,    32.786644,          21.,   22.9029446
   1114,   25.7019634,          21.,   25.2896709
   1115,   41.9629555,          21.,   26.7987347
   1116,   34.5407333,          21.,   25.7996216
   1117,   27.1182175,          21.,   68.9016647
   1118,   37.9515305,          21.,   68.9892349
   1119,   30.5744743,          21.,   25.6376686
   1120,   28.8751526,          21.,   29.8509731
   1121,   24.2644939,          21.,   65.6617584
   1122,   39.4683342,          21.,   67.0804214
   1123,   40.8387947,          21.,   65.0889587
   1124,   26.7863464,          21.,   33.1728821
   1125,    42.338871,          21.,   35.1894417
   1126,    22.995245,          21.,   63.8894196
   1127,   43.2096786,          21.,   37.1935806
   1128,   42.0297928,          21.,   63.0641098
   1129,   21.7352524,          21.,    62.749115
   1130,   23.7637959,          21.,   36.9400597
   1131,   43.7055893,          21.,    39.305603
   1132,   43.0122528,          21.,   60.9972153
   1133,   22.6931839,          21.,   38.7998962
   1134,   21.9802685,          21.,   58.6512871
   1135,   22.0440807,          21.,   40.9488564
   1136,   44.0562363,          21.,   41.5735207
   1137,   43.7808647,          21.,   58.7634735
   1138,   21.7366829,          21.,   56.0787888
   1139,   21.6134186,          21.,   43.2461586
   1140,   44.3434067,          21.,    43.965271
   1141,   44.2881088,          21.,   56.3836784
   1142,   44.5689354,          21.,   46.4370689
   1143,   44.5913391,          21.,   53.9445686
   1144,   21.4469013,          21.,   53.4764633
   1145,   21.3120117,          21.,   45.6868134
   1146,   44.7098198,          21.,   48.9346962
   1147,   44.7356148,          21.,   51.4473801
   1148,   21.1774864,          21.,   48.2474365
   1149,   21.2321167,          21.,   50.8668022
   1150,   40.1745033,          21.,   28.6882305
   1151,   27.3638897,          21.,   64.8150558
   1152,   38.6932716,          21.,   63.2661514
   1153,   28.3316441,          21.,   36.1577072
   1154,   41.1911659,          21.,   37.5593529
   1155,   39.7603493,          21.,   61.3570061
   1156,   24.5382042,          21.,   61.8899002
   1157,   41.4323616,          21.,   41.5545158
   1158,   40.7257347,          21.,   59.5978622
   1159,   26.2227859,          21.,   38.8305817
   1160,   24.5318241,          21.,   58.8894768
   1161,   41.7058067,          21.,   43.8800354
   1162,   41.5627174,          21.,   57.7380142
   1163,   24.4461765,          21.,    41.607254
   1164,    24.486824,          21.,   56.2420769
   1165,   41.9455452,          21.,   46.2727165
   1166,   24.1666527,          21.,   43.7927437
   1167,   24.1311913,          21.,   53.6443939
   1168,   41.9341393,          21.,   55.6113052
   1169,   23.8670311,          21.,   46.1065674
   1170,   23.8018913,          21.,   51.0779877
   1171,   42.1323891,          21.,   53.3672829
   1172,   42.1204567,          21.,   48.6403198
   1173,   23.7161045,          21.,   48.5511742
   1174,   42.2200165,          21.,   51.0121613
   1175,   34.4459457,          21.,   72.4494934
   1176,   39.8169022,          21.,   31.9585323
   1177,   37.4126778,          21.,   59.4230576
   1178,   26.8620396,          21.,   59.1682243
   1179,   39.2112732,          21.,   43.7804718
   1180,   26.7995777,          21.,   41.6393852
   1181,   39.7752838,          21.,   56.8871956
   1182,   27.6322765,          21.,   56.4825134
   1183,   26.1002903,          21.,   48.7901268
   1184,   39.5555992,          21.,   48.4135056
   1185,   26.2168846,          21.,   51.1596413
   1186,   39.6887512,          21.,   52.8789101
   1187,   29.5085411,          21.,   68.7704086
   1188,   40.9394455,          21.,   36.0396919
   1189,   34.7007332,          21.,     68.91922
   1190,   30.9264431,          21.,   66.1856537
   1191,   39.1172905,          21.,   35.3504791
   1192,   26.9174976,          21.,   61.8150711
   1193,   37.8518257,          21.,   33.3850365
   1194,   38.9509506,          21.,   41.4390945
   1195,   32.2640419,          21.,   68.8226166
   1196,   37.4644775,          21.,   65.2379761
   1197,   30.8650894,          21.,   71.5005112
   1198,   36.9193497,          21.,   29.2947922
   1199,   32.4634933,          21.,   73.8507233
   1200,   29.8351727,          21.,   58.6326981
   1201,   35.4549408,          21.,   63.5692291
   1202,   36.6233826,          21.,   41.4300232
   1203,   35.6482735,          21.,   34.1962585
   1204,   41.7752571,          21.,   30.3696976
   1205,   34.2850456,          21.,   65.5180893
   1206,    32.495266,          21.,     64.19767
   1207,   38.4731674,          21.,   30.4168186
   1208,   33.8004532,          21.,   28.5802727
   1209,   34.4093933,          21.,   38.1263657
   1210,    31.204258,          21.,   61.0132217
   1211,   34.2902794,          21.,   41.1476212
   1212,   35.0429382,          21.,   31.3149853
   1213,   36.4704704,          21.,   61.4890556
   1214,   33.4260788,          21.,    62.227623
   1215,   30.9817219,          21.,   27.7963696
   1216,    33.211422,          21.,   35.0252151
   1217,   31.5110893,          21.,   29.7243919
   1218,   31.7536335,          21.,     57.66819
   1219,   31.4871025,          21.,   38.4802361
   1220,     32.46912,          21.,   43.9770584
   1221,   32.3174782,          21.,   32.1934662
   1222,   31.9007587,          21.,   41.2907066
   1223,   30.6531124,          21.,   35.5962181
   1224,   29.6950054,          21.,   32.7314949
   1225,   34.5554504,          21.,   57.2206192
   1226,   29.7920914,          21.,   44.6156235
   1227,   37.0106888,          21.,   45.9838295
   1228,    30.251791,          21.,   55.3745003
   1229,   36.6805038,          21.,   48.5069923
   1230,   28.9423904,          21.,   38.8007965
   1231,   34.2125816,          21.,   60.1016312
   1232,   32.4381409,          21.,   54.3419609
   1233,   31.4640541,          21.,   46.6273117
   1234,   30.8045063,          21.,     52.34338
   1235,   32.0543785,          21.,   51.0084305
   1236,   36.6140747,          21.,   55.0438194
   1237,   28.7308064,          21.,   47.0539856
   1238,   28.2519054,          21.,   51.0942726
   1239,   34.0245171,          21.,    52.829319
   1240,   29.0057583,          21.,   53.1791153
   1241,   37.3016167,          21.,   52.2721786
   1242,   30.8459568,          21.,   48.1337814
   1243,   37.5935478,          21.,    76.365387
   1244,   35.7007408,          21.,   77.5998535
   1245,   36.5526581,          21.,   26.2779942
   1246,   32.6173592,          21.,   25.4151535
   1247,   28.6381111,          21.,   26.3364983
   1248,   25.3941898,          21.,   29.1225357
   1249,   30.8019142,          21.,   74.7542038
   1250,   36.3091774,          21.,   70.7726288
   1251,   41.1140327,          21.,    33.583416
   1252,   35.7763786,          21.,    28.135746
   1253,   32.4396095,          21.,   27.3184891
   1254,   29.5573635,          21.,   28.0138321
   1255,   27.1048393,          21.,   30.7011929
   1256,   24.9730968,          21.,   34.9972649
   1257,   25.6657143,          21.,   67.1950302
   1258,   28.6628227,          21.,   70.4281311
   1259,   36.1281815,          21.,    67.161026
   1260,   33.1101646,          21.,   70.4627075
   1261,   33.0951729,          21.,   67.3279572
   1262,   28.7017727,          21.,   67.1404724
   1263,   25.4617767,          21.,   64.2270508
   1264,   21.9800339,          21.,   61.0507736
   1265,   30.8850765,          21.,   68.8059845
   1266,   41.2441788,          21.,   39.3864899
   1267,   37.1356583,          21.,   31.7583656
   1268,   26.6214104,          21.,   36.6761856
   1269,   24.5088139,          21.,   39.7677078
   1270,   29.5326118,          21.,   63.8859558
   1271,   29.0016937,          21.,   61.6118927
   1272,    31.052103,          21.,   63.0994148
   1273,   39.5305595,          21.,   55.0216827
   1274,   39.8451309,          21.,   50.6602554
   1275,    39.418499,          21.,   46.1473656
   1276,   29.3761883,          21.,   41.5743484
   1277,   26.7800503,          21.,   44.1478004
   1278,   39.5841484,          21.,   37.3409462
   1279,   26.7693729,          21.,   53.6653824
   1280,    26.388216,          21.,   46.4751167
   1281,   38.5553513,          21.,   57.8505402
   1282,   32.4059296,          21.,   59.6345558
   1283,   28.5802422,          21.,    59.731472
   1284,   36.8198204,          21.,   36.5500145
   1285,   38.5496216,          21.,    38.827282
   1286,   28.2660351,          21.,    49.089016
   1287,   34.6045685,          21.,   43.5706329
   1288,   36.8660393,          21.,   43.6677284
   1289,   36.6087227,          21.,    39.505085
   1290,   35.2368279,          21.,   50.7404442
   1291,   33.0260963,          21.,   49.2205124
   1292,   37.9749527,          21.,     50.56493
   1293,   33.6914444,          21.,   46.7883492
   1294,   35.0569992,          21.,   45.5107498
   1295,   30.2348843,          21.,   49.7392235
   1296,   29.7386932,          21.,   50.9975395
   1297,   29.9750156,          18.,   20.3451309
   1298,    27.095583,          18.,   21.3371277
   1299,   24.4627323,          18.,   22.8705158
   1300,    20.085886,          18.,   27.0924091
   1301,     18.34025,          18.,   29.5927353
   1302,   15.6555128,          18.,   35.0624733
   1303,    13.415472,          18.,   43.9169006
   1304,          13.,          18.,   50.0000496
   1305,   13.4154854,          18.,   56.0831985
   1306,   15.6555481,          18.,   64.9376221
   1307,   18.3403015,          18.,   70.4073486
   1308,    20.085947,          18.,   72.9076691
   1309,   24.4627781,          18.,   77.1295166
   1310,   27.0956306,          18.,   78.6628952
   1311,   29.9750633,          18.,   79.6548843
   1312,          33.,          18.,          20.
   1313,          33.,          18.,          80.
   1314,   36.0249863,          18.,   79.6548691
   1315,   38.9044151,          18.,   78.6628723
   1316,   41.5372658,          18.,   77.1294861
   1317,   45.9141159,          18.,   72.9075928
   1318,   47.6597481,          18.,   70.4072647
   1319,   50.3444862,          18.,   64.9375305
   1320,   52.5845299,          18.,   56.0830994
   1321,          53.,          18.,   49.9999504
   1322,   52.5845146,          18.,   43.9168015
   1323,   50.3444519,          18.,   35.0623779
   1324,   47.6596985,          18.,   29.5926533
   1325,   45.9140511,          18.,   27.0923309
   1326,   41.5372238,          18.,   22.8704834
   1327,   38.9043694,          18.,   21.3371067
   1328,   36.0249367,          18.,   20.3451195
   1329,   22.1232681,          18.,   24.8242664
   1330,   16.8693237,          18.,   32.2643623
   1331,   14.6832371,          18.,   37.9535713
   1332,    13.939785,          18.,   40.9119034
   1333,   13.1035376,          18.,   46.9513474
   1334,   13.1035442,          18.,    53.048748
   1335,    13.939806,          18.,    59.088192
   1336,   14.6832647,          18.,    62.046524
   1337,   16.8693657,          18.,   67.7357254
   1338,   22.1233082,          18.,   75.1757736
   1339,   43.8767319,          18.,   75.1757355
   1340,   49.1306763,          18.,   67.7356415
   1341,    51.316761,          18.,   62.0464287
   1342,    52.060215,          18.,   59.0880966
   1343,   52.8964615,          18.,   53.0486526
   1344,   52.8964539,          18.,    46.951252
   1345,   52.0601959,          18.,    40.911808
   1346,   51.3167343,          18.,    37.953476
   1347,   49.1306343,          18.,   32.2642746
   1348,   43.8766899,          18.,   24.8242264
   1349,   35.2298889,          18.,   23.1984615
   1350,   20.4570503,          18.,   31.3369122
   1351,   46.6730194,          18.,    33.252388
   1352,   16.5533028,          18.,   41.7955284
   1353,   50.0400925,          18.,   46.7889481
   1354,   50.0673599,          18.,   52.4844589
   1355,   17.1770935,          18.,   61.5136795
   1356,   46.6494408,          18.,   66.2046814
   1357,   22.1052074,          18.,   71.0997238
   1358,   41.8038635,          18.,   72.9968567
   1359,   28.1828575,          18.,   76.0426025
   1360,   30.6447296,          18.,   76.8130264
   1361,   33.5107384,          18.,   76.5985718
   1362,   35.9339676,          18.,   74.4850311
   1363,   39.7629509,          18.,   74.8180466
   1364,   23.9128456,          18.,   73.0552368
   1365,    45.260479,          18.,   68.6413727
   1366,   19.1435146,          18.,   66.5725861
   1367,    16.606966,          18.,   58.8154831
   1368,   15.9526415,          18.,   53.1909065
   1369,   15.8824272,          18.,   47.4536209
   1370,   17.1885414,          18.,    39.043087
   1371,   19.1558971,          18.,   33.7840691
   1372,   43.7848396,          18.,   28.7325592
   1373,   23.6976719,          18.,   27.0323467
   1374,   37.6279945,          18.,   23.9462585
   1375,   21.9855061,          18.,   29.0968304
   1376,   18.0608215,          18.,   36.3642044
   1377,   49.2940331,          18.,   41.1765022
   1378,   16.1116581,          18.,   44.6017036
   1379,   15.8250637,          18.,   50.3196259
   1380,    16.206522,          18.,   56.0279121
   1381,   48.6924019,          18.,   60.9169769
   1382,   17.9767151,          18.,    64.108963
   1383,   20.5047836,          18.,   68.9114838
   1384,   25.9560127,          18.,    74.734848
   1385,   43.6397972,          18.,   70.9107056
   1386,   47.7911758,          18.,   63.6094627
   1387,   49.3568611,          18.,    58.140377
   1388,   49.8132744,          18.,   55.3227539
   1389,   50.1526871,          18.,   49.6321831
   1390,   49.7709999,          18.,   43.9702225
   1391,   48.6431351,          18.,   38.4496384
   1392,   47.7798462,          18.,   35.7961159
   1393,   45.3624268,          18.,   30.8999939
   1394,   39.9014206,          18.,   25.1751041
   1395,   38.4278908,          18.,   27.3225994
   1396,   29.2505646,          18.,   73.7055588
   1397,   27.3673935,          18.,   72.4830399
   1398,   37.9883919,          18.,   72.7471848
   1399,   25.5790176,          18.,   70.9442749
   1400,    39.831852,          18.,   70.9426956
   1401,    26.976965,          18.,   27.5720348
   1402,   23.9780636,          18.,   69.1934433
   1403,   24.0299911,          18.,   31.1150627
   1404,   41.5061607,          18.,   68.9794998
   1405,   22.7052479,          18.,   33.1463318
   1406,   42.9987068,          18.,   66.8800354
   1407,   43.1580048,          18.,   32.2201118
   1408,   22.5213356,          18.,   67.3223801
   1409,   44.3611374,          18.,   34.2434273
   1410,   21.1884995,          18.,    65.351387
   1411,   44.2910881,          18.,   64.6571274
   1412,   21.4741039,          18.,   35.3257484
   1413,   45.3731155,          18.,   36.5341988
   1414,   20.0984821,          18.,   63.3377953
   1415,   20.4319611,          18.,   37.6162834
   1416,   45.3556976,          18.,   62.3061447
   1417,   46.1257286,          18.,   38.9348259
   1418,   19.5682163,          18.,     61.09235
   1419,     46.17696,          18.,   59.8231087
   1420,   19.6441994,          18.,   40.0624466
   1421,    46.659977,          18.,   41.4290199
   1422,   19.2696419,          18.,   58.6330948
   1423,   46.7590561,          18.,   57.2337112
   1424,   19.0930805,          18.,   42.5710716
   1425,   47.0355186,          18.,   44.0046234
   1426,   18.9781055,          18.,   56.0168648
   1427,   47.1419945,          18.,   54.6037941
   1428,   18.7357635,          18.,   45.1917572
   1429,   47.3483658,          18.,   51.9430046
   1430,   18.5629845,          18.,   47.8785248
   1431,   47.2773933,          18.,   46.6244431
   1432,   18.7200165,          18.,   53.3207169
   1433,   47.3942909,          18.,   49.2757759
   1434,   18.5624676,          18.,    50.603096
   1435,    30.259304,          18.,   23.1705284
   1436,   27.8521633,          18.,   23.9805584
   1437,    32.786644,          18.,   22.9029446
   1438,   25.7019634,          18.,   25.2896709
   1439,   41.9629555,          18.,   26.7987347
   1440,   34.5407333,          18.,   25.7996216
   1441,   27.1182175,          18.,   68.9016647
   1442,   37.9515305,          18.,   68.9892349
   1443,   30.5744743,          18.,   25.6376686
   1444,   28.8751526,          18.,   29.8509731
   1445,   24.2644939,          18.,   65.6617584
   1446,   39.4683342,          18.,   67.0804214
   1447,   40.8387947,          18.,   65.0889587
   1448,   26.7863464,          18.,   33.1728821
   1449,    42.338871,          18.,   35.1894417
   1450,    22.995245,          18.,   63.8894196
   1451,   43.2096786,          18.,   37.1935806
   1452,   42.0297928,          18.,   63.0641098
   1453,   21.7352524,          18.,    62.749115
   1454,   23.7637959,          18.,   36.9400597
   1455,   43.7055893,          18.,    39.305603
   1456,   43.0122528,          18.,   60.9972153
   1457,   22.6931839,          18.,   38.7998962
   1458,   21.9802685,          18.,   58.6512871
   1459,   22.0440807,          18.,   40.9488564
   1460,   44.0562363,          18.,   41.5735207
   1461,   43.7808647,          18.,   58.7634735
   1462,   21.7366829,          18.,   56.0787888
   1463,   21.6134186,          18.,   43.2461586
   1464,   44.3434067,          18.,    43.965271
   1465,   44.2881088,          18.,   56.3836784
   1466,   44.5689354,          18.,   46.4370689
   1467,   44.5913391,          18.,   53.9445686
   1468,   21.4469013,          18.,   53.4764633
   1469,   21.3120117,          18.,   45.6868134
   1470,   44.7098198,          18.,   48.9346962
   1471,   44.7356148,          18.,   51.4473801
   1472,   21.1774864,          18.,   48.2474365
   1473,   21.2321167,          18.,   50.8668022
   1474,   40.1745033,          18.,   28.6882305
   1475,   27.3638897,          18.,   64.8150558
   1476,   38.6932716,          18.,   63.2661514
   1477,   28.3316441,          18.,   36.1577072
   1478,   41.1911659,          18.,   37.5593529
   1479,   39.7603493,          18.,   61.3570061
   1480,   24.5382042,          18.,   61.8899002
   1481,   41.4323616,          18.,   41.5545158
   1482,   40.7257347,          18.,   59.5978622
   1483,   26.2227859,          18.,   38.8305817
   1484,   24.5318241,          18.,   58.8894768
   1485,   41.7058067,          18.,   43.8800354
   1486,   41.5627174,          18.,   57.7380142
   1487,   24.4461765,          18.,    41.607254
   1488,    24.486824,          18.,   56.2420769
   1489,   41.9455452,          18.,   46.2727165
   1490,   24.1666527,          18.,   43.7927437
   1491,   24.1311913,          18.,   53.6443939
   1492,   41.9341393,          18.,   55.6113052
   1493,   23.8670311,          18.,   46.1065674
   1494,   23.8018913,          18.,   51.0779877
   1495,   42.1323891,          18.,   53.3672829
   1496,   42.1204567,          18.,   48.6403198
   1497,   23.7161045,          18.,   48.5511742
   1498,   42.2200165,          18.,   51.0121613
   1499,   34.4459457,          18.,   72.4494934
   1500,   39.8169022,          18.,   31.9585323
   1501,   37.4126778,          18.,   59.4230576
   1502,   26.8620396,          18.,   59.1682243
   1503,   39.2112732,          18.,   43.7804718
   1504,   26.7995777,          18.,   41.6393852
   1505,   39.7752838,          18.,   56.8871956
   1506,   27.6322765,          18.,   56.4825134
   1507,   26.1002903,          18.,   48.7901268
   1508,   39.5555992,          18.,   48.4135056
   1509,   26.2168846,          18.,   51.1596413
   1510,   39.6887512,          18.,   52.8789101
   1511,   29.5085411,          18.,   68.7704086
   1512,   40.9394455,          18.,   36.0396919
   1513,   34.7007332,          18.,     68.91922
   1514,   30.9264431,          18.,   66.1856537
   1515,   39.1172905,          18.,   35.3504791
   1516,   26.9174976,          18.,   61.8150711
   1517,   37.8518257,          18.,   33.3850365
   1518,   38.9509506,          18.,   41.4390945
   1519,   32.2640419,          18.,   68.8226166
   1520,   37.4644775,          18.,   65.2379761
   1521,   30.8650894,          18.,   71.5005112
   1522,   36.9193497,          18.,   29.2947922
   1523,   32.4634933,          18.,   73.8507233
   1524,   29.8351727,          18.,   58.6326981
   1525,   35.4549408,          18.,   63.5692291
   1526,   36.6233826,          18.,   41.4300232
   1527,   35.6482735,          18.,   34.1962585
   1528,   41.7752571,          18.,   30.3696976
   1529,   34.2850456,          18.,   65.5180893
   1530,    32.495266,          18.,     64.19767
   1531,   38.4731674,          18.,   30.4168186
   1532,   33.8004532,          18.,   28.5802727
   1533,   34.4093933,          18.,   38.1263657
   1534,    31.204258,          18.,   61.0132217
   1535,   34.2902794,          18.,   41.1476212
   1536,   35.0429382,          18.,   31.3149853
   1537,   36.4704704,          18.,   61.4890556
   1538,   33.4260788,          18.,    62.227623
   1539,   30.9817219,          18.,   27.7963696
   1540,    33.211422,          18.,   35.0252151
   1541,   31.5110893,          18.,   29.7243919
   1542,   31.7536335,          18.,     57.66819
   1543,   31.4871025,          18.,   38.4802361
   1544,     32.46912,          18.,   43.9770584
   1545,   32.3174782,          18.,   32.1934662
   1546,   31.9007587,          18.,   41.2907066
   1547,   30.6531124,          18.,   35.5962181
   1548,   29.6950054,          18.,   32.7314949
   1549,   34.5554504,          18.,   57.2206192
   1550,   29.7920914,          18.,   44.6156235
   1551,   37.0106888,          18.,   45.9838295
   1552,    30.251791,          18.,   55.3745003
   1553,   36.6805038,          18.,   48.5069923
   1554,   28.9423904,          18.,   38.8007965
   1555,   34.2125816,          18.,   60.1016312
   1556,   32.4381409,          18.,   54.3419609
   1557,   31.4640541,          18.,   46.6273117
   1558,   30.8045063,          18.,     52.34338
   1559,   32.0543785,          18.,   51.0084305
   1560,   36.6140747,          18.,   55.0438194
   1561,   28.7308064,          18.,   47.0539856
   1562,   28.2519054,          18.,   51.0942726
   1563,   34.0245171,          18.,    52.829319
   1564,   29.0057583,          18.,   53.1791153
   1565,   37.3016167,          18.,   52.2721786
   1566,   30.8459568,          18.,   48.1337814
   1567,   37.5935478,          18.,    76.365387
   1568,   35.7007408,          18.,   77.5998535
   1569,   36.5526581,          18.,   26.2779942
   1570,   32.6173592,          18.,   25.4151535
   1571,   28.6381111,          18.,   26.3364983
   1572,   25.3941898,          18.,   29.1225357
   1573,   30.8019142,          18.,   74.7542038
   1574,   36.3091774,          18.,   70.7726288
   1575,   41.1140327,          18.,    33.583416
   1576,   35.7763786,          18.,    28.135746
   1577,   32.4396095,          18.,   27.3184891
   1578,   29.5573635,          18.,   28.0138321
   1579,   27.1048393,          18.,   30.7011929
   1580,   24.9730968,          18.,   34.9972649
   1581,   25.6657143,          18.,   67.1950302
   1582,   28.6628227,          18.,   70.4281311
   1583,   36.1281815,          18.,    67.161026
   1584,   33.1101646,          18.,   70.4627075
   1585,   33.0951729,          18.,   67.3279572
   1586,   28.7017727,          18.,   67.1404724
   1587,   25.4617767,          18.,   64.2270508
   1588,   21.9800339,          18.,   61.0507736
   1589,   30.8850765,          18.,   68.8059845
   1590,   41.2441788,          18.,   39.3864899
   1591,   37.1356583,          18.,   31.7583656
   1592,   26.6214104,          18.,   36.6761856
   1593,   24.5088139,          18.,   39.7677078
   1594,   29.5326118,          18.,   63.8859558
   1595,   29.0016937,          18.,   61.6118927
   1596,    31.052103,          18.,   63.0994148
   1597,   39.5305595,          18.,   55.0216827
   1598,   39.8451309,          18.,   50.6602554
   1599,    39.418499,          18.,   46.1473656
   1600,   29.3761883,          18.,   41.5743484
   1601,   26.7800503,          18.,   44.1478004
   1602,   39.5841484,          18.,   37.3409462
   1603,   26.7693729,          18.,   53.6653824
   1604,    26.388216,          18.,   46.4751167
   1605,   38.5553513,          18.,   57.8505402
   1606,   32.4059296,          18.,   59.6345558
   1607,   28.5802422,          18.,    59.731472
   1608,   36.8198204,          18.,   36.5500145
   1609,   38.5496216,          18.,    38.827282
   1610,   28.2660351,          18.,    49.089016
   1611,   34.6045685,          18.,   43.5706329
   1612,   36.8660393,          18.,   43.6677284
   1613,   36.6087227,          18.,    39.505085
   1614,   35.2368279,          18.,   50.7404442
   1615,   33.0260963,          18.,   49.2205124
   1616,   37.9749527,          18.,     50.56493
   1617,   33.6914444,          18.,   46.7883492
   1618,   35.0569992,          18.,   45.5107498
   1619,   30.2348843,          18.,   49.7392235
   1620,   29.7386932,          18.,   50.9975395
   1621,   29.9750156,          15.,   20.3451309
   1622,    27.095583,          15.,   21.3371277
   1623,   24.4627323,          15.,   22.8705158
   1624,    20.085886,          15.,   27.0924091
   1625,     18.34025,          15.,   29.5927353
   1626,   15.6555128,          15.,   35.0624733
   1627,    13.415472,          15.,   43.9169006
   1628,          13.,          15.,   50.0000496
   1629,   13.4154854,          15.,   56.0831985
   1630,   15.6555481,          15.,   64.9376221
   1631,   18.3403015,          15.,   70.4073486
   1632,    20.085947,          15.,   72.9076691
   1633,   24.4627781,          15.,   77.1295166
   1634,   27.0956306,          15.,   78.6628952
   1635,   29.9750633,          15.,   79.6548843
   1636,          33.,          15.,          20.
   1637,          33.,          15.,          80.
   1638,   36.0249863,          15.,   79.6548691
   1639,   38.9044151,          15.,   78.6628723
   1640,   41.5372658,          15.,   77.1294861
   1641,   45.9141159,          15.,   72.9075928
   1642,   47.6597481,          15.,   70.4072647
   1643,   50.3444862,          15.,   64.9375305
   1644,   52.5845299,          15.,   56.0830994
   1645,          53.,          15.,   49.9999504
   1646,   52.5845146,          15.,   43.9168015
   1647,   50.3444519,          15.,   35.0623779
   1648,   47.6596985,          15.,   29.5926533
   1649,   45.9140511,          15.,   27.0923309
   1650,   41.5372238,          15.,   22.8704834
   1651,   38.9043694,          15.,   21.3371067
   1652,   36.0249367,          15.,   20.3451195
   1653,   22.1232681,          15.,   24.8242664
   1654,   16.8693237,          15.,   32.2643623
   1655,   14.6832371,          15.,   37.9535713
   1656,    13.939785,          15.,   40.9119034
   1657,   13.1035376,          15.,   46.9513474
   1658,   13.1035442,          15.,    53.048748
   1659,    13.939806,          15.,    59.088192
   1660,   14.6832647,          15.,    62.046524
   1661,   16.8693657,          15.,   67.7357254
   1662,   22.1233082,          15.,   75.1757736
   1663,   43.8767319,          15.,   75.1757355
   1664,   49.1306763,          15.,   67.7356415
   1665,    51.316761,          15.,   62.0464287
   1666,    52.060215,          15.,   59.0880966
   1667,   52.8964615,          15.,   53.0486526
   1668,   52.8964539,          15.,    46.951252
   1669,   52.0601959,          15.,    40.911808
   1670,   51.3167343,          15.,    37.953476
   1671,   49.1306343,          15.,   32.2642746
   1672,   43.8766899,          15.,   24.8242264
   1673,   35.2298889,          15.,   23.1984615
   1674,   20.4570503,          15.,   31.3369122
   1675,   46.6730194,          15.,    33.252388
   1676,   16.5533028,          15.,   41.7955284
   1677,   50.0400925,          15.,   46.7889481
   1678,   50.0673599,          15.,   52.4844589
   1679,   17.1770935,          15.,   61.5136795
   1680,   46.6494408,          15.,   66.2046814
   1681,   22.1052074,          15.,   71.0997238
   1682,   41.8038635,          15.,   72.9968567
   1683,   28.1828575,          15.,   76.0426025
   1684,   30.6447296,          15.,   76.8130264
   1685,   33.5107384,          15.,   76.5985718
   1686,   35.9339676,          15.,   74.4850311
   1687,   39.7629509,          15.,   74.8180466
   1688,   23.9128456,          15.,   73.0552368
   1689,    45.260479,          15.,   68.6413727
   1690,   19.1435146,          15.,   66.5725861
   1691,    16.606966,          15.,   58.8154831
   1692,   15.9526415,          15.,   53.1909065
   1693,   15.8824272,          15.,   47.4536209
   1694,   17.1885414,          15.,    39.043087
   1695,   19.1558971,          15.,   33.7840691
   1696,   43.7848396,          15.,   28.7325592
   1697,   23.6976719,          15.,   27.0323467
   1698,   37.6279945,          15.,   23.9462585
   1699,   21.9855061,          15.,   29.0968304
   1700,   18.0608215,          15.,   36.3642044
   1701,   49.2940331,          15.,   41.1765022
   1702,   16.1116581,          15.,   44.6017036
   1703,   15.8250637,          15.,   50.3196259
   1704,    16.206522,          15.,   56.0279121
   1705,   48.6924019,          15.,   60.9169769
   1706,   17.9767151,          15.,    64.108963
   1707,   20.5047836,          15.,   68.9114838
   1708,   25.9560127,          15.,    74.734848
   1709,   43.6397972,          15.,   70.9107056
   1710,   47.7911758,          15.,   63.6094627
   1711,   49.3568611,          15.,    58.140377
   1712,   49.8132744,          15.,   55.3227539
   1713,   50.1526871,          15.,   49.6321831
   1714,   49.7709999,          15.,   43.9702225
   1715,   48.6431351,          15.,   38.4496384
   1716,   47.7798462,          15.,   35.7961159
   1717,   45.3624268,          15.,   30.8999939
   1718,   39.9014206,          15.,   25.1751041
   1719,   38.4278908,          15.,   27.3225994
   1720,   29.2505646,          15.,   73.7055588
   1721,   27.3673935,          15.,   72.4830399
   1722,   37.9883919,          15.,   72.7471848
   1723,   25.5790176,          15.,   70.9442749
   1724,    39.831852,          15.,   70.9426956
   1725,    26.976965,          15.,   27.5720348
   1726,   23.9780636,          15.,   69.1934433
   1727,   24.0299911,          15.,   31.1150627
   1728,   41.5061607,          15.,   68.9794998
   1729,   22.7052479,          15.,   33.1463318
   1730,   42.9987068,          15.,   66.8800354
   1731,   43.1580048,          15.,   32.2201118
   1732,   22.5213356,          15.,   67.3223801
   1733,   44.3611374,          15.,   34.2434273
   1734,   21.1884995,          15.,    65.351387
   1735,   44.2910881,          15.,   64.6571274
   1736,   21.4741039,          15.,   35.3257484
   1737,   45.3731155,          15.,   36.5341988
   1738,   20.0984821,          15.,   63.3377953
   1739,   20.4319611,          15.,   37.6162834
   1740,   45.3556976,          15.,   62.3061447
   1741,   46.1257286,          15.,   38.9348259
   1742,   19.5682163,          15.,     61.09235
   1743,     46.17696,          15.,   59.8231087
   1744,   19.6441994,          15.,   40.0624466
   1745,    46.659977,          15.,   41.4290199
   1746,   19.2696419,          15.,   58.6330948
   1747,   46.7590561,          15.,   57.2337112
   1748,   19.0930805,          15.,   42.5710716
   1749,   47.0355186,          15.,   44.0046234
   1750,   18.9781055,          15.,   56.0168648
   1751,   47.1419945,          15.,   54.6037941
   1752,   18.7357635,          15.,   45.1917572
   1753,   47.3483658,          15.,   51.9430046
   1754,   18.5629845,          15.,   47.8785248
   1755,   47.2773933,          15.,   46.6244431
   1756,   18.7200165,          15.,   53.3207169
   1757,   47.3942909,          15.,   49.2757759
   1758,   18.5624676,          15.,    50.603096
   1759,    30.259304,          15.,   23.1705284
   1760,   27.8521633,          15.,   23.9805584
   1761,    32.786644,          15.,   22.9029446
   1762,   25.7019634,          15.,   25.2896709
   1763,   41.9629555,          15.,   26.7987347
   1764,   34.5407333,          15.,   25.7996216
   1765,   27.1182175,          15.,   68.9016647
   1766,   37.9515305,          15.,   68.9892349
   1767,   30.5744743,          15.,   25.6376686
   1768,   28.8751526,          15.,   29.8509731
   1769,   24.2644939,          15.,   65.6617584
   1770,   39.4683342,          15.,   67.0804214
   1771,   40.8387947,          15.,   65.0889587
   1772,   26.7863464,          15.,   33.1728821
   1773,    42.338871,          15.,   35.1894417
   1774,    22.995245,          15.,   63.8894196
   1775,   43.2096786,          15.,   37.1935806
   1776,   42.0297928,          15.,   63.0641098
   1777,   21.7352524,          15.,    62.749115
   1778,   23.7637959,          15.,   36.9400597
   1779,   43.7055893,          15.,    39.305603
   1780,   43.0122528,          15.,   60.9972153
   1781,   22.6931839,          15.,   38.7998962
   1782,   21.9802685,          15.,   58.6512871
   1783,   22.0440807,          15.,   40.9488564
   1784,   44.0562363,          15.,   41.5735207
   1785,   43.7808647,          15.,   58.7634735
   1786,   21.7366829,          15.,   56.0787888
   1787,   21.6134186,          15.,   43.2461586
   1788,   44.3434067,          15.,    43.965271
   1789,   44.2881088,          15.,   56.3836784
   1790,   44.5689354,          15.,   46.4370689
   1791,   44.5913391,          15.,   53.9445686
   1792,   21.4469013,          15.,   53.4764633
   1793,   21.3120117,          15.,   45.6868134
   1794,   44.7098198,          15.,   48.9346962
   1795,   44.7356148,          15.,   51.4473801
   1796,   21.1774864,          15.,   48.2474365
   1797,   21.2321167,          15.,   50.8668022
   1798,   40.1745033,          15.,   28.6882305
   1799,   27.3638897,          15.,   64.8150558
   1800,   38.6932716,          15.,   63.2661514
   1801,   28.3316441,          15.,   36.1577072
   1802,   41.1911659,          15.,   37.5593529
   1803,   39.7603493,          15.,   61.3570061
   1804,   24.5382042,          15.,   61.8899002
   1805,   41.4323616,          15.,   41.5545158
   1806,   40.7257347,          15.,   59.5978622
   1807,   26.2227859,          15.,   38.8305817
   1808,   24.5318241,          15.,   58.8894768
   1809,   41.7058067,          15.,   43.8800354
   1810,   41.5627174,          15.,   57.7380142
   1811,   24.4461765,          15.,    41.607254
   1812,    24.486824,          15.,   56.2420769
   1813,   41.9455452,          15.,   46.2727165
   1814,   24.1666527,          15.,   43.7927437
   1815,   24.1311913,          15.,   53.6443939
   1816,   41.9341393,          15.,   55.6113052
   1817,   23.8670311,          15.,   46.1065674
   1818,   23.8018913,          15.,   51.0779877
   1819,   42.1323891,          15.,   53.3672829
   1820,   42.1204567,          15.,   48.6403198
   1821,   23.7161045,          15.,   48.5511742
   1822,   42.2200165,          15.,   51.0121613
   1823,   34.4459457,          15.,   72.4494934
   1824,   39.8169022,          15.,   31.9585323
   1825,   37.4126778,          15.,   59.4230576
   1826,   26.8620396,          15.,   59.1682243
   1827,   39.2112732,          15.,   43.7804718
   1828,   26.7995777,          15.,   41.6393852
   1829,   39.7752838,          15.,   56.8871956
   1830,   27.6322765,          15.,   56.4825134
   1831,   26.1002903,          15.,   48.7901268
   1832,   39.5555992,          15.,   48.4135056
   1833,   26.2168846,          15.,   51.1596413
   1834,   39.6887512,          15.,   52.8789101
   1835,   29.5085411,          15.,   68.7704086
   1836,   40.9394455,          15.,   36.0396919
   1837,   34.7007332,          15.,     68.91922
   1838,   30.9264431,          15.,   66.1856537
   1839,   39.1172905,          15.,   35.3504791
   1840,   26.9174976,          15.,   61.8150711
   1841,   37.8518257,          15.,   33.3850365
   1842,   38.9509506,          15.,   41.4390945
   1843,   32.2640419,          15.,   68.8226166
   1844,   37.4644775,          15.,   65.2379761
   1845,   30.8650894,          15.,   71.5005112
   1846,   36.9193497,          15.,   29.2947922
   1847,   32.4634933,          15.,   73.8507233
   1848,   29.8351727,          15.,   58.6326981
   1849,   35.4549408,          15.,   63.5692291
   1850,   36.6233826,          15.,   41.4300232
   1851,   35.6482735,          15.,   34.1962585
   1852,   41.7752571,          15.,   30.3696976
   1853,   34.2850456,          15.,   65.5180893
   1854,    32.495266,          15.,     64.19767
   1855,   38.4731674,          15.,   30.4168186
   1856,   33.8004532,          15.,   28.5802727
   1857,   34.4093933,          15.,   38.1263657
   1858,    31.204258,          15.,   61.0132217
   1859,   34.2902794,          15.,   41.1476212
   1860,   35.0429382,          15.,   31.3149853
   1861,   36.4704704,          15.,   61.4890556
   1862,   33.4260788,          15.,    62.227623
   1863,   30.9817219,          15.,   27.7963696
   1864,    33.211422,          15.,   35.0252151
   1865,   31.5110893,          15.,   29.7243919
   1866,   31.7536335,          15.,     57.66819
   1867,   31.4871025,          15.,   38.4802361
   1868,     32.46912,          15.,   43.9770584
   1869,   32.3174782,          15.,   32.1934662
   1870,   31.9007587,          15.,   41.2907066
   1871,   30.6531124,          15.,   35.5962181
   1872,   29.6950054,          15.,   32.7314949
   1873,   34.5554504,          15.,   57.2206192
   1874,   29.7920914,          15.,   44.6156235
   1875,   37.0106888,          15.,   45.9838295
   1876,    30.251791,          15.,   55.3745003
   1877,   36.6805038,          15.,   48.5069923
   1878,   28.9423904,          15.,   38.8007965
   1879,   34.2125816,          15.,   60.1016312
   1880,   32.4381409,          15.,   54.3419609
   1881,   31.4640541,          15.,   46.6273117
   1882,   30.8045063,          15.,     52.34338
   1883,   32.0543785,          15.,   51.0084305
   1884,   36.6140747,          15.,   55.0438194
   1885,   28.7308064,          15.,   47.0539856
   1886,   28.2519054,          15.,   51.0942726
   1887,   34.0245171,          15.,    52.829319
   1888,   29.0057583,          15.,   53.1791153
   1889,   37.3016167,          15.,   52.2721786
   1890,   30.8459568,          15.,   48.1337814
   1891,   37.5935478,          15.,    76.365387
   1892,   35.7007408,          15.,   77.5998535
   1893,   36.5526581,          15.,   26.2779942
   1894,   32.6173592,          15.,   25.4151535
   1895,   28.6381111,          15.,   26.3364983
   1896,   25.3941898,          15.,   29.1225357
   1897,   30.8019142,          15.,   74.7542038
   1898,   36.3091774,          15.,   70.7726288
   1899,   41.1140327,          15.,    33.583416
   1900,   35.7763786,          15.,    28.135746
   1901,   32.4396095,          15.,   27.3184891
   1902,   29.5573635,          15.,   28.0138321
   1903,   27.1048393,          15.,   30.7011929
   1904,   24.9730968,          15.,   34.9972649
   1905,   25.6657143,          15.,   67.1950302
   1906,   28.6628227,          15.,   70.4281311
   1907,   36.1281815,          15.,    67.161026
   1908,   33.1101646,          15.,   70.4627075
   1909,   33.0951729,          15.,   67.3279572
   1910,   28.7017727,          15.,   67.1404724
   1911,   25.4617767,          15.,   64.2270508
   1912,   21.9800339,          15.,   61.0507736
   1913,   30.8850765,          15.,   68.8059845
   1914,   41.2441788,          15.,   39.3864899
   1915,   37.1356583,          15.,   31.7583656
   1916,   26.6214104,          15.,   36.6761856
   1917,   24.5088139,          15.,   39.7677078
   1918,   29.5326118,          15.,   63.8859558
   1919,   29.0016937,          15.,   61.6118927
   1920,    31.052103,          15.,   63.0994148
   1921,   39.5305595,          15.,   55.0216827
   1922,   39.8451309,          15.,   50.6602554
   1923,    39.418499,          15.,   46.1473656
   1924,   29.3761883,          15.,   41.5743484
   1925,   26.7800503,          15.,   44.1478004
   1926,   39.5841484,          15.,   37.3409462
   1927,   26.7693729,          15.,   53.6653824
   1928,    26.388216,          15.,   46.4751167
   1929,   38.5553513,          15.,   57.8505402
   1930,   32.4059296,          15.,   59.6345558
   1931,   28.5802422,          15.,    59.731472
   1932,   36.8198204,          15.,   36.5500145
   1933,   38.5496216,          15.,    38.827282
   1934,   28.2660351,          15.,    49.089016
   1935,   34.6045685,          15.,   43.5706329
   1936,   36.8660393,          15.,   43.6677284
   1937,   36.6087227,          15.,    39.505085
   1938,   35.2368279,          15.,   50.7404442
   1939,   33.0260963,          15.,   49.2205124
   1940,   37.9749527,          15.,     50.56493
   1941,   33.6914444,          15.,   46.7883492
   1942,   35.0569992,          15.,   45.5107498
   1943,   30.2348843,          15.,   49.7392235
   1944,   29.7386932,          15.,   50.9975395
   1945,   29.9750156,          12.,   20.3451309
   1946,    27.095583,          12.,   21.3371277
   1947,   24.4627323,          12.,   22.8705158
   1948,    20.085886,          12.,   27.0924091
   1949,     18.34025,          12.,   29.5927353
   1950,   15.6555128,          12.,   35.0624733
   1951,    13.415472,          12.,   43.9169006
   1952,          13.,          12.,   50.0000496
   1953,   13.4154854,          12.,   56.0831985
   1954,   15.6555481,          12.,   64.9376221
   1955,   18.3403015,          12.,   70.4073486
   1956,    20.085947,          12.,   72.9076691
   1957,   24.4627781,          12.,   77.1295166
   1958,   27.0956306,          12.,   78.6628952
   1959,   29.9750633,          12.,   79.6548843
   1960,          33.,          12.,          20.
   1961,          33.,          12.,          80.
   1962,   36.0249863,          12.,   79.6548691
   1963,   38.9044151,          12.,   78.6628723
   1964,   41.5372658,          12.,   77.1294861
   1965,   45.9141159,          12.,   72.9075928
   1966,   47.6597481,          12.,   70.4072647
   1967,   50.3444862,          12.,   64.9375305
   1968,   52.5845299,          12.,   56.0830994
   1969,          53.,          12.,   49.9999504
   1970,   52.5845146,          12.,   43.9168015
   1971,   50.3444519,          12.,   35.0623779
   1972,   47.6596985,          12.,   29.5926533
   1973,   45.9140511,          12.,   27.0923309
   1974,   41.5372238,          12.,   22.8704834
   1975,   38.9043694,          12.,   21.3371067
   1976,   36.0249367,          12.,   20.3451195
   1977,   22.1232681,          12.,   24.8242664
   1978,   16.8693237,          12.,   32.2643623
   1979,   14.6832371,          12.,   37.9535713
   1980,    13.939785,          12.,   40.9119034
   1981,   13.1035376,          12.,   46.9513474
   1982,   13.1035442,          12.,    53.048748
   1983,    13.939806,          12.,    59.088192
   1984,   14.6832647,          12.,    62.046524
   1985,   16.8693657,          12.,   67.7357254
   1986,   22.1233082,          12.,   75.1757736
   1987,   43.8767319,          12.,   75.1757355
   1988,   49.1306763,          12.,   67.7356415
   1989,    51.316761,          12.,   62.0464287
   1990,    52.060215,          12.,   59.0880966
   1991,   52.8964615,          12.,   53.0486526
   1992,   52.8964539,          12.,    46.951252
   1993,   52.0601959,          12.,    40.911808
   1994,   51.3167343,          12.,    37.953476
   1995,   49.1306343,          12.,   32.2642746
   1996,   43.8766899,          12.,   24.8242264
   1997,   35.2298889,          12.,   23.1984615
   1998,   20.4570503,          12.,   31.3369122
   1999,   46.6730194,          12.,    33.252388
   2000,   16.5533028,          12.,   41.7955284
   2001,   50.0400925,          12.,   46.7889481
   2002,   50.0673599,          12.,   52.4844589
   2003,   17.1770935,          12.,   61.5136795
   2004,   46.6494408,          12.,   66.2046814
   2005,   22.1052074,          12.,   71.0997238
   2006,   41.8038635,          12.,   72.9968567
   2007,   28.1828575,          12.,   76.0426025
   2008,   30.6447296,          12.,   76.8130264
   2009,   33.5107384,          12.,   76.5985718
   2010,   35.9339676,          12.,   74.4850311
   2011,   39.7629509,          12.,   74.8180466
   2012,   23.9128456,          12.,   73.0552368
   2013,    45.260479,          12.,   68.6413727
   2014,   19.1435146,          12.,   66.5725861
   2015,    16.606966,          12.,   58.8154831
   2016,   15.9526415,          12.,   53.1909065
   2017,   15.8824272,          12.,   47.4536209
   2018,   17.1885414,          12.,    39.043087
   2019,   19.1558971,          12.,   33.7840691
   2020,   43.7848396,          12.,   28.7325592
   2021,   23.6976719,          12.,   27.0323467
   2022,   37.6279945,          12.,   23.9462585
   2023,   21.9855061,          12.,   29.0968304
   2024,   18.0608215,          12.,   36.3642044
   2025,   49.2940331,          12.,   41.1765022
   2026,   16.1116581,          12.,   44.6017036
   2027,   15.8250637,          12.,   50.3196259
   2028,    16.206522,          12.,   56.0279121
   2029,   48.6924019,          12.,   60.9169769
   2030,   17.9767151,          12.,    64.108963
   2031,   20.5047836,          12.,   68.9114838
   2032,   25.9560127,          12.,    74.734848
   2033,   43.6397972,          12.,   70.9107056
   2034,   47.7911758,          12.,   63.6094627
   2035,   49.3568611,          12.,    58.140377
   2036,   49.8132744,          12.,   55.3227539
   2037,   50.1526871,          12.,   49.6321831
   2038,   49.7709999,          12.,   43.9702225
   2039,   48.6431351,          12.,   38.4496384
   2040,   47.7798462,          12.,   35.7961159
   2041,   45.3624268,          12.,   30.8999939
   2042,   39.9014206,          12.,   25.1751041
   2043,   38.4278908,          12.,   27.3225994
   2044,   29.2505646,          12.,   73.7055588
   2045,   27.3673935,          12.,   72.4830399
   2046,   37.9883919,          12.,   72.7471848
   2047,   25.5790176,          12.,   70.9442749
   2048,    39.831852,          12.,   70.9426956
   2049,    26.976965,          12.,   27.5720348
   2050,   23.9780636,          12.,   69.1934433
   2051,   24.0299911,          12.,   31.1150627
   2052,   41.5061607,          12.,   68.9794998
   2053,   22.7052479,          12.,   33.1463318
   2054,   42.9987068,          12.,   66.8800354
   2055,   43.1580048,          12.,   32.2201118
   2056,   22.5213356,          12.,   67.3223801
   2057,   44.3611374,          12.,   34.2434273
   2058,   21.1884995,          12.,    65.351387
   2059,   44.2910881,          12.,   64.6571274
   2060,   21.4741039,          12.,   35.3257484
   2061,   45.3731155,          12.,   36.5341988
   2062,   20.0984821,          12.,   63.3377953
   2063,   20.4319611,          12.,   37.6162834
   2064,   45.3556976,          12.,   62.3061447
   2065,   46.1257286,          12.,   38.9348259
   2066,   19.5682163,          12.,     61.09235
   2067,     46.17696,          12.,   59.8231087
   2068,   19.6441994,          12.,   40.0624466
   2069,    46.659977,          12.,   41.4290199
   2070,   19.2696419,          12.,   58.6330948
   2071,   46.7590561,          12.,   57.2337112
   2072,   19.0930805,          12.,   42.5710716
   2073,   47.0355186,          12.,   44.0046234
   2074,   18.9781055,          12.,   56.0168648
   2075,   47.1419945,          12.,   54.6037941
   2076,   18.7357635,          12.,   45.1917572
   2077,   47.3483658,          12.,   51.9430046
   2078,   18.5629845,          12.,   47.8785248
   2079,   47.2773933,          12.,   46.6244431
   2080,   18.7200165,          12.,   53.3207169
   2081,   47.3942909,          12.,   49.2757759
   2082,   18.5624676,          12.,    50.603096
   2083,    30.259304,          12.,   23.1705284
   2084,   27.8521633,          12.,   23.9805584
   2085,    32.786644,          12.,   22.9029446
   2086,   25.7019634,          12.,   25.2896709
   2087,   41.9629555,          12.,   26.7987347
   2088,   34.5407333,          12.,   25.7996216
   2089,   27.1182175,          12.,   68.9016647
   2090,   37.9515305,          12.,   68.9892349
   2091,   30.5744743,          12.,   25.6376686
   2092,   28.8751526,          12.,   29.8509731
   2093,   24.2644939,          12.,   65.6617584
   2094,   39.4683342,          12.,   67.0804214
   2095,   40.8387947,          12.,   65.0889587
   2096,   26.7863464,          12.,   33.1728821
   2097,    42.338871,          12.,   35.1894417
   2098,    22.995245,          12.,   63.8894196
   2099,   43.2096786,          12.,   37.1935806
   2100,   42.0297928,          12.,   63.0641098
   2101,   21.7352524,          12.,    62.749115
   2102,   23.7637959,          12.,   36.9400597
   2103,   43.7055893,          12.,    39.305603
   2104,   43.0122528,          12.,   60.9972153
   2105,   22.6931839,          12.,   38.7998962
   2106,   21.9802685,          12.,   58.6512871
   2107,   22.0440807,          12.,   40.9488564
   2108,   44.0562363,          12.,   41.5735207
   2109,   43.7808647,          12.,   58.7634735
   2110,   21.7366829,          12.,   56.0787888
   2111,   21.6134186,          12.,   43.2461586
   2112,   44.3434067,          12.,    43.965271
   2113,   44.2881088,          12.,   56.3836784
   2114,   44.5689354,          12.,   46.4370689
   2115,   44.5913391,          12.,   53.9445686
   2116,   21.4469013,          12.,   53.4764633
   2117,   21.3120117,          12.,   45.6868134
   2118,   44.7098198,          12.,   48.9346962
   2119,   44.7356148,          12.,   51.4473801
   2120,   21.1774864,          12.,   48.2474365
   2121,   21.2321167,          12.,   50.8668022
   2122,   40.1745033,          12.,   28.6882305
   2123,   27.3638897,          12.,   64.8150558
   2124,   38.6932716,          12.,   63.2661514
   2125,   28.3316441,          12.,   36.1577072
   2126,   41.1911659,          12.,   37.5593529
   2127,   39.7603493,          12.,   61.3570061
   2128,   24.5382042,          12.,   61.8899002
   2129,   41.4323616,          12.,   41.5545158
   2130,   40.7257347,          12.,   59.5978622
   2131,   26.2227859,          12.,   38.8305817
   2132,   24.5318241,          12.,   58.8894768
   2133,   41.7058067,          12.,   43.8800354
   2134,   41.5627174,          12.,   57.7380142
   2135,   24.4461765,          12.,    41.607254
   2136,    24.486824,          12.,   56.2420769
   2137,   41.9455452,          12.,   46.2727165
   2138,   24.1666527,          12.,   43.7927437
   2139,   24.1311913,          12.,   53.6443939
   2140,   41.9341393,          12.,   55.6113052
   2141,   23.8670311,          12.,   46.1065674
   2142,   23.8018913,          12.,   51.0779877
   2143,   42.1323891,          12.,   53.3672829
   2144,   42.1204567,          12.,   48.6403198
   2145,   23.7161045,          12.,   48.5511742
   2146,   42.2200165,          12.,   51.0121613
   2147,   34.4459457,          12.,   72.4494934
   2148,   39.8169022,          12.,   31.9585323
   2149,   37.4126778,          12.,   59.4230576
   2150,   26.8620396,          12.,   59.1682243
   2151,   39.2112732,          12.,   43.7804718
   2152,   26.7995777,          12.,   41.6393852
   2153,   39.7752838,          12.,   56.8871956
   2154,   27.6322765,          12.,   56.4825134
   2155,   26.1002903,          12.,   48.7901268
   2156,   39.5555992,          12.,   48.4135056
   2157,   26.2168846,          12.,   51.1596413
   2158,   39.6887512,          12.,   52.8789101
   2159,   29.5085411,          12.,   68.7704086
   2160,   40.9394455,          12.,   36.0396919
   2161,   34.7007332,          12.,     68.91922
   2162,   30.9264431,          12.,   66.1856537
   2163,   39.1172905,          12.,   35.3504791
   2164,   26.9174976,          12.,   61.8150711
   2165,   37.8518257,          12.,   33.3850365
   2166,   38.9509506,          12.,   41.4390945
   2167,   32.2640419,          12.,   68.8226166
   2168,   37.4644775,          12.,   65.2379761
   2169,   30.8650894,          12.,   71.5005112
   2170,   36.9193497,          12.,   29.2947922
   2171,   32.4634933,          12.,   73.8507233
   2172,   29.8351727,          12.,   58.6326981
   2173,   35.4549408,          12.,   63.5692291
   2174,   36.6233826,          12.,   41.4300232
   2175,   35.6482735,          12.,   34.1962585
   2176,   41.7752571,          12.,   30.3696976
   2177,   34.2850456,          12.,   65.5180893
   2178,    32.495266,          12.,     64.19767
   2179,   38.4731674,          12.,   30.4168186
   2180,   33.8004532,          12.,   28.5802727
   2181,   34.4093933,          12.,   38.1263657
   2182,    31.204258,          12.,   61.0132217
   2183,   34.2902794,          12.,   41.1476212
   2184,   35.0429382,          12.,   31.3149853
   2185,   36.4704704,          12.,   61.4890556
   2186,   33.4260788,          12.,    62.227623
   2187,   30.9817219,          12.,   27.7963696
   2188,    33.211422,          12.,   35.0252151
   2189,   31.5110893,          12.,   29.7243919
   2190,   31.7536335,          12.,     57.66819
   2191,   31.4871025,          12.,   38.4802361
   2192,     32.46912,          12.,   43.9770584
   2193,   32.3174782,          12.,   32.1934662
   2194,   31.9007587,          12.,   41.2907066
   2195,   30.6531124,          12.,   35.5962181
   2196,   29.6950054,          12.,   32.7314949
   2197,   34.5554504,          12.,   57.2206192
   2198,   29.7920914,          12.,   44.6156235
   2199,   37.0106888,          12.,   45.9838295
   2200,    30.251791,          12.,   55.3745003
   2201,   36.6805038,          12.,   48.5069923
   2202,   28.9423904,          12.,   38.8007965
   2203,   34.2125816,          12.,   60.1016312
   2204,   32.4381409,          12.,   54.3419609
   2205,   31.4640541,          12.,   46.6273117
   2206,   30.8045063,          12.,     52.34338
   2207,   32.0543785,          12.,   51.0084305
   2208,   36.6140747,          12.,   55.0438194
   2209,   28.7308064,          12.,   47.0539856
   2210,   28.2519054,          12.,   51.0942726
   2211,   34.0245171,          12.,    52.829319
   2212,   29.0057583,          12.,   53.1791153
   2213,   37.3016167,          12.,   52.2721786
   2214,   30.8459568,          12.,   48.1337814
   2215,   37.5935478,          12.,    76.365387
   2216,   35.7007408,          12.,   77.5998535
   2217,   36.5526581,          12.,   26.2779942
   2218,   32.6173592,          12.,   25.4151535
   2219,   28.6381111,          12.,   26.3364983
   2220,   25.3941898,          12.,   29.1225357
   2221,   30.8019142,          12.,   74.7542038
   2222,   36.3091774,          12.,   70.7726288
   2223,   41.1140327,          12.,    33.583416
   2224,   35.7763786,          12.,    28.135746
   2225,   32.4396095,          12.,   27.3184891
   2226,   29.5573635,          12.,   28.0138321
   2227,   27.1048393,          12.,   30.7011929
   2228,   24.9730968,          12.,   34.9972649
   2229,   25.6657143,          12.,   67.1950302
   2230,   28.6628227,          12.,   70.4281311
   2231,   36.1281815,          12.,    67.161026
   2232,   33.1101646,          12.,   70.4627075
   2233,   33.0951729,          12.,   67.3279572
   2234,   28.7017727,          12.,   67.1404724
   2235,   25.4617767,          12.,   64.2270508
   2236,   21.9800339,          12.,   61.0507736
   2237,   30.8850765,          12.,   68.8059845
   2238,   41.2441788,          12.,   39.3864899
   2239,   37.1356583,          12.,   31.7583656
   2240,   26.6214104,          12.,   36.6761856
   2241,   24.5088139,          12.,   39.7677078
   2242,   29.5326118,          12.,   63.8859558
   2243,   29.0016937,          12.,   61.6118927
   2244,    31.052103,          12.,   63.0994148
   2245,   39.5305595,          12.,   55.0216827
   2246,   39.8451309,          12.,   50.6602554
   2247,    39.418499,          12.,   46.1473656
   2248,   29.3761883,          12.,   41.5743484
   2249,   26.7800503,          12.,   44.1478004
   2250,   39.5841484,          12.,   37.3409462
   2251,   26.7693729,          12.,   53.6653824
   2252,    26.388216,          12.,   46.4751167
   2253,   38.5553513,          12.,   57.8505402
   2254,   32.4059296,          12.,   59.6345558
   2255,   28.5802422,          12.,    59.731472
   2256,   36.8198204,          12.,   36.5500145
   2257,   38.5496216,          12.,    38.827282
   2258,   28.2660351,          12.,    49.089016
   2259,   34.6045685,          12.,   43.5706329
   2260,   36.8660393,          12.,   43.6677284
   2261,   36.6087227,          12.,    39.505085
   2262,   35.2368279,          12.,   50.7404442
   2263,   33.0260963,          12.,   49.2205124
   2264,   37.9749527,          12.,     50.56493
   2265,   33.6914444,          12.,   46.7883492
   2266,   35.0569992,          12.,   45.5107498
   2267,   30.2348843,          12.,   49.7392235
   2268,   29.7386932,          12.,   50.9975395
   2269,   29.9750156,           9.,   20.3451309
   2270,    27.095583,           9.,   21.3371277
   2271,   24.4627323,           9.,   22.8705158
   2272,    20.085886,           9.,   27.0924091
   2273,     18.34025,           9.,   29.5927353
   2274,   15.6555128,           9.,   35.0624733
   2275,    13.415472,           9.,   43.9169006
   2276,          13.,           9.,   50.0000496
   2277,   13.4154854,           9.,   56.0831985
   2278,   15.6555481,           9.,   64.9376221
   2279,   18.3403015,           9.,   70.4073486
   2280,    20.085947,           9.,   72.9076691
   2281,   24.4627781,           9.,   77.1295166
   2282,   27.0956306,           9.,   78.6628952
   2283,   29.9750633,           9.,   79.6548843
   2284,          33.,           9.,          20.
   2285,          33.,           9.,          80.
   2286,   36.0249863,           9.,   79.6548691
   2287,   38.9044151,           9.,   78.6628723
   2288,   41.5372658,           9.,   77.1294861
   2289,   45.9141159,           9.,   72.9075928
   2290,   47.6597481,           9.,   70.4072647
   2291,   50.3444862,           9.,   64.9375305
   2292,   52.5845299,           9.,   56.0830994
   2293,          53.,           9.,   49.9999504
   2294,   52.5845146,           9.,   43.9168015
   2295,   50.3444519,           9.,   35.0623779
   2296,   47.6596985,           9.,   29.5926533
   2297,   45.9140511,           9.,   27.0923309
   2298,   41.5372238,           9.,   22.8704834
   2299,   38.9043694,           9.,   21.3371067
   2300,   36.0249367,           9.,   20.3451195
   2301,   22.1232681,           9.,   24.8242664
   2302,   16.8693237,           9.,   32.2643623
   2303,   14.6832371,           9.,   37.9535713
   2304,    13.939785,           9.,   40.9119034
   2305,   13.1035376,           9.,   46.9513474
   2306,   13.1035442,           9.,    53.048748
   2307,    13.939806,           9.,    59.088192
   2308,   14.6832647,           9.,    62.046524
   2309,   16.8693657,           9.,   67.7357254
   2310,   22.1233082,           9.,   75.1757736
   2311,   43.8767319,           9.,   75.1757355
   2312,   49.1306763,           9.,   67.7356415
   2313,    51.316761,           9.,   62.0464287
   2314,    52.060215,           9.,   59.0880966
   2315,   52.8964615,           9.,   53.0486526
   2316,   52.8964539,           9.,    46.951252
   2317,   52.0601959,           9.,    40.911808
   2318,   51.3167343,           9.,    37.953476
   2319,   49.1306343,           9.,   32.2642746
   2320,   43.8766899,           9.,   24.8242264
   2321,   35.2298889,           9.,   23.1984615
   2322,   20.4570503,           9.,   31.3369122
   2323,   46.6730194,           9.,    33.252388
   2324,   16.5533028,           9.,   41.7955284
   2325,   50.0400925,           9.,   46.7889481
   2326,   50.0673599,           9.,   52.4844589
   2327,   17.1770935,           9.,   61.5136795
   2328,   46.6494408,           9.,   66.2046814
   2329,   22.1052074,           9.,   71.0997238
   2330,   41.8038635,           9.,   72.9968567
   2331,   28.1828575,           9.,   76.0426025
   2332,   30.6447296,           9.,   76.8130264
   2333,   33.5107384,           9.,   76.5985718
   2334,   35.9339676,           9.,   74.4850311
   2335,   39.7629509,           9.,   74.8180466
   2336,   23.9128456,           9.,   73.0552368
   2337,    45.260479,           9.,   68.6413727
   2338,   19.1435146,           9.,   66.5725861
   2339,    16.606966,           9.,   58.8154831
   2340,   15.9526415,           9.,   53.1909065
   2341,   15.8824272,           9.,   47.4536209
   2342,   17.1885414,           9.,    39.043087
   2343,   19.1558971,           9.,   33.7840691
   2344,   43.7848396,           9.,   28.7325592
   2345,   23.6976719,           9.,   27.0323467
   2346,   37.6279945,           9.,   23.9462585
   2347,   21.9855061,           9.,   29.0968304
   2348,   18.0608215,           9.,   36.3642044
   2349,   49.2940331,           9.,   41.1765022
   2350,   16.1116581,           9.,   44.6017036
   2351,   15.8250637,           9.,   50.3196259
   2352,    16.206522,           9.,   56.0279121
   2353,   48.6924019,           9.,   60.9169769
   2354,   17.9767151,           9.,    64.108963
   2355,   20.5047836,           9.,   68.9114838
   2356,   25.9560127,           9.,    74.734848
   2357,   43.6397972,           9.,   70.9107056
   2358,   47.7911758,           9.,   63.6094627
   2359,   49.3568611,           9.,    58.140377
   2360,   49.8132744,           9.,   55.3227539
   2361,   50.1526871,           9.,   49.6321831
   2362,   49.7709999,           9.,   43.9702225
   2363,   48.6431351,           9.,   38.4496384
   2364,   47.7798462,           9.,   35.7961159
   2365,   45.3624268,           9.,   30.8999939
   2366,   39.9014206,           9.,   25.1751041
   2367,   38.4278908,           9.,   27.3225994
   2368,   29.2505646,           9.,   73.7055588
   2369,   27.3673935,           9.,   72.4830399
   2370,   37.9883919,           9.,   72.7471848
   2371,   25.5790176,           9.,   70.9442749
   2372,    39.831852,           9.,   70.9426956
   2373,    26.976965,           9.,   27.5720348
   2374,   23.9780636,           9.,   69.1934433
   2375,   24.0299911,           9.,   31.1150627
   2376,   41.5061607,           9.,   68.9794998
   2377,   22.7052479,           9.,   33.1463318
   2378,   42.9987068,           9.,   66.8800354
   2379,   43.1580048,           9.,   32.2201118
   2380,   22.5213356,           9.,   67.3223801
   2381,   44.3611374,           9.,   34.2434273
   2382,   21.1884995,           9.,    65.351387
   2383,   44.2910881,           9.,   64.6571274
   2384,   21.4741039,           9.,   35.3257484
   2385,   45.3731155,           9.,   36.5341988
   2386,   20.0984821,           9.,   63.3377953
   2387,   20.4319611,           9.,   37.6162834
   2388,   45.3556976,           9.,   62.3061447
   2389,   46.1257286,           9.,   38.9348259
   2390,   19.5682163,           9.,     61.09235
   2391,     46.17696,           9.,   59.8231087
   2392,   19.6441994,           9.,   40.0624466
   2393,    46.659977,           9.,   41.4290199
   2394,   19.2696419,           9.,   58.6330948
   2395,   46.7590561,           9.,   57.2337112
   2396,   19.0930805,           9.,   42.5710716
   2397,   47.0355186,           9.,   44.0046234
   2398,   18.9781055,           9.,   56.0168648
   2399,   47.1419945,           9.,   54.6037941
   2400,   18.7357635,           9.,   45.1917572
   2401,   47.3483658,           9.,   51.9430046
   2402,   18.5629845,           9.,   47.8785248
   2403,   47.2773933,           9.,   46.6244431
   2404,   18.7200165,           9.,   53.3207169
   2405,   47.3942909,           9.,   49.2757759
   2406,   18.5624676,           9.,    50.603096
   2407,    30.259304,           9.,   23.1705284
   2408,   27.8521633,           9.,   23.9805584
   2409,    32.786644,           9.,   22.9029446
   2410,   25.7019634,           9.,   25.2896709
   2411,   41.9629555,           9.,   26.7987347
   2412,   34.5407333,           9.,   25.7996216
   2413,   27.1182175,           9.,   68.9016647
   2414,   37.9515305,           9.,   68.9892349
   2415,   30.5744743,           9.,   25.6376686
   2416,   28.8751526,           9.,   29.8509731
   2417,   24.2644939,           9.,   65.6617584
   2418,   39.4683342,           9.,   67.0804214
   2419,   40.8387947,           9.,   65.0889587
   2420,   26.7863464,           9.,   33.1728821
   2421,    42.338871,           9.,   35.1894417
   2422,    22.995245,           9.,   63.8894196
   2423,   43.2096786,           9.,   37.1935806
   2424,   42.0297928,           9.,   63.0641098
   2425,   21.7352524,           9.,    62.749115
   2426,   23.7637959,           9.,   36.9400597
   2427,   43.7055893,           9.,    39.305603
   2428,   43.0122528,           9.,   60.9972153
   2429,   22.6931839,           9.,   38.7998962
   2430,   21.9802685,           9.,   58.6512871
   2431,   22.0440807,           9.,   40.9488564
   2432,   44.0562363,           9.,   41.5735207
   2433,   43.7808647,           9.,   58.7634735
   2434,   21.7366829,           9.,   56.0787888
   2435,   21.6134186,           9.,   43.2461586
   2436,   44.3434067,           9.,    43.965271
   2437,   44.2881088,           9.,   56.3836784
   2438,   44.5689354,           9.,   46.4370689
   2439,   44.5913391,           9.,   53.9445686
   2440,   21.4469013,           9.,   53.4764633
   2441,   21.3120117,           9.,   45.6868134
   2442,   44.7098198,           9.,   48.9346962
   2443,   44.7356148,           9.,   51.4473801
   2444,   21.1774864,           9.,   48.2474365
   2445,   21.2321167,           9.,   50.8668022
   2446,   40.1745033,           9.,   28.6882305
   2447,   27.3638897,           9.,   64.8150558
   2448,   38.6932716,           9.,   63.2661514
   2449,   28.3316441,           9.,   36.1577072
   2450,   41.1911659,           9.,   37.5593529
   2451,   39.7603493,           9.,   61.3570061
   2452,   24.5382042,           9.,   61.8899002
   2453,   41.4323616,           9.,   41.5545158
   2454,   40.7257347,           9.,   59.5978622
   2455,   26.2227859,           9.,   38.8305817
   2456,   24.5318241,           9.,   58.8894768
   2457,   41.7058067,           9.,   43.8800354
   2458,   41.5627174,           9.,   57.7380142
   2459,   24.4461765,           9.,    41.607254
   2460,    24.486824,           9.,   56.2420769
   2461,   41.9455452,           9.,   46.2727165
   2462,   24.1666527,           9.,   43.7927437
   2463,   24.1311913,           9.,   53.6443939
   2464,   41.9341393,           9.,   55.6113052
   2465,   23.8670311,           9.,   46.1065674
   2466,   23.8018913,           9.,   51.0779877
   2467,   42.1323891,           9.,   53.3672829
   2468,   42.1204567,           9.,   48.6403198
   2469,   23.7161045,           9.,   48.5511742
   2470,   42.2200165,           9.,   51.0121613
   2471,   34.4459457,           9.,   72.4494934
   2472,   39.8169022,           9.,   31.9585323
   2473,   37.4126778,           9.,   59.4230576
   2474,   26.8620396,           9.,   59.1682243
   2475,   39.2112732,           9.,   43.7804718
   2476,   26.7995777,           9.,   41.6393852
   2477,   39.7752838,           9.,   56.8871956
   2478,   27.6322765,           9.,   56.4825134
   2479,   26.1002903,           9.,   48.7901268
   2480,   39.5555992,           9.,   48.4135056
   2481,   26.2168846,           9.,   51.1596413
   2482,   39.6887512,           9.,   52.8789101
   2483,   29.5085411,           9.,   68.7704086
   2484,   40.9394455,           9.,   36.0396919
   2485,   34.7007332,           9.,     68.91922
   2486,   30.9264431,           9.,   66.1856537
   2487,   39.1172905,           9.,   35.3504791
   2488,   26.9174976,           9.,   61.8150711
   2489,   37.8518257,           9.,   33.3850365
   2490,   38.9509506,           9.,   41.4390945
   2491,   32.2640419,           9.,   68.8226166
   2492,   37.4644775,           9.,   65.2379761
   2493,   30.8650894,           9.,   71.5005112
   2494,   36.9193497,           9.,   29.2947922
   2495,   32.4634933,           9.,   73.8507233
   2496,   29.8351727,           9.,   58.6326981
   2497,   35.4549408,           9.,   63.5692291
   2498,   36.6233826,           9.,   41.4300232
   2499,   35.6482735,           9.,   34.1962585
   2500,   41.7752571,           9.,   30.3696976
   2501,   34.2850456,           9.,   65.5180893
   2502,    32.495266,           9.,     64.19767
   2503,   38.4731674,           9.,   30.4168186
   2504,   33.8004532,           9.,   28.5802727
   2505,   34.4093933,           9.,   38.1263657
   2506,    31.204258,           9.,   61.0132217
   2507,   34.2902794,           9.,   41.1476212
   2508,   35.0429382,           9.,   31.3149853
   2509,   36.4704704,           9.,   61.4890556
   2510,   33.4260788,           9.,    62.227623
   2511,   30.9817219,           9.,   27.7963696
   2512,    33.211422,           9.,   35.0252151
   2513,   31.5110893,           9.,   29.7243919
   2514,   31.7536335,           9.,     57.66819
   2515,   31.4871025,           9.,   38.4802361
   2516,     32.46912,           9.,   43.9770584
   2517,   32.3174782,           9.,   32.1934662
   2518,   31.9007587,           9.,   41.2907066
   2519,   30.6531124,           9.,   35.5962181
   2520,   29.6950054,           9.,   32.7314949
   2521,   34.5554504,           9.,   57.2206192
   2522,   29.7920914,           9.,   44.6156235
   2523,   37.0106888,           9.,   45.9838295
   2524,    30.251791,           9.,   55.3745003
   2525,   36.6805038,           9.,   48.5069923
   2526,   28.9423904,           9.,   38.8007965
   2527,   34.2125816,           9.,   60.1016312
   2528,   32.4381409,           9.,   54.3419609
   2529,   31.4640541,           9.,   46.6273117
   2530,   30.8045063,           9.,     52.34338
   2531,   32.0543785,           9.,   51.0084305
   2532,   36.6140747,           9.,   55.0438194
   2533,   28.7308064,           9.,   47.0539856
   2534,   28.2519054,           9.,   51.0942726
   2535,   34.0245171,           9.,    52.829319
   2536,   29.0057583,           9.,   53.1791153
   2537,   37.3016167,           9.,   52.2721786
   2538,   30.8459568,           9.,   48.1337814
   2539,   37.5935478,           9.,    76.365387
   2540,   35.7007408,           9.,   77.5998535
   2541,   36.5526581,           9.,   26.2779942
   2542,   32.6173592,           9.,   25.4151535
   2543,   28.6381111,           9.,   26.3364983
   2544,   25.3941898,           9.,   29.1225357
   2545,   30.8019142,           9.,   74.7542038
   2546,   36.3091774,           9.,   70.7726288
   2547,   41.1140327,           9.,    33.583416
   2548,   35.7763786,           9.,    28.135746
   2549,   32.4396095,           9.,   27.3184891
   2550,   29.5573635,           9.,   28.0138321
   2551,   27.1048393,           9.,   30.7011929
   2552,   24.9730968,           9.,   34.9972649
   2553,   25.6657143,           9.,   67.1950302
   2554,   28.6628227,           9.,   70.4281311
   2555,   36.1281815,           9.,    67.161026
   2556,   33.1101646,           9.,   70.4627075
   2557,   33.0951729,           9.,   67.3279572
   2558,   28.7017727,           9.,   67.1404724
   2559,   25.4617767,           9.,   64.2270508
   2560,   21.9800339,           9.,   61.0507736
   2561,   30.8850765,           9.,   68.8059845
   2562,   41.2441788,           9.,   39.3864899
   2563,   37.1356583,           9.,   31.7583656
   2564,   26.6214104,           9.,   36.6761856
   2565,   24.5088139,           9.,   39.7677078
   2566,   29.5326118,           9.,   63.8859558
   2567,   29.0016937,           9.,   61.6118927
   2568,    31.052103,           9.,   63.0994148
   2569,   39.5305595,           9.,   55.0216827
   2570,   39.8451309,           9.,   50.6602554
   2571,    39.418499,           9.,   46.1473656
   2572,   29.3761883,           9.,   41.5743484
   2573,   26.7800503,           9.,   44.1478004
   2574,   39.5841484,           9.,   37.3409462
   2575,   26.7693729,           9.,   53.6653824
   2576,    26.388216,           9.,   46.4751167
   2577,   38.5553513,           9.,   57.8505402
   2578,   32.4059296,           9.,   59.6345558
   2579,   28.5802422,           9.,    59.731472
   2580,   36.8198204,           9.,   36.5500145
   2581,   38.5496216,           9.,    38.827282
   2582,   28.2660351,           9.,    49.089016
   2583,   34.6045685,           9.,   43.5706329
   2584,   36.8660393,           9.,   43.6677284
   2585,   36.6087227,           9.,    39.505085
   2586,   35.2368279,           9.,   50.7404442
   2587,   33.0260963,           9.,   49.2205124
   2588,   37.9749527,           9.,     50.56493
   2589,   33.6914444,           9.,   46.7883492
   2590,   35.0569992,           9.,   45.5107498
   2591,   30.2348843,           9.,   49.7392235
   2592,   29.7386932,           9.,   50.9975395
   2593,   29.9750156,           6.,   20.3451309
   2594,    27.095583,           6.,   21.3371277
   2595,   24.4627323,           6.,   22.8705158
   2596,    20.085886,           6.,   27.0924091
   2597,     18.34025,           6.,   29.5927353
   2598,   15.6555128,           6.,   35.0624733
   2599,    13.415472,           6.,   43.9169006
   2600,          13.,           6.,   50.0000496
   2601,   13.4154854,           6.,   56.0831985
   2602,   15.6555481,           6.,   64.9376221
   2603,   18.3403015,           6.,   70.4073486
   2604,    20.085947,           6.,   72.9076691
   2605,   24.4627781,           6.,   77.1295166
   2606,   27.0956306,           6.,   78.6628952
   2607,   29.9750633,           6.,   79.6548843
   2608,          33.,           6.,          20.
   2609,          33.,           6.,          80.
   2610,   36.0249863,           6.,   79.6548691
   2611,   38.9044151,           6.,   78.6628723
   2612,   41.5372658,           6.,   77.1294861
   2613,   45.9141159,           6.,   72.9075928
   2614,   47.6597481,           6.,   70.4072647
   2615,   50.3444862,           6.,   64.9375305
   2616,   52.5845299,           6.,   56.0830994
   2617,          53.,           6.,   49.9999504
   2618,   52.5845146,           6.,   43.9168015
   2619,   50.3444519,           6.,   35.0623779
   2620,   47.6596985,           6.,   29.5926533
   2621,   45.9140511,           6.,   27.0923309
   2622,   41.5372238,           6.,   22.8704834
   2623,   38.9043694,           6.,   21.3371067
   2624,   36.0249367,           6.,   20.3451195
   2625,   22.1232681,           6.,   24.8242664
   2626,   16.8693237,           6.,   32.2643623
   2627,   14.6832371,           6.,   37.9535713
   2628,    13.939785,           6.,   40.9119034
   2629,   13.1035376,           6.,   46.9513474
   2630,   13.1035442,           6.,    53.048748
   2631,    13.939806,           6.,    59.088192
   2632,   14.6832647,           6.,    62.046524
   2633,   16.8693657,           6.,   67.7357254
   2634,   22.1233082,           6.,   75.1757736
   2635,   43.8767319,           6.,   75.1757355
   2636,   49.1306763,           6.,   67.7356415
   2637,    51.316761,           6.,   62.0464287
   2638,    52.060215,           6.,   59.0880966
   2639,   52.8964615,           6.,   53.0486526
   2640,   52.8964539,           6.,    46.951252
   2641,   52.0601959,           6.,    40.911808
   2642,   51.3167343,           6.,    37.953476
   2643,   49.1306343,           6.,   32.2642746
   2644,   43.8766899,           6.,   24.8242264
   2645,   35.2298889,           6.,   23.1984615
   2646,   20.4570503,           6.,   31.3369122
   2647,   46.6730194,           6.,    33.252388
   2648,   16.5533028,           6.,   41.7955284
   2649,   50.0400925,           6.,   46.7889481
   2650,   50.0673599,           6.,   52.4844589
   2651,   17.1770935,           6.,   61.5136795
   2652,   46.6494408,           6.,   66.2046814
   2653,   22.1052074,           6.,   71.0997238
   2654,   41.8038635,           6.,   72.9968567
   2655,   28.1828575,           6.,   76.0426025
   2656,   30.6447296,           6.,   76.8130264
   2657,   33.5107384,           6.,   76.5985718
   2658,   35.9339676,           6.,   74.4850311
   2659,   39.7629509,           6.,   74.8180466
   2660,   23.9128456,           6.,   73.0552368
   2661,    45.260479,           6.,   68.6413727
   2662,   19.1435146,           6.,   66.5725861
   2663,    16.606966,           6.,   58.8154831
   2664,   15.9526415,           6.,   53.1909065
   2665,   15.8824272,           6.,   47.4536209
   2666,   17.1885414,           6.,    39.043087
   2667,   19.1558971,           6.,   33.7840691
   2668,   43.7848396,           6.,   28.7325592
   2669,   23.6976719,           6.,   27.0323467
   2670,   37.6279945,           6.,   23.9462585
   2671,   21.9855061,           6.,   29.0968304
   2672,   18.0608215,           6.,   36.3642044
   2673,   49.2940331,           6.,   41.1765022
   2674,   16.1116581,           6.,   44.6017036
   2675,   15.8250637,           6.,   50.3196259
   2676,    16.206522,           6.,   56.0279121
   2677,   48.6924019,           6.,   60.9169769
   2678,   17.9767151,           6.,    64.108963
   2679,   20.5047836,           6.,   68.9114838
   2680,   25.9560127,           6.,    74.734848
   2681,   43.6397972,           6.,   70.9107056
   2682,   47.7911758,           6.,   63.6094627
   2683,   49.3568611,           6.,    58.140377
   2684,   49.8132744,           6.,   55.3227539
   2685,   50.1526871,           6.,   49.6321831
   2686,   49.7709999,           6.,   43.9702225
   2687,   48.6431351,           6.,   38.4496384
   2688,   47.7798462,           6.,   35.7961159
   2689,   45.3624268,           6.,   30.8999939
   2690,   39.9014206,           6.,   25.1751041
   2691,   38.4278908,           6.,   27.3225994
   2692,   29.2505646,           6.,   73.7055588
   2693,   27.3673935,           6.,   72.4830399
   2694,   37.9883919,           6.,   72.7471848
   2695,   25.5790176,           6.,   70.9442749
   2696,    39.831852,           6.,   70.9426956
   2697,    26.976965,           6.,   27.5720348
   2698,   23.9780636,           6.,   69.1934433
   2699,   24.0299911,           6.,   31.1150627
   2700,   41.5061607,           6.,   68.9794998
   2701,   22.7052479,           6.,   33.1463318
   2702,   42.9987068,           6.,   66.8800354
   2703,   43.1580048,           6.,   32.2201118
   2704,   22.5213356,           6.,   67.3223801
   2705,   44.3611374,           6.,   34.2434273
   2706,   21.1884995,           6.,    65.351387
   2707,   44.2910881,           6.,   64.6571274
   2708,   21.4741039,           6.,   35.3257484
   2709,   45.3731155,           6.,   36.5341988
   2710,   20.0984821,           6.,   63.3377953
   2711,   20.4319611,           6.,   37.6162834
   2712,   45.3556976,           6.,   62.3061447
   2713,   46.1257286,           6.,   38.9348259
   2714,   19.5682163,           6.,     61.09235
   2715,     46.17696,           6.,   59.8231087
   2716,   19.6441994,           6.,   40.0624466
   2717,    46.659977,           6.,   41.4290199
   2718,   19.2696419,           6.,   58.6330948
   2719,   46.7590561,           6.,   57.2337112
   2720,   19.0930805,           6.,   42.5710716
   2721,   47.0355186,           6.,   44.0046234
   2722,   18.9781055,           6.,   56.0168648
   2723,   47.1419945,           6.,   54.6037941
   2724,   18.7357635,           6.,   45.1917572
   2725,   47.3483658,           6.,   51.9430046
   2726,   18.5629845,           6.,   47.8785248
   2727,   47.2773933,           6.,   46.6244431
   2728,   18.7200165,           6.,   53.3207169
   2729,   47.3942909,           6.,   49.2757759
   2730,   18.5624676,           6.,    50.603096
   2731,    30.259304,           6.,   23.1705284
   2732,   27.8521633,           6.,   23.9805584
   2733,    32.786644,           6.,   22.9029446
   2734,   25.7019634,           6.,   25.2896709
   2735,   41.9629555,           6.,   26.7987347
   2736,   34.5407333,           6.,   25.7996216
   2737,   27.1182175,           6.,   68.9016647
   2738,   37.9515305,           6.,   68.9892349
   2739,   30.5744743,           6.,   25.6376686
   2740,   28.8751526,           6.,   29.8509731
   2741,   24.2644939,           6.,   65.6617584
   2742,   39.4683342,           6.,   67.0804214
   2743,   40.8387947,           6.,   65.0889587
   2744,   26.7863464,           6.,   33.1728821
   2745,    42.338871,           6.,   35.1894417
   2746,    22.995245,           6.,   63.8894196
   2747,   43.2096786,           6.,   37.1935806
   2748,   42.0297928,           6.,   63.0641098
   2749,   21.7352524,           6.,    62.749115
   2750,   23.7637959,           6.,   36.9400597
   2751,   43.7055893,           6.,    39.305603
   2752,   43.0122528,           6.,   60.9972153
   2753,   22.6931839,           6.,   38.7998962
   2754,   21.9802685,           6.,   58.6512871
   2755,   22.0440807,           6.,   40.9488564
   2756,   44.0562363,           6.,   41.5735207
   2757,   43.7808647,           6.,   58.7634735
   2758,   21.7366829,           6.,   56.0787888
   2759,   21.6134186,           6.,   43.2461586
   2760,   44.3434067,           6.,    43.965271
   2761,   44.2881088,           6.,   56.3836784
   2762,   44.5689354,           6.,   46.4370689
   2763,   44.5913391,           6.,   53.9445686
   2764,   21.4469013,           6.,   53.4764633
   2765,   21.3120117,           6.,   45.6868134
   2766,   44.7098198,           6.,   48.9346962
   2767,   44.7356148,           6.,   51.4473801
   2768,   21.1774864,           6.,   48.2474365
   2769,   21.2321167,           6.,   50.8668022
   2770,   40.1745033,           6.,   28.6882305
   2771,   27.3638897,           6.,   64.8150558
   2772,   38.6932716,           6.,   63.2661514
   2773,   28.3316441,           6.,   36.1577072
   2774,   41.1911659,           6.,   37.5593529
   2775,   39.7603493,           6.,   61.3570061
   2776,   24.5382042,           6.,   61.8899002
   2777,   41.4323616,           6.,   41.5545158
   2778,   40.7257347,           6.,   59.5978622
   2779,   26.2227859,           6.,   38.8305817
   2780,   24.5318241,           6.,   58.8894768
   2781,   41.7058067,           6.,   43.8800354
   2782,   41.5627174,           6.,   57.7380142
   2783,   24.4461765,           6.,    41.607254
   2784,    24.486824,           6.,   56.2420769
   2785,   41.9455452,           6.,   46.2727165
   2786,   24.1666527,           6.,   43.7927437
   2787,   24.1311913,           6.,   53.6443939
   2788,   41.9341393,           6.,   55.6113052
   2789,   23.8670311,           6.,   46.1065674
   2790,   23.8018913,           6.,   51.0779877
   2791,   42.1323891,           6.,   53.3672829
   2792,   42.1204567,           6.,   48.6403198
   2793,   23.7161045,           6.,   48.5511742
   2794,   42.2200165,           6.,   51.0121613
   2795,   34.4459457,           6.,   72.4494934
   2796,   39.8169022,           6.,   31.9585323
   2797,   37.4126778,           6.,   59.4230576
   2798,   26.8620396,           6.,   59.1682243
   2799,   39.2112732,           6.,   43.7804718
   2800,   26.7995777,           6.,   41.6393852
   2801,   39.7752838,           6.,   56.8871956
   2802,   27.6322765,           6.,   56.4825134
   2803,   26.1002903,           6.,   48.7901268
   2804,   39.5555992,           6.,   48.4135056
   2805,   26.2168846,           6.,   51.1596413
   2806,   39.6887512,           6.,   52.8789101
   2807,   29.5085411,           6.,   68.7704086
   2808,   40.9394455,           6.,   36.0396919
   2809,   34.7007332,           6.,     68.91922
   2810,   30.9264431,           6.,   66.1856537
   2811,   39.1172905,           6.,   35.3504791
   2812,   26.9174976,           6.,   61.8150711
   2813,   37.8518257,           6.,   33.3850365
   2814,   38.9509506,           6.,   41.4390945
   2815,   32.2640419,           6.,   68.8226166
   2816,   37.4644775,           6.,   65.2379761
   2817,   30.8650894,           6.,   71.5005112
   2818,   36.9193497,           6.,   29.2947922
   2819,   32.4634933,           6.,   73.8507233
   2820,   29.8351727,           6.,   58.6326981
   2821,   35.4549408,           6.,   63.5692291
   2822,   36.6233826,           6.,   41.4300232
   2823,   35.6482735,           6.,   34.1962585
   2824,   41.7752571,           6.,   30.3696976
   2825,   34.2850456,           6.,   65.5180893
   2826,    32.495266,           6.,     64.19767
   2827,   38.4731674,           6.,   30.4168186
   2828,   33.8004532,           6.,   28.5802727
   2829,   34.4093933,           6.,   38.1263657
   2830,    31.204258,           6.,   61.0132217
   2831,   34.2902794,           6.,   41.1476212
   2832,   35.0429382,           6.,   31.3149853
   2833,   36.4704704,           6.,   61.4890556
   2834,   33.4260788,           6.,    62.227623
   2835,   30.9817219,           6.,   27.7963696
   2836,    33.211422,           6.,   35.0252151
   2837,   31.5110893,           6.,   29.7243919
   2838,   31.7536335,           6.,     57.66819
   2839,   31.4871025,           6.,   38.4802361
   2840,     32.46912,           6.,   43.9770584
   2841,   32.3174782,           6.,   32.1934662
   2842,   31.9007587,           6.,   41.2907066
   2843,   30.6531124,           6.,   35.5962181
   2844,   29.6950054,           6.,   32.7314949
   2845,   34.5554504,           6.,   57.2206192
   2846,   29.7920914,           6.,   44.6156235
   2847,   37.0106888,           6.,   45.9838295
   2848,    30.251791,           6.,   55.3745003
   2849,   36.6805038,           6.,   48.5069923
   2850,   28.9423904,           6.,   38.8007965
   2851,   34.2125816,           6.,   60.1016312
   2852,   32.4381409,           6.,   54.3419609
   2853,   31.4640541,           6.,   46.6273117
   2854,   30.8045063,           6.,     52.34338
   2855,   32.0543785,           6.,   51.0084305
   2856,   36.6140747,           6.,   55.0438194
   2857,   28.7308064,           6.,   47.0539856
   2858,   28.2519054,           6.,   51.0942726
   2859,   34.0245171,           6.,    52.829319
   2860,   29.0057583,           6.,   53.1791153
   2861,   37.3016167,           6.,   52.2721786
   2862,   30.8459568,           6.,   48.1337814
   2863,   37.5935478,           6.,    76.365387
   2864,   35.7007408,           6.,   77.5998535
   2865,   36.5526581,           6.,   26.2779942
   2866,   32.6173592,           6.,   25.4151535
   2867,   28.6381111,           6.,   26.3364983
   2868,   25.3941898,           6.,   29.1225357
   2869,   30.8019142,           6.,   74.7542038
   2870,   36.3091774,           6.,   70.7726288
   2871,   41.1140327,           6.,    33.583416
   2872,   35.7763786,           6.,    28.135746
   2873,   32.4396095,           6.,   27.3184891
   2874,   29.5573635,           6.,   28.0138321
   2875,   27.1048393,           6.,   30.7011929
   2876,   24.9730968,           6.,   34.9972649
   2877,   25.6657143,           6.,   67.1950302
   2878,   28.6628227,           6.,   70.4281311
   2879,   36.1281815,           6.,    67.161026
   2880,   33.1101646,           6.,   70.4627075
   2881,   33.0951729,           6.,   67.3279572
   2882,   28.7017727,           6.,   67.1404724
   2883,   25.4617767,           6.,   64.2270508
   2884,   21.9800339,           6.,   61.0507736
   2885,   30.8850765,           6.,   68.8059845
   2886,   41.2441788,           6.,   39.3864899
   2887,   37.1356583,           6.,   31.7583656
   2888,   26.6214104,           6.,   36.6761856
   2889,   24.5088139,           6.,   39.7677078
   2890,   29.5326118,           6.,   63.8859558
   2891,   29.0016937,           6.,   61.6118927
   2892,    31.052103,           6.,   63.0994148
   2893,   39.5305595,           6.,   55.0216827
   2894,   39.8451309,           6.,   50.6602554
   2895,    39.418499,           6.,   46.1473656
   2896,   29.3761883,           6.,   41.5743484
   2897,   26.7800503,           6.,   44.1478004
   2898,   39.5841484,           6.,   37.3409462
   2899,   26.7693729,           6.,   53.6653824
   2900,    26.388216,           6.,   46.4751167
   2901,   38.5553513,           6.,   57.8505402
   2902,   32.4059296,           6.,   59.6345558
   2903,   28.5802422,           6.,    59.731472
   2904,   36.8198204,           6.,   36.5500145
   2905,   38.5496216,           6.,    38.827282
   2906,   28.2660351,           6.,    49.089016
   2907,   34.6045685,           6.,   43.5706329
   2908,   36.8660393,           6.,   43.6677284
   2909,   36.6087227,           6.,    39.505085
   2910,   35.2368279,           6.,   50.7404442
   2911,   33.0260963,           6.,   49.2205124
   2912,   37.9749527,           6.,     50.56493
   2913,   33.6914444,           6.,   46.7883492
   2914,   35.0569992,           6.,   45.5107498
   2915,   30.2348843,           6.,   49.7392235
   2916,   29.7386932,           6.,   50.9975395
   2917,   29.9750156,           3.,   20.3451309
   2918,    27.095583,           3.,   21.3371277
   2919,   24.4627323,           3.,   22.8705158
   2920,    20.085886,           3.,   27.0924091
   2921,     18.34025,           3.,   29.5927353
   2922,   15.6555128,           3.,   35.0624733
   2923,    13.415472,           3.,   43.9169006
   2924,          13.,           3.,   50.0000496
   2925,   13.4154854,           3.,   56.0831985
   2926,   15.6555481,           3.,   64.9376221
   2927,   18.3403015,           3.,   70.4073486
   2928,    20.085947,           3.,   72.9076691
   2929,   24.4627781,           3.,   77.1295166
   2930,   27.0956306,           3.,   78.6628952
   2931,   29.9750633,           3.,   79.6548843
   2932,          33.,           3.,          20.
   2933,          33.,           3.,          80.
   2934,   36.0249863,           3.,   79.6548691
   2935,   38.9044151,           3.,   78.6628723
   2936,   41.5372658,           3.,   77.1294861
   2937,   45.9141159,           3.,   72.9075928
   2938,   47.6597481,           3.,   70.4072647
   2939,   50.3444862,           3.,   64.9375305
   2940,   52.5845299,           3.,   56.0830994
   2941,          53.,           3.,   49.9999504
   2942,   52.5845146,           3.,   43.9168015
   2943,   50.3444519,           3.,   35.0623779
   2944,   47.6596985,           3.,   29.5926533
   2945,   45.9140511,           3.,   27.0923309
   2946,   41.5372238,           3.,   22.8704834
   2947,   38.9043694,           3.,   21.3371067
   2948,   36.0249367,           3.,   20.3451195
   2949,   22.1232681,           3.,   24.8242664
   2950,   16.8693237,           3.,   32.2643623
   2951,   14.6832371,           3.,   37.9535713
   2952,    13.939785,           3.,   40.9119034
   2953,   13.1035376,           3.,   46.9513474
   2954,   13.1035442,           3.,    53.048748
   2955,    13.939806,           3.,    59.088192
   2956,   14.6832647,           3.,    62.046524
   2957,   16.8693657,           3.,   67.7357254
   2958,   22.1233082,           3.,   75.1757736
   2959,   43.8767319,           3.,   75.1757355
   2960,   49.1306763,           3.,   67.7356415
   2961,    51.316761,           3.,   62.0464287
   2962,    52.060215,           3.,   59.0880966
   2963,   52.8964615,           3.,   53.0486526
   2964,   52.8964539,           3.,    46.951252
   2965,   52.0601959,           3.,    40.911808
   2966,   51.3167343,           3.,    37.953476
   2967,   49.1306343,           3.,   32.2642746
   2968,   43.8766899,           3.,   24.8242264
   2969,   35.2298889,           3.,   23.1984615
   2970,   20.4570503,           3.,   31.3369122
   2971,   46.6730194,           3.,    33.252388
   2972,   16.5533028,           3.,   41.7955284
   2973,   50.0400925,           3.,   46.7889481
   2974,   50.0673599,           3.,   52.4844589
   2975,   17.1770935,           3.,   61.5136795
   2976,   46.6494408,           3.,   66.2046814
   2977,   22.1052074,           3.,   71.0997238
   2978,   41.8038635,           3.,   72.9968567
   2979,   28.1828575,           3.,   76.0426025
   2980,   30.6447296,           3.,   76.8130264
   2981,   33.5107384,           3.,   76.5985718
   2982,   35.9339676,           3.,   74.4850311
   2983,   39.7629509,           3.,   74.8180466
   2984,   23.9128456,           3.,   73.0552368
   2985,    45.260479,           3.,   68.6413727
   2986,   19.1435146,           3.,   66.5725861
   2987,    16.606966,           3.,   58.8154831
   2988,   15.9526415,           3.,   53.1909065
   2989,   15.8824272,           3.,   47.4536209
   2990,   17.1885414,           3.,    39.043087
   2991,   19.1558971,           3.,   33.7840691
   2992,   43.7848396,           3.,   28.7325592
   2993,   23.6976719,           3.,   27.0323467
   2994,   37.6279945,           3.,   23.9462585
   2995,   21.9855061,           3.,   29.0968304
   2996,   18.0608215,           3.,   36.3642044
   2997,   49.2940331,           3.,   41.1765022
   2998,   16.1116581,           3.,   44.6017036
   2999,   15.8250637,           3.,   50.3196259
   3000,    16.206522,           3.,   56.0279121
   3001,   48.6924019,           3.,   60.9169769
   3002,   17.9767151,           3.,    64.108963
   3003,   20.5047836,           3.,   68.9114838
   3004,   25.9560127,           3.,    74.734848
   3005,   43.6397972,           3.,   70.9107056
   3006,   47.7911758,           3.,   63.6094627
   3007,   49.3568611,           3.,    58.140377
   3008,   49.8132744,           3.,   55.3227539
   3009,   50.1526871,           3.,   49.6321831
   3010,   49.7709999,           3.,   43.9702225
   3011,   48.6431351,           3.,   38.4496384
   3012,   47.7798462,           3.,   35.7961159
   3013,   45.3624268,           3.,   30.8999939
   3014,   39.9014206,           3.,   25.1751041
   3015,   38.4278908,           3.,   27.3225994
   3016,   29.2505646,           3.,   73.7055588
   3017,   27.3673935,           3.,   72.4830399
   3018,   37.9883919,           3.,   72.7471848
   3019,   25.5790176,           3.,   70.9442749
   3020,    39.831852,           3.,   70.9426956
   3021,    26.976965,           3.,   27.5720348
   3022,   23.9780636,           3.,   69.1934433
   3023,   24.0299911,           3.,   31.1150627
   3024,   41.5061607,           3.,   68.9794998
   3025,   22.7052479,           3.,   33.1463318
   3026,   42.9987068,           3.,   66.8800354
   3027,   43.1580048,           3.,   32.2201118
   3028,   22.5213356,           3.,   67.3223801
   3029,   44.3611374,           3.,   34.2434273
   3030,   21.1884995,           3.,    65.351387
   3031,   44.2910881,           3.,   64.6571274
   3032,   21.4741039,           3.,   35.3257484
   3033,   45.3731155,           3.,   36.5341988
   3034,   20.0984821,           3.,   63.3377953
   3035,   20.4319611,           3.,   37.6162834
   3036,   45.3556976,           3.,   62.3061447
   3037,   46.1257286,           3.,   38.9348259
   3038,   19.5682163,           3.,     61.09235
   3039,     46.17696,           3.,   59.8231087
   3040,   19.6441994,           3.,   40.0624466
   3041,    46.659977,           3.,   41.4290199
   3042,   19.2696419,           3.,   58.6330948
   3043,   46.7590561,           3.,   57.2337112
   3044,   19.0930805,           3.,   42.5710716
   3045,   47.0355186,           3.,   44.0046234
   3046,   18.9781055,           3.,   56.0168648
   3047,   47.1419945,           3.,   54.6037941
   3048,   18.7357635,           3.,   45.1917572
   3049,   47.3483658,           3.,   51.9430046
   3050,   18.5629845,           3.,   47.8785248
   3051,   47.2773933,           3.,   46.6244431
   3052,   18.7200165,           3.,   53.3207169
   3053,   47.3942909,           3.,   49.2757759
   3054,   18.5624676,           3.,    50.603096
   3055,    30.259304,           3.,   23.1705284
   3056,   27.8521633,           3.,   23.9805584
   3057,    32.786644,           3.,   22.9029446
   3058,   25.7019634,           3.,   25.2896709
   3059,   41.9629555,           3.,   26.7987347
   3060,   34.5407333,           3.,   25.7996216
   3061,   27.1182175,           3.,   68.9016647
   3062,   37.9515305,           3.,   68.9892349
   3063,   30.5744743,           3.,   25.6376686
   3064,   28.8751526,           3.,   29.8509731
   3065,   24.2644939,           3.,   65.6617584
   3066,   39.4683342,           3.,   67.0804214
   3067,   40.8387947,           3.,   65.0889587
   3068,   26.7863464,           3.,   33.1728821
   3069,    42.338871,           3.,   35.1894417
   3070,    22.995245,           3.,   63.8894196
   3071,   43.2096786,           3.,   37.1935806
   3072,   42.0297928,           3.,   63.0641098
   3073,   21.7352524,           3.,    62.749115
   3074,   23.7637959,           3.,   36.9400597
   3075,   43.7055893,           3.,    39.305603
   3076,   43.0122528,           3.,   60.9972153
   3077,   22.6931839,           3.,   38.7998962
   3078,   21.9802685,           3.,   58.6512871
   3079,   22.0440807,           3.,   40.9488564
   3080,   44.0562363,           3.,   41.5735207
   3081,   43.7808647,           3.,   58.7634735
   3082,   21.7366829,           3.,   56.0787888
   3083,   21.6134186,           3.,   43.2461586
   3084,   44.3434067,           3.,    43.965271
   3085,   44.2881088,           3.,   56.3836784
   3086,   44.5689354,           3.,   46.4370689
   3087,   44.5913391,           3.,   53.9445686
   3088,   21.4469013,           3.,   53.4764633
   3089,   21.3120117,           3.,   45.6868134
   3090,   44.7098198,           3.,   48.9346962
   3091,   44.7356148,           3.,   51.4473801
   3092,   21.1774864,           3.,   48.2474365
   3093,   21.2321167,           3.,   50.8668022
   3094,   40.1745033,           3.,   28.6882305
   3095,   27.3638897,           3.,   64.8150558
   3096,   38.6932716,           3.,   63.2661514
   3097,   28.3316441,           3.,   36.1577072
   3098,   41.1911659,           3.,   37.5593529
   3099,   39.7603493,           3.,   61.3570061
   3100,   24.5382042,           3.,   61.8899002
   3101,   41.4323616,           3.,   41.5545158
   3102,   40.7257347,           3.,   59.5978622
   3103,   26.2227859,           3.,   38.8305817
   3104,   24.5318241,           3.,   58.8894768
   3105,   41.7058067,           3.,   43.8800354
   3106,   41.5627174,           3.,   57.7380142
   3107,   24.4461765,           3.,    41.607254
   3108,    24.486824,           3.,   56.2420769
   3109,   41.9455452,           3.,   46.2727165
   3110,   24.1666527,           3.,   43.7927437
   3111,   24.1311913,           3.,   53.6443939
   3112,   41.9341393,           3.,   55.6113052
   3113,   23.8670311,           3.,   46.1065674
   3114,   23.8018913,           3.,   51.0779877
   3115,   42.1323891,           3.,   53.3672829
   3116,   42.1204567,           3.,   48.6403198
   3117,   23.7161045,           3.,   48.5511742
   3118,   42.2200165,           3.,   51.0121613
   3119,   34.4459457,           3.,   72.4494934
   3120,   39.8169022,           3.,   31.9585323
   3121,   37.4126778,           3.,   59.4230576
   3122,   26.8620396,           3.,   59.1682243
   3123,   39.2112732,           3.,   43.7804718
   3124,   26.7995777,           3.,   41.6393852
   3125,   39.7752838,           3.,   56.8871956
   3126,   27.6322765,           3.,   56.4825134
   3127,   26.1002903,           3.,   48.7901268
   3128,   39.5555992,           3.,   48.4135056
   3129,   26.2168846,           3.,   51.1596413
   3130,   39.6887512,           3.,   52.8789101
   3131,   29.5085411,           3.,   68.7704086
   3132,   40.9394455,           3.,   36.0396919
   3133,   34.7007332,           3.,     68.91922
   3134,   30.9264431,           3.,   66.1856537
   3135,   39.1172905,           3.,   35.3504791
   3136,   26.9174976,           3.,   61.8150711
   3137,   37.8518257,           3.,   33.3850365
   3138,   38.9509506,           3.,   41.4390945
   3139,   32.2640419,           3.,   68.8226166
   3140,   37.4644775,           3.,   65.2379761
   3141,   30.8650894,           3.,   71.5005112
   3142,   36.9193497,           3.,   29.2947922
   3143,   32.4634933,           3.,   73.8507233
   3144,   29.8351727,           3.,   58.6326981
   3145,   35.4549408,           3.,   63.5692291
   3146,   36.6233826,           3.,   41.4300232
   3147,   35.6482735,           3.,   34.1962585
   3148,   41.7752571,           3.,   30.3696976
   3149,   34.2850456,           3.,   65.5180893
   3150,    32.495266,           3.,     64.19767
   3151,   38.4731674,           3.,   30.4168186
   3152,   33.8004532,           3.,   28.5802727
   3153,   34.4093933,           3.,   38.1263657
   3154,    31.204258,           3.,   61.0132217
   3155,   34.2902794,           3.,   41.1476212
   3156,   35.0429382,           3.,   31.3149853
   3157,   36.4704704,           3.,   61.4890556
   3158,   33.4260788,           3.,    62.227623
   3159,   30.9817219,           3.,   27.7963696
   3160,    33.211422,           3.,   35.0252151
   3161,   31.5110893,           3.,   29.7243919
   3162,   31.7536335,           3.,     57.66819
   3163,   31.4871025,           3.,   38.4802361
   3164,     32.46912,           3.,   43.9770584
   3165,   32.3174782,           3.,   32.1934662
   3166,   31.9007587,           3.,   41.2907066
   3167,   30.6531124,           3.,   35.5962181
   3168,   29.6950054,           3.,   32.7314949
   3169,   34.5554504,           3.,   57.2206192
   3170,   29.7920914,           3.,   44.6156235
   3171,   37.0106888,           3.,   45.9838295
   3172,    30.251791,           3.,   55.3745003
   3173,   36.6805038,           3.,   48.5069923
   3174,   28.9423904,           3.,   38.8007965
   3175,   34.2125816,           3.,   60.1016312
   3176,   32.4381409,           3.,   54.3419609
   3177,   31.4640541,           3.,   46.6273117
   3178,   30.8045063,           3.,     52.34338
   3179,   32.0543785,           3.,   51.0084305
   3180,   36.6140747,           3.,   55.0438194
   3181,   28.7308064,           3.,   47.0539856
   3182,   28.2519054,           3.,   51.0942726
   3183,   34.0245171,           3.,    52.829319
   3184,   29.0057583,           3.,   53.1791153
   3185,   37.3016167,           3.,   52.2721786
   3186,   30.8459568,           3.,   48.1337814
   3187,   37.5935478,           3.,    76.365387
   3188,   35.7007408,           3.,   77.5998535
   3189,   36.5526581,           3.,   26.2779942
   3190,   32.6173592,           3.,   25.4151535
   3191,   28.6381111,           3.,   26.3364983
   3192,   25.3941898,           3.,   29.1225357
   3193,   30.8019142,           3.,   74.7542038
   3194,   36.3091774,           3.,   70.7726288
   3195,   41.1140327,           3.,    33.583416
   3196,   35.7763786,           3.,    28.135746
   3197,   32.4396095,           3.,   27.3184891
   3198,   29.5573635,           3.,   28.0138321
   3199,   27.1048393,           3.,   30.7011929
   3200,   24.9730968,           3.,   34.9972649
   3201,   25.6657143,           3.,   67.1950302
   3202,   28.6628227,           3.,   70.4281311
   3203,   36.1281815,           3.,    67.161026
   3204,   33.1101646,           3.,   70.4627075
   3205,   33.0951729,           3.,   67.3279572
   3206,   28.7017727,           3.,   67.1404724
   3207,   25.4617767,           3.,   64.2270508
   3208,   21.9800339,           3.,   61.0507736
   3209,   30.8850765,           3.,   68.8059845
   3210,   41.2441788,           3.,   39.3864899
   3211,   37.1356583,           3.,   31.7583656
   3212,   26.6214104,           3.,   36.6761856
   3213,   24.5088139,           3.,   39.7677078
   3214,   29.5326118,           3.,   63.8859558
   3215,   29.0016937,           3.,   61.6118927
   3216,    31.052103,           3.,   63.0994148
   3217,   39.5305595,           3.,   55.0216827
   3218,   39.8451309,           3.,   50.6602554
   3219,    39.418499,           3.,   46.1473656
   3220,   29.3761883,           3.,   41.5743484
   3221,   26.7800503,           3.,   44.1478004
   3222,   39.5841484,           3.,   37.3409462
   3223,   26.7693729,           3.,   53.6653824
   3224,    26.388216,           3.,   46.4751167
   3225,   38.5553513,           3.,   57.8505402
   3226,   32.4059296,           3.,   59.6345558
   3227,   28.5802422,           3.,    59.731472
   3228,   36.8198204,           3.,   36.5500145
   3229,   38.5496216,           3.,    38.827282
   3230,   28.2660351,           3.,    49.089016
   3231,   34.6045685,           3.,   43.5706329
   3232,   36.8660393,           3.,   43.6677284
   3233,   36.6087227,           3.,    39.505085
   3234,   35.2368279,           3.,   50.7404442
   3235,   33.0260963,           3.,   49.2205124
   3236,   37.9749527,           3.,     50.56493
   3237,   33.6914444,           3.,   46.7883492
   3238,   35.0569992,           3.,   45.5107498
   3239,   30.2348843,           3.,   49.7392235
   3240,   29.7386932,           3.,   50.9975395
   3241,   29.9750156,           0.,   20.3451309
   3242,    27.095583,           0.,   21.3371277
   3243,   24.4627323,           0.,   22.8705158
   3244,    20.085886,           0.,   27.0924091
   3245,     18.34025,           0.,   29.5927353
   3246,   15.6555128,           0.,   35.0624733
   3247,    13.415472,           0.,   43.9169006
   3248,          13.,           0.,   50.0000496
   3249,   13.4154854,           0.,   56.0831985
   3250,   15.6555481,           0.,   64.9376221
   3251,   18.3403015,           0.,   70.4073486
   3252,    20.085947,           0.,   72.9076691
   3253,   24.4627781,           0.,   77.1295166
   3254,   27.0956306,           0.,   78.6628952
   3255,   29.9750633,           0.,   79.6548843
   3256,          33.,           0.,          20.
   3257,          33.,           0.,          80.
   3258,   36.0249863,           0.,   79.6548691
   3259,   38.9044151,           0.,   78.6628723
   3260,   41.5372658,           0.,   77.1294861
   3261,   45.9141159,           0.,   72.9075928
   3262,   47.6597481,           0.,   70.4072647
   3263,   50.3444862,           0.,   64.9375305
   3264,   52.5845299,           0.,   56.0830994
   3265,          53.,           0.,   49.9999504
   3266,   52.5845146,           0.,   43.9168015
   3267,   50.3444519,           0.,   35.0623779
   3268,   47.6596985,           0.,   29.5926533
   3269,   45.9140511,           0.,   27.0923309
   3270,   41.5372238,           0.,   22.8704834
   3271,   38.9043694,           0.,   21.3371067
   3272,   36.0249367,           0.,   20.3451195
   3273,   22.1232681,           0.,   24.8242664
   3274,   16.8693237,           0.,   32.2643623
   3275,   14.6832371,           0.,   37.9535713
   3276,    13.939785,           0.,   40.9119034
   3277,   13.1035376,           0.,   46.9513474
   3278,   13.1035442,           0.,    53.048748
   3279,    13.939806,           0.,    59.088192
   3280,   14.6832647,           0.,    62.046524
   3281,   16.8693657,           0.,   67.7357254
   3282,   22.1233082,           0.,   75.1757736
   3283,   43.8767319,           0.,   75.1757355
   3284,   49.1306763,           0.,   67.7356415
   3285,    51.316761,           0.,   62.0464287
   3286,    52.060215,           0.,   59.0880966
   3287,   52.8964615,           0.,   53.0486526
   3288,   52.8964539,           0.,    46.951252
   3289,   52.0601959,           0.,    40.911808
   3290,   51.3167343,           0.,    37.953476
   3291,   49.1306343,           0.,   32.2642746
   3292,   43.8766899,           0.,   24.8242264
   3293,   35.2298889,           0.,   23.1984615
   3294,   20.4570503,           0.,   31.3369122
   3295,   46.6730194,           0.,    33.252388
   3296,   16.5533028,           0.,   41.7955284
   3297,   50.0400925,           0.,   46.7889481
   3298,   50.0673599,           0.,   52.4844589
   3299,   17.1770935,           0.,   61.5136795
   3300,   46.6494408,           0.,   66.2046814
   3301,   22.1052074,           0.,   71.0997238
   3302,   41.8038635,           0.,   72.9968567
   3303,   28.1828575,           0.,   76.0426025
   3304,   30.6447296,           0.,   76.8130264
   3305,   33.5107384,           0.,   76.5985718
   3306,   35.9339676,           0.,   74.4850311
   3307,   39.7629509,           0.,   74.8180466
   3308,   23.9128456,           0.,   73.0552368
   3309,    45.260479,           0.,   68.6413727
   3310,   19.1435146,           0.,   66.5725861
   3311,    16.606966,           0.,   58.8154831
   3312,   15.9526415,           0.,   53.1909065
   3313,   15.8824272,           0.,   47.4536209
   3314,   17.1885414,           0.,    39.043087
   3315,   19.1558971,           0.,   33.7840691
   3316,   43.7848396,           0.,   28.7325592
   3317,   23.6976719,           0.,   27.0323467
   3318,   37.6279945,           0.,   23.9462585
   3319,   21.9855061,           0.,   29.0968304
   3320,   18.0608215,           0.,   36.3642044
   3321,   49.2940331,           0.,   41.1765022
   3322,   16.1116581,           0.,   44.6017036
   3323,   15.8250637,           0.,   50.3196259
   3324,    16.206522,           0.,   56.0279121
   3325,   48.6924019,           0.,   60.9169769
   3326,   17.9767151,           0.,    64.108963
   3327,   20.5047836,           0.,   68.9114838
   3328,   25.9560127,           0.,    74.734848
   3329,   43.6397972,           0.,   70.9107056
   3330,   47.7911758,           0.,   63.6094627
   3331,   49.3568611,           0.,    58.140377
   3332,   49.8132744,           0.,   55.3227539
   3333,   50.1526871,           0.,   49.6321831
   3334,   49.7709999,           0.,   43.9702225
   3335,   48.6431351,           0.,   38.4496384
   3336,   47.7798462,           0.,   35.7961159
   3337,   45.3624268,           0.,   30.8999939
   3338,   39.9014206,           0.,   25.1751041
   3339,   38.4278908,           0.,   27.3225994
   3340,   29.2505646,           0.,   73.7055588
   3341,   27.3673935,           0.,   72.4830399
   3342,   37.9883919,           0.,   72.7471848
   3343,   25.5790176,           0.,   70.9442749
   3344,    39.831852,           0.,   70.9426956
   3345,    26.976965,           0.,   27.5720348
   3346,   23.9780636,           0.,   69.1934433
   3347,   24.0299911,           0.,   31.1150627
   3348,   41.5061607,           0.,   68.9794998
   3349,   22.7052479,           0.,   33.1463318
   3350,   42.9987068,           0.,   66.8800354
   3351,   43.1580048,           0.,   32.2201118
   3352,   22.5213356,           0.,   67.3223801
   3353,   44.3611374,           0.,   34.2434273
   3354,   21.1884995,           0.,    65.351387
   3355,   44.2910881,           0.,   64.6571274
   3356,   21.4741039,           0.,   35.3257484
   3357,   45.3731155,           0.,   36.5341988
   3358,   20.0984821,           0.,   63.3377953
   3359,   20.4319611,           0.,   37.6162834
   3360,   45.3556976,           0.,   62.3061447
   3361,   46.1257286,           0.,   38.9348259
   3362,   19.5682163,           0.,     61.09235
   3363,     46.17696,           0.,   59.8231087
   3364,   19.6441994,           0.,   40.0624466
   3365,    46.659977,           0.,   41.4290199
   3366,   19.2696419,           0.,   58.6330948
   3367,   46.7590561,           0.,   57.2337112
   3368,   19.0930805,           0.,   42.5710716
   3369,   47.0355186,           0.,   44.0046234
   3370,   18.9781055,           0.,   56.0168648
   3371,   47.1419945,           0.,   54.6037941
   3372,   18.7357635,           0.,   45.1917572
   3373,   47.3483658,           0.,   51.9430046
   3374,   18.5629845,           0.,   47.8785248
   3375,   47.2773933,           0.,   46.6244431
   3376,   18.7200165,           0.,   53.3207169
   3377,   47.3942909,           0.,   49.2757759
   3378,   18.5624676,           0.,    50.603096
   3379,    30.259304,           0.,   23.1705284
   3380,   27.8521633,           0.,   23.9805584
   3381,    32.786644,           0.,   22.9029446
   3382,   25.7019634,           0.,   25.2896709
   3383,   41.9629555,           0.,   26.7987347
   3384,   34.5407333,           0.,   25.7996216
   3385,   27.1182175,           0.,   68.9016647
   3386,   37.9515305,           0.,   68.9892349
   3387,   30.5744743,           0.,   25.6376686
   3388,   28.8751526,           0.,   29.8509731
   3389,   24.2644939,           0.,   65.6617584
   3390,   39.4683342,           0.,   67.0804214
   3391,   40.8387947,           0.,   65.0889587
   3392,   26.7863464,           0.,   33.1728821
   3393,    42.338871,           0.,   35.1894417
   3394,    22.995245,           0.,   63.8894196
   3395,   43.2096786,           0.,   37.1935806
   3396,   42.0297928,           0.,   63.0641098
   3397,   21.7352524,           0.,    62.749115
   3398,   23.7637959,           0.,   36.9400597
   3399,   43.7055893,           0.,    39.305603
   3400,   43.0122528,           0.,   60.9972153
   3401,   22.6931839,           0.,   38.7998962
   3402,   21.9802685,           0.,   58.6512871
   3403,   22.0440807,           0.,   40.9488564
   3404,   44.0562363,           0.,   41.5735207
   3405,   43.7808647,           0.,   58.7634735
   3406,   21.7366829,           0.,   56.0787888
   3407,   21.6134186,           0.,   43.2461586
   3408,   44.3434067,           0.,    43.965271
   3409,   44.2881088,           0.,   56.3836784
   3410,   44.5689354,           0.,   46.4370689
   3411,   44.5913391,           0.,   53.9445686
   3412,   21.4469013,           0.,   53.4764633
   3413,   21.3120117,           0.,   45.6868134
   3414,   44.7098198,           0.,   48.9346962
   3415,   44.7356148,           0.,   51.4473801
   3416,   21.1774864,           0.,   48.2474365
   3417,   21.2321167,           0.,   50.8668022
   3418,   40.1745033,           0.,   28.6882305
   3419,   27.3638897,           0.,   64.8150558
   3420,   38.6932716,           0.,   63.2661514
   3421,   28.3316441,           0.,   36.1577072
   3422,   41.1911659,           0.,   37.5593529
   3423,   39.7603493,           0.,   61.3570061
   3424,   24.5382042,           0.,   61.8899002
   3425,   41.4323616,           0.,   41.5545158
   3426,   40.7257347,           0.,   59.5978622
   3427,   26.2227859,           0.,   38.8305817
   3428,   24.5318241,           0.,   58.8894768
   3429,   41.7058067,           0.,   43.8800354
   3430,   41.5627174,           0.,   57.7380142
   3431,   24.4461765,           0.,    41.607254
   3432,    24.486824,           0.,   56.2420769
   3433,   41.9455452,           0.,   46.2727165
   3434,   24.1666527,           0.,   43.7927437
   3435,   24.1311913,           0.,   53.6443939
   3436,   41.9341393,           0.,   55.6113052
   3437,   23.8670311,           0.,   46.1065674
   3438,   23.8018913,           0.,   51.0779877
   3439,   42.1323891,           0.,   53.3672829
   3440,   42.1204567,           0.,   48.6403198
   3441,   23.7161045,           0.,   48.5511742
   3442,   42.2200165,           0.,   51.0121613
   3443,   34.4459457,           0.,   72.4494934
   3444,   39.8169022,           0.,   31.9585323
   3445,   37.4126778,           0.,   59.4230576
   3446,   26.8620396,           0.,   59.1682243
   3447,   39.2112732,           0.,   43.7804718
   3448,   26.7995777,           0.,   41.6393852
   3449,   39.7752838,           0.,   56.8871956
   3450,   27.6322765,           0.,   56.4825134
   3451,   26.1002903,           0.,   48.7901268
   3452,   39.5555992,           0.,   48.4135056
   3453,   26.2168846,           0.,   51.1596413
   3454,   39.6887512,           0.,   52.8789101
   3455,   29.5085411,           0.,   68.7704086
   3456,   40.9394455,           0.,   36.0396919
   3457,   34.7007332,           0.,     68.91922
   3458,   30.9264431,           0.,   66.1856537
   3459,   39.1172905,           0.,   35.3504791
   3460,   26.9174976,           0.,   61.8150711
   3461,   37.8518257,           0.,   33.3850365
   3462,   38.9509506,           0.,   41.4390945
   3463,   32.2640419,           0.,   68.8226166
   3464,   37.4644775,           0.,   65.2379761
   3465,   30.8650894,           0.,   71.5005112
   3466,   36.9193497,           0.,   29.2947922
   3467,   32.4634933,           0.,   73.8507233
   3468,   29.8351727,           0.,   58.6326981
   3469,   35.4549408,           0.,   63.5692291
   3470,   36.6233826,           0.,   41.4300232
   3471,   35.6482735,           0.,   34.1962585
   3472,   41.7752571,           0.,   30.3696976
   3473,   34.2850456,           0.,   65.5180893
   3474,    32.495266,           0.,     64.19767
   3475,   38.4731674,           0.,   30.4168186
   3476,   33.8004532,           0.,   28.5802727
   3477,   34.4093933,           0.,   38.1263657
   3478,    31.204258,           0.,   61.0132217
   3479,   34.2902794,           0.,   41.1476212
   3480,   35.0429382,           0.,   31.3149853
   3481,   36.4704704,           0.,   61.4890556
   3482,   33.4260788,           0.,    62.227623
   3483,   30.9817219,           0.,   27.7963696
   3484,    33.211422,           0.,   35.0252151
   3485,   31.5110893,           0.,   29.7243919
   3486,   31.7536335,           0.,     57.66819
   3487,   31.4871025,           0.,   38.4802361
   3488,     32.46912,           0.,   43.9770584
   3489,   32.3174782,           0.,   32.1934662
   3490,   31.9007587,           0.,   41.2907066
   3491,   30.6531124,           0.,   35.5962181
   3492,   29.6950054,           0.,   32.7314949
   3493,   34.5554504,           0.,   57.2206192
   3494,   29.7920914,           0.,   44.6156235
   3495,   37.0106888,           0.,   45.9838295
   3496,    30.251791,           0.,   55.3745003
   3497,   36.6805038,           0.,   48.5069923
   3498,   28.9423904,           0.,   38.8007965
   3499,   34.2125816,           0.,   60.1016312
   3500,   32.4381409,           0.,   54.3419609
   3501,   31.4640541,           0.,   46.6273117
   3502,   30.8045063,           0.,     52.34338
   3503,   32.0543785,           0.,   51.0084305
   3504,   36.6140747,           0.,   55.0438194
   3505,   28.7308064,           0.,   47.0539856
   3506,   28.2519054,           0.,   51.0942726
   3507,   34.0245171,           0.,    52.829319
   3508,   29.0057583,           0.,   53.1791153
   3509,   37.3016167,           0.,   52.2721786
   3510,   30.8459568,           0.,   48.1337814
   3511,   37.5935478,           0.,    76.365387
   3512,   35.7007408,           0.,   77.5998535
   3513,   36.5526581,           0.,   26.2779942
   3514,   32.6173592,           0.,   25.4151535
   3515,   28.6381111,           0.,   26.3364983
   3516,   25.3941898,           0.,   29.1225357
   3517,   30.8019142,           0.,   74.7542038
   3518,   36.3091774,           0.,   70.7726288
   3519,   41.1140327,           0.,    33.583416
   3520,   35.7763786,           0.,    28.135746
   3521,   32.4396095,           0.,   27.3184891
   3522,   29.5573635,           0.,   28.0138321
   3523,   27.1048393,           0.,   30.7011929
   3524,   24.9730968,           0.,   34.9972649
   3525,   25.6657143,           0.,   67.1950302
   3526,   28.6628227,           0.,   70.4281311
   3527,   36.1281815,           0.,    67.161026
   3528,   33.1101646,           0.,   70.4627075
   3529,   33.0951729,           0.,   67.3279572
   3530,   28.7017727,           0.,   67.1404724
   3531,   25.4617767,           0.,   64.2270508
   3532,   21.9800339,           0.,   61.0507736
   3533,   30.8850765,           0.,   68.8059845
   3534,   41.2441788,           0.,   39.3864899
   3535,   37.1356583,           0.,   31.7583656
   3536,   26.6214104,           0.,   36.6761856
   3537,   24.5088139,           0.,   39.7677078
   3538,   29.5326118,           0.,   63.8859558
   3539,   29.0016937,           0.,   61.6118927
   3540,    31.052103,           0.,   63.0994148
   3541,   39.5305595,           0.,   55.0216827
   3542,   39.8451309,           0.,   50.6602554
   3543,    39.418499,           0.,   46.1473656
   3544,   29.3761883,           0.,   41.5743484
   3545,   26.7800503,           0.,   44.1478004
   3546,   39.5841484,           0.,   37.3409462
   3547,   26.7693729,           0.,   53.6653824
   3548,    26.388216,           0.,   46.4751167
   3549,   38.5553513,           0.,   57.8505402
   3550,   32.4059296,           0.,   59.6345558
   3551,   28.5802422,           0.,    59.731472
   3552,   36.8198204,           0.,   36.5500145
   3553,   38.5496216,           0.,    38.827282
   3554,   28.2660351,           0.,    49.089016
   3555,   34.6045685,           0.,   43.5706329
   3556,   36.8660393,           0.,   43.6677284
   3557,   36.6087227,           0.,    39.505085
   3558,   35.2368279,           0.,   50.7404442
   3559,   33.0260963,           0.,   49.2205124
   3560,   37.9749527,           0.,     50.56493
   3561,   33.6914444,           0.,   46.7883492
   3562,   35.0569992,           0.,   45.5107498
   3563,   30.2348843,           0.,   49.7392235
   3564,   29.7386932,           0.,   50.9975395
   3565,   29.9750156,          -3.,   20.3451309
   3566,    27.095583,          -3.,   21.3371277
   3567,   24.4627323,          -3.,   22.8705158
   3568,    20.085886,          -3.,   27.0924091
   3569,     18.34025,          -3.,   29.5927353
   3570,   15.6555128,          -3.,   35.0624733
   3571,    13.415472,          -3.,   43.9169006
   3572,          13.,          -3.,   50.0000496
   3573,   13.4154854,          -3.,   56.0831985
   3574,   15.6555481,          -3.,   64.9376221
   3575,   18.3403015,          -3.,   70.4073486
   3576,    20.085947,          -3.,   72.9076691
   3577,   24.4627781,          -3.,   77.1295166
   3578,   27.0956306,          -3.,   78.6628952
   3579,   29.9750633,          -3.,   79.6548843
   3580,          33.,          -3.,          20.
   3581,          33.,          -3.,          80.
   3582,   36.0249863,          -3.,   79.6548691
   3583,   38.9044151,          -3.,   78.6628723
   3584,   41.5372658,          -3.,   77.1294861
   3585,   45.9141159,          -3.,   72.9075928
   3586,   47.6597481,          -3.,   70.4072647
   3587,   50.3444862,          -3.,   64.9375305
   3588,   52.5845299,          -3.,   56.0830994
   3589,          53.,          -3.,   49.9999504
   3590,   52.5845146,          -3.,   43.9168015
   3591,   50.3444519,          -3.,   35.0623779
   3592,   47.6596985,          -3.,   29.5926533
   3593,   45.9140511,          -3.,   27.0923309
   3594,   41.5372238,          -3.,   22.8704834
   3595,   38.9043694,          -3.,   21.3371067
   3596,   36.0249367,          -3.,   20.3451195
   3597,   22.1232681,          -3.,   24.8242664
   3598,   16.8693237,          -3.,   32.2643623
   3599,   14.6832371,          -3.,   37.9535713
   3600,    13.939785,          -3.,   40.9119034
   3601,   13.1035376,          -3.,   46.9513474
   3602,   13.1035442,          -3.,    53.048748
   3603,    13.939806,          -3.,    59.088192
   3604,   14.6832647,          -3.,    62.046524
   3605,   16.8693657,          -3.,   67.7357254
   3606,   22.1233082,          -3.,   75.1757736
   3607,   43.8767319,          -3.,   75.1757355
   3608,   49.1306763,          -3.,   67.7356415
   3609,    51.316761,          -3.,   62.0464287
   3610,    52.060215,          -3.,   59.0880966
   3611,   52.8964615,          -3.,   53.0486526
   3612,   52.8964539,          -3.,    46.951252
   3613,   52.0601959,          -3.,    40.911808
   3614,   51.3167343,          -3.,    37.953476
   3615,   49.1306343,          -3.,   32.2642746
   3616,   43.8766899,          -3.,   24.8242264
   3617,   35.2298889,          -3.,   23.1984615
   3618,   20.4570503,          -3.,   31.3369122
   3619,   46.6730194,          -3.,    33.252388
   3620,   16.5533028,          -3.,   41.7955284
   3621,   50.0400925,          -3.,   46.7889481
   3622,   50.0673599,          -3.,   52.4844589
   3623,   17.1770935,          -3.,   61.5136795
   3624,   46.6494408,          -3.,   66.2046814
   3625,   22.1052074,          -3.,   71.0997238
   3626,   41.8038635,          -3.,   72.9968567
   3627,   28.1828575,          -3.,   76.0426025
   3628,   30.6447296,          -3.,   76.8130264
   3629,   33.5107384,          -3.,   76.5985718
   3630,   35.9339676,          -3.,   74.4850311
   3631,   39.7629509,          -3.,   74.8180466
   3632,   23.9128456,          -3.,   73.0552368
   3633,    45.260479,          -3.,   68.6413727
   3634,   19.1435146,          -3.,   66.5725861
   3635,    16.606966,          -3.,   58.8154831
   3636,   15.9526415,          -3.,   53.1909065
   3637,   15.8824272,          -3.,   47.4536209
   3638,   17.1885414,          -3.,    39.043087
   3639,   19.1558971,          -3.,   33.7840691
   3640,   43.7848396,          -3.,   28.7325592
   3641,   23.6976719,          -3.,   27.0323467
   3642,   37.6279945,          -3.,   23.9462585
   3643,   21.9855061,          -3.,   29.0968304
   3644,   18.0608215,          -3.,   36.3642044
   3645,   49.2940331,          -3.,   41.1765022
   3646,   16.1116581,          -3.,   44.6017036
   3647,   15.8250637,          -3.,   50.3196259
   3648,    16.206522,          -3.,   56.0279121
   3649,   48.6924019,          -3.,   60.9169769
   3650,   17.9767151,          -3.,    64.108963
   3651,   20.5047836,          -3.,   68.9114838
   3652,   25.9560127,          -3.,    74.734848
   3653,   43.6397972,          -3.,   70.9107056
   3654,   47.7911758,          -3.,   63.6094627
   3655,   49.3568611,          -3.,    58.140377
   3656,   49.8132744,          -3.,   55.3227539
   3657,   50.1526871,          -3.,   49.6321831
   3658,   49.7709999,          -3.,   43.9702225
   3659,   48.6431351,          -3.,   38.4496384
   3660,   47.7798462,          -3.,   35.7961159
   3661,   45.3624268,          -3.,   30.8999939
   3662,   39.9014206,          -3.,   25.1751041
   3663,   38.4278908,          -3.,   27.3225994
   3664,   29.2505646,          -3.,   73.7055588
   3665,   27.3673935,          -3.,   72.4830399
   3666,   37.9883919,          -3.,   72.7471848
   3667,   25.5790176,          -3.,   70.9442749
   3668,    39.831852,          -3.,   70.9426956
   3669,    26.976965,          -3.,   27.5720348
   3670,   23.9780636,          -3.,   69.1934433
   3671,   24.0299911,          -3.,   31.1150627
   3672,   41.5061607,          -3.,   68.9794998
   3673,   22.7052479,          -3.,   33.1463318
   3674,   42.9987068,          -3.,   66.8800354
   3675,   43.1580048,          -3.,   32.2201118
   3676,   22.5213356,          -3.,   67.3223801
   3677,   44.3611374,          -3.,   34.2434273
   3678,   21.1884995,          -3.,    65.351387
   3679,   44.2910881,          -3.,   64.6571274
   3680,   21.4741039,          -3.,   35.3257484
   3681,   45.3731155,          -3.,   36.5341988
   3682,   20.0984821,          -3.,   63.3377953
   3683,   20.4319611,          -3.,   37.6162834
   3684,   45.3556976,          -3.,   62.3061447
   3685,   46.1257286,          -3.,   38.9348259
   3686,   19.5682163,          -3.,     61.09235
   3687,     46.17696,          -3.,   59.8231087
   3688,   19.6441994,          -3.,   40.0624466
   3689,    46.659977,          -3.,   41.4290199
   3690,   19.2696419,          -3.,   58.6330948
   3691,   46.7590561,          -3.,   57.2337112
   3692,   19.0930805,          -3.,   42.5710716
   3693,   47.0355186,          -3.,   44.0046234
   3694,   18.9781055,          -3.,   56.0168648
   3695,   47.1419945,          -3.,   54.6037941
   3696,   18.7357635,          -3.,   45.1917572
   3697,   47.3483658,          -3.,   51.9430046
   3698,   18.5629845,          -3.,   47.8785248
   3699,   47.2773933,          -3.,   46.6244431
   3700,   18.7200165,          -3.,   53.3207169
   3701,   47.3942909,          -3.,   49.2757759
   3702,   18.5624676,          -3.,    50.603096
   3703,    30.259304,          -3.,   23.1705284
   3704,   27.8521633,          -3.,   23.9805584
   3705,    32.786644,          -3.,   22.9029446
   3706,   25.7019634,          -3.,   25.2896709
   3707,   41.9629555,          -3.,   26.7987347
   3708,   34.5407333,          -3.,   25.7996216
   3709,   27.1182175,          -3.,   68.9016647
   3710,   37.9515305,          -3.,   68.9892349
   3711,   30.5744743,          -3.,   25.6376686
   3712,   28.8751526,          -3.,   29.8509731
   3713,   24.2644939,          -3.,   65.6617584
   3714,   39.4683342,          -3.,   67.0804214
   3715,   40.8387947,          -3.,   65.0889587
   3716,   26.7863464,          -3.,   33.1728821
   3717,    42.338871,          -3.,   35.1894417
   3718,    22.995245,          -3.,   63.8894196
   3719,   43.2096786,          -3.,   37.1935806
   3720,   42.0297928,          -3.,   63.0641098
   3721,   21.7352524,          -3.,    62.749115
   3722,   23.7637959,          -3.,   36.9400597
   3723,   43.7055893,          -3.,    39.305603
   3724,   43.0122528,          -3.,   60.9972153
   3725,   22.6931839,          -3.,   38.7998962
   3726,   21.9802685,          -3.,   58.6512871
   3727,   22.0440807,          -3.,   40.9488564
   3728,   44.0562363,          -3.,   41.5735207
   3729,   43.7808647,          -3.,   58.7634735
   3730,   21.7366829,          -3.,   56.0787888
   3731,   21.6134186,          -3.,   43.2461586
   3732,   44.3434067,          -3.,    43.965271
   3733,   44.2881088,          -3.,   56.3836784
   3734,   44.5689354,          -3.,   46.4370689
   3735,   44.5913391,          -3.,   53.9445686
   3736,   21.4469013,          -3.,   53.4764633
   3737,   21.3120117,          -3.,   45.6868134
   3738,   44.7098198,          -3.,   48.9346962
   3739,   44.7356148,          -3.,   51.4473801
   3740,   21.1774864,          -3.,   48.2474365
   3741,   21.2321167,          -3.,   50.8668022
   3742,   40.1745033,          -3.,   28.6882305
   3743,   27.3638897,          -3.,   64.8150558
   3744,   38.6932716,          -3.,   63.2661514
   3745,   28.3316441,          -3.,   36.1577072
   3746,   41.1911659,          -3.,   37.5593529
   3747,   39.7603493,          -3.,   61.3570061
   3748,   24.5382042,          -3.,   61.8899002
   3749,   41.4323616,          -3.,   41.5545158
   3750,   40.7257347,          -3.,   59.5978622
   3751,   26.2227859,          -3.,   38.8305817
   3752,   24.5318241,          -3.,   58.8894768
   3753,   41.7058067,          -3.,   43.8800354
   3754,   41.5627174,          -3.,   57.7380142
   3755,   24.4461765,          -3.,    41.607254
   3756,    24.486824,          -3.,   56.2420769
   3757,   41.9455452,          -3.,   46.2727165
   3758,   24.1666527,          -3.,   43.7927437
   3759,   24.1311913,          -3.,   53.6443939
   3760,   41.9341393,          -3.,   55.6113052
   3761,   23.8670311,          -3.,   46.1065674
   3762,   23.8018913,          -3.,   51.0779877
   3763,   42.1323891,          -3.,   53.3672829
   3764,   42.1204567,          -3.,   48.6403198
   3765,   23.7161045,          -3.,   48.5511742
   3766,   42.2200165,          -3.,   51.0121613
   3767,   34.4459457,          -3.,   72.4494934
   3768,   39.8169022,          -3.,   31.9585323
   3769,   37.4126778,          -3.,   59.4230576
   3770,   26.8620396,          -3.,   59.1682243
   3771,   39.2112732,          -3.,   43.7804718
   3772,   26.7995777,          -3.,   41.6393852
   3773,   39.7752838,          -3.,   56.8871956
   3774,   27.6322765,          -3.,   56.4825134
   3775,   26.1002903,          -3.,   48.7901268
   3776,   39.5555992,          -3.,   48.4135056
   3777,   26.2168846,          -3.,   51.1596413
   3778,   39.6887512,          -3.,   52.8789101
   3779,   29.5085411,          -3.,   68.7704086
   3780,   40.9394455,          -3.,   36.0396919
   3781,   34.7007332,          -3.,     68.91922
   3782,   30.9264431,          -3.,   66.1856537
   3783,   39.1172905,          -3.,   35.3504791
   3784,   26.9174976,          -3.,   61.8150711
   3785,   37.8518257,          -3.,   33.3850365
   3786,   38.9509506,          -3.,   41.4390945
   3787,   32.2640419,          -3.,   68.8226166
   3788,   37.4644775,          -3.,   65.2379761
   3789,   30.8650894,          -3.,   71.5005112
   3790,   36.9193497,          -3.,   29.2947922
   3791,   32.4634933,          -3.,   73.8507233
   3792,   29.8351727,          -3.,   58.6326981
   3793,   35.4549408,          -3.,   63.5692291
   3794,   36.6233826,          -3.,   41.4300232
   3795,   35.6482735,          -3.,   34.1962585
   3796,   41.7752571,          -3.,   30.3696976
   3797,   34.2850456,          -3.,   65.5180893
   3798,    32.495266,          -3.,     64.19767
   3799,   38.4731674,          -3.,   30.4168186
   3800,   33.8004532,          -3.,   28.5802727
   3801,   34.4093933,          -3.,   38.1263657
   3802,    31.204258,          -3.,   61.0132217
   3803,   34.2902794,          -3.,   41.1476212
   3804,   35.0429382,          -3.,   31.3149853
   3805,   36.4704704,          -3.,   61.4890556
   3806,   33.4260788,          -3.,    62.227623
   3807,   30.9817219,          -3.,   27.7963696
   3808,    33.211422,          -3.,   35.0252151
   3809,   31.5110893,          -3.,   29.7243919
   3810,   31.7536335,          -3.,     57.66819
   3811,   31.4871025,          -3.,   38.4802361
   3812,     32.46912,          -3.,   43.9770584
   3813,   32.3174782,          -3.,   32.1934662
   3814,   31.9007587,          -3.,   41.2907066
   3815,   30.6531124,          -3.,   35.5962181
   3816,   29.6950054,          -3.,   32.7314949
   3817,   34.5554504,          -3.,   57.2206192
   3818,   29.7920914,          -3.,   44.6156235
   3819,   37.0106888,          -3.,   45.9838295
   3820,    30.251791,          -3.,   55.3745003
   3821,   36.6805038,          -3.,   48.5069923
   3822,   28.9423904,          -3.,   38.8007965
   3823,   34.2125816,          -3.,   60.1016312
   3824,   32.4381409,          -3.,   54.3419609
   3825,   31.4640541,          -3.,   46.6273117
   3826,   30.8045063,          -3.,     52.34338
   3827,   32.0543785,          -3.,   51.0084305
   3828,   36.6140747,          -3.,   55.0438194
   3829,   28.7308064,          -3.,   47.0539856
   3830,   28.2519054,          -3.,   51.0942726
   3831,   34.0245171,          -3.,    52.829319
   3832,   29.0057583,          -3.,   53.1791153
   3833,   37.3016167,          -3.,   52.2721786
   3834,   30.8459568,          -3.,   48.1337814
   3835,   37.5935478,          -3.,    76.365387
   3836,   35.7007408,          -3.,   77.5998535
   3837,   36.5526581,          -3.,   26.2779942
   3838,   32.6173592,          -3.,   25.4151535
   3839,   28.6381111,          -3.,   26.3364983
   3840,   25.3941898,          -3.,   29.1225357
   3841,   30.8019142,          -3.,   74.7542038
   3842,   36.3091774,          -3.,   70.7726288
   3843,   41.1140327,          -3.,    33.583416
   3844,   35.7763786,          -3.,    28.135746
   3845,   32.4396095,          -3.,   27.3184891
   3846,   29.5573635,          -3.,   28.0138321
   3847,   27.1048393,          -3.,   30.7011929
   3848,   24.9730968,          -3.,   34.9972649
   3849,   25.6657143,          -3.,   67.1950302
   3850,   28.6628227,          -3.,   70.4281311
   3851,   36.1281815,          -3.,    67.161026
   3852,   33.1101646,          -3.,   70.4627075
   3853,   33.0951729,          -3.,   67.3279572
   3854,   28.7017727,          -3.,   67.1404724
   3855,   25.4617767,          -3.,   64.2270508
   3856,   21.9800339,          -3.,   61.0507736
   3857,   30.8850765,          -3.,   68.8059845
   3858,   41.2441788,          -3.,   39.3864899
   3859,   37.1356583,          -3.,   31.7583656
   3860,   26.6214104,          -3.,   36.6761856
   3861,   24.5088139,          -3.,   39.7677078
   3862,   29.5326118,          -3.,   63.8859558
   3863,   29.0016937,          -3.,   61.6118927
   3864,    31.052103,          -3.,   63.0994148
   3865,   39.5305595,          -3.,   55.0216827
   3866,   39.8451309,          -3.,   50.6602554
   3867,    39.418499,          -3.,   46.1473656
   3868,   29.3761883,          -3.,   41.5743484
   3869,   26.7800503,          -3.,   44.1478004
   3870,   39.5841484,          -3.,   37.3409462
   3871,   26.7693729,          -3.,   53.6653824
   3872,    26.388216,          -3.,   46.4751167
   3873,   38.5553513,          -3.,   57.8505402
   3874,   32.4059296,          -3.,   59.6345558
   3875,   28.5802422,          -3.,    59.731472
   3876,   36.8198204,          -3.,   36.5500145
   3877,   38.5496216,          -3.,    38.827282
   3878,   28.2660351,          -3.,    49.089016
   3879,   34.6045685,          -3.,   43.5706329
   3880,   36.8660393,          -3.,   43.6677284
   3881,   36.6087227,          -3.,    39.505085
   3882,   35.2368279,          -3.,   50.7404442
   3883,   33.0260963,          -3.,   49.2205124
   3884,   37.9749527,          -3.,     50.56493
   3885,   33.6914444,          -3.,   46.7883492
   3886,   35.0569992,          -3.,   45.5107498
   3887,   30.2348843,          -3.,   49.7392235
   3888,   29.7386932,          -3.,   50.9975395
   3889,   29.9750156,          -6.,   20.3451309
   3890,    27.095583,          -6.,   21.3371277
   3891,   24.4627323,          -6.,   22.8705158
   3892,    20.085886,          -6.,   27.0924091
   3893,     18.34025,          -6.,   29.5927353
   3894,   15.6555128,          -6.,   35.0624733
   3895,    13.415472,          -6.,   43.9169006
   3896,          13.,          -6.,   50.0000496
   3897,   13.4154854,          -6.,   56.0831985
   3898,   15.6555481,          -6.,   64.9376221
   3899,   18.3403015,          -6.,   70.4073486
   3900,    20.085947,          -6.,   72.9076691
   3901,   24.4627781,          -6.,   77.1295166
   3902,   27.0956306,          -6.,   78.6628952
   3903,   29.9750633,          -6.,   79.6548843
   3904,          33.,          -6.,          20.
   3905,          33.,          -6.,          80.
   3906,   36.0249863,          -6.,   79.6548691
   3907,   38.9044151,          -6.,   78.6628723
   3908,   41.5372658,          -6.,   77.1294861
   3909,   45.9141159,          -6.,   72.9075928
   3910,   47.6597481,          -6.,   70.4072647
   3911,   50.3444862,          -6.,   64.9375305
   3912,   52.5845299,          -6.,   56.0830994
   3913,          53.,          -6.,   49.9999504
   3914,   52.5845146,          -6.,   43.9168015
   3915,   50.3444519,          -6.,   35.0623779
   3916,   47.6596985,          -6.,   29.5926533
   3917,   45.9140511,          -6.,   27.0923309
   3918,   41.5372238,          -6.,   22.8704834
   3919,   38.9043694,          -6.,   21.3371067
   3920,   36.0249367,          -6.,   20.3451195
   3921,   22.1232681,          -6.,   24.8242664
   3922,   16.8693237,          -6.,   32.2643623
   3923,   14.6832371,          -6.,   37.9535713
   3924,    13.939785,          -6.,   40.9119034
   3925,   13.1035376,          -6.,   46.9513474
   3926,   13.1035442,          -6.,    53.048748
   3927,    13.939806,          -6.,    59.088192
   3928,   14.6832647,          -6.,    62.046524
   3929,   16.8693657,          -6.,   67.7357254
   3930,   22.1233082,          -6.,   75.1757736
   3931,   43.8767319,          -6.,   75.1757355
   3932,   49.1306763,          -6.,   67.7356415
   3933,    51.316761,          -6.,   62.0464287
   3934,    52.060215,          -6.,   59.0880966
   3935,   52.8964615,          -6.,   53.0486526
   3936,   52.8964539,          -6.,    46.951252
   3937,   52.0601959,          -6.,    40.911808
   3938,   51.3167343,          -6.,    37.953476
   3939,   49.1306343,          -6.,   32.2642746
   3940,   43.8766899,          -6.,   24.8242264
   3941,   35.2298889,          -6.,   23.1984615
   3942,   20.4570503,          -6.,   31.3369122
   3943,   46.6730194,          -6.,    33.252388
   3944,   16.5533028,          -6.,   41.7955284
   3945,   50.0400925,          -6.,   46.7889481
   3946,   50.0673599,          -6.,   52.4844589
   3947,   17.1770935,          -6.,   61.5136795
   3948,   46.6494408,          -6.,   66.2046814
   3949,   22.1052074,          -6.,   71.0997238
   3950,   41.8038635,          -6.,   72.9968567
   3951,   28.1828575,          -6.,   76.0426025
   3952,   30.6447296,          -6.,   76.8130264
   3953,   33.5107384,          -6.,   76.5985718
   3954,   35.9339676,          -6.,   74.4850311
   3955,   39.7629509,          -6.,   74.8180466
   3956,   23.9128456,          -6.,   73.0552368
   3957,    45.260479,          -6.,   68.6413727
   3958,   19.1435146,          -6.,   66.5725861
   3959,    16.606966,          -6.,   58.8154831
   3960,   15.9526415,          -6.,   53.1909065
   3961,   15.8824272,          -6.,   47.4536209
   3962,   17.1885414,          -6.,    39.043087
   3963,   19.1558971,          -6.,   33.7840691
   3964,   43.7848396,          -6.,   28.7325592
   3965,   23.6976719,          -6.,   27.0323467
   3966,   37.6279945,          -6.,   23.9462585
   3967,   21.9855061,          -6.,   29.0968304
   3968,   18.0608215,          -6.,   36.3642044
   3969,   49.2940331,          -6.,   41.1765022
   3970,   16.1116581,          -6.,   44.6017036
   3971,   15.8250637,          -6.,   50.3196259
   3972,    16.206522,          -6.,   56.0279121
   3973,   48.6924019,          -6.,   60.9169769
   3974,   17.9767151,          -6.,    64.108963
   3975,   20.5047836,          -6.,   68.9114838
   3976,   25.9560127,          -6.,    74.734848
   3977,   43.6397972,          -6.,   70.9107056
   3978,   47.7911758,          -6.,   63.6094627
   3979,   49.3568611,          -6.,    58.140377
   3980,   49.8132744,          -6.,   55.3227539
   3981,   50.1526871,          -6.,   49.6321831
   3982,   49.7709999,          -6.,   43.9702225
   3983,   48.6431351,          -6.,   38.4496384
   3984,   47.7798462,          -6.,   35.7961159
   3985,   45.3624268,          -6.,   30.8999939
   3986,   39.9014206,          -6.,   25.1751041
   3987,   38.4278908,          -6.,   27.3225994
   3988,   29.2505646,          -6.,   73.7055588
   3989,   27.3673935,          -6.,   72.4830399
   3990,   37.9883919,          -6.,   72.7471848
   3991,   25.5790176,          -6.,   70.9442749
   3992,    39.831852,          -6.,   70.9426956
   3993,    26.976965,          -6.,   27.5720348
   3994,   23.9780636,          -6.,   69.1934433
   3995,   24.0299911,          -6.,   31.1150627
   3996,   41.5061607,          -6.,   68.9794998
   3997,   22.7052479,          -6.,   33.1463318
   3998,   42.9987068,          -6.,   66.8800354
   3999,   43.1580048,          -6.,   32.2201118
   4000,   22.5213356,          -6.,   67.3223801
   4001,   44.3611374,          -6.,   34.2434273
   4002,   21.1884995,          -6.,    65.351387
   4003,   44.2910881,          -6.,   64.6571274
   4004,   21.4741039,          -6.,   35.3257484
   4005,   45.3731155,          -6.,   36.5341988
   4006,   20.0984821,          -6.,   63.3377953
   4007,   20.4319611,          -6.,   37.6162834
   4008,   45.3556976,          -6.,   62.3061447
   4009,   46.1257286,          -6.,   38.9348259
   4010,   19.5682163,          -6.,     61.09235
   4011,     46.17696,          -6.,   59.8231087
   4012,   19.6441994,          -6.,   40.0624466
   4013,    46.659977,          -6.,   41.4290199
   4014,   19.2696419,          -6.,   58.6330948
   4015,   46.7590561,          -6.,   57.2337112
   4016,   19.0930805,          -6.,   42.5710716
   4017,   47.0355186,          -6.,   44.0046234
   4018,   18.9781055,          -6.,   56.0168648
   4019,   47.1419945,          -6.,   54.6037941
   4020,   18.7357635,          -6.,   45.1917572
   4021,   47.3483658,          -6.,   51.9430046
   4022,   18.5629845,          -6.,   47.8785248
   4023,   47.2773933,          -6.,   46.6244431
   4024,   18.7200165,          -6.,   53.3207169
   4025,   47.3942909,          -6.,   49.2757759
   4026,   18.5624676,          -6.,    50.603096
   4027,    30.259304,          -6.,   23.1705284
   4028,   27.8521633,          -6.,   23.9805584
   4029,    32.786644,          -6.,   22.9029446
   4030,   25.7019634,          -6.,   25.2896709
   4031,   41.9629555,          -6.,   26.7987347
   4032,   34.5407333,          -6.,   25.7996216
   4033,   27.1182175,          -6.,   68.9016647
   4034,   37.9515305,          -6.,   68.9892349
   4035,   30.5744743,          -6.,   25.6376686
   4036,   28.8751526,          -6.,   29.8509731
   4037,   24.2644939,          -6.,   65.6617584
   4038,   39.4683342,          -6.,   67.0804214
   4039,   40.8387947,          -6.,   65.0889587
   4040,   26.7863464,          -6.,   33.1728821
   4041,    42.338871,          -6.,   35.1894417
   4042,    22.995245,          -6.,   63.8894196
   4043,   43.2096786,          -6.,   37.1935806
   4044,   42.0297928,          -6.,   63.0641098
   4045,   21.7352524,          -6.,    62.749115
   4046,   23.7637959,          -6.,   36.9400597
   4047,   43.7055893,          -6.,    39.305603
   4048,   43.0122528,          -6.,   60.9972153
   4049,   22.6931839,          -6.,   38.7998962
   4050,   21.9802685,          -6.,   58.6512871
   4051,   22.0440807,          -6.,   40.9488564
   4052,   44.0562363,          -6.,   41.5735207
   4053,   43.7808647,          -6.,   58.7634735
   4054,   21.7366829,          -6.,   56.0787888
   4055,   21.6134186,          -6.,   43.2461586
   4056,   44.3434067,          -6.,    43.965271
   4057,   44.2881088,          -6.,   56.3836784
   4058,   44.5689354,          -6.,   46.4370689
   4059,   44.5913391,          -6.,   53.9445686
   4060,   21.4469013,          -6.,   53.4764633
   4061,   21.3120117,          -6.,   45.6868134
   4062,   44.7098198,          -6.,   48.9346962
   4063,   44.7356148,          -6.,   51.4473801
   4064,   21.1774864,          -6.,   48.2474365
   4065,   21.2321167,          -6.,   50.8668022
   4066,   40.1745033,          -6.,   28.6882305
   4067,   27.3638897,          -6.,   64.8150558
   4068,   38.6932716,          -6.,   63.2661514
   4069,   28.3316441,          -6.,   36.1577072
   4070,   41.1911659,          -6.,   37.5593529
   4071,   39.7603493,          -6.,   61.3570061
   4072,   24.5382042,          -6.,   61.8899002
   4073,   41.4323616,          -6.,   41.5545158
   4074,   40.7257347,          -6.,   59.5978622
   4075,   26.2227859,          -6.,   38.8305817
   4076,   24.5318241,          -6.,   58.8894768
   4077,   41.7058067,          -6.,   43.8800354
   4078,   41.5627174,          -6.,   57.7380142
   4079,   24.4461765,          -6.,    41.607254
   4080,    24.486824,          -6.,   56.2420769
   4081,   41.9455452,          -6.,   46.2727165
   4082,   24.1666527,          -6.,   43.7927437
   4083,   24.1311913,          -6.,   53.6443939
   4084,   41.9341393,          -6.,   55.6113052
   4085,   23.8670311,          -6.,   46.1065674
   4086,   23.8018913,          -6.,   51.0779877
   4087,   42.1323891,          -6.,   53.3672829
   4088,   42.1204567,          -6.,   48.6403198
   4089,   23.7161045,          -6.,   48.5511742
   4090,   42.2200165,          -6.,   51.0121613
   4091,   34.4459457,          -6.,   72.4494934
   4092,   39.8169022,          -6.,   31.9585323
   4093,   37.4126778,          -6.,   59.4230576
   4094,   26.8620396,          -6.,   59.1682243
   4095,   39.2112732,          -6.,   43.7804718
   4096,   26.7995777,          -6.,   41.6393852
   4097,   39.7752838,          -6.,   56.8871956
   4098,   27.6322765,          -6.,   56.4825134
   4099,   26.1002903,          -6.,   48.7901268
   4100,   39.5555992,          -6.,   48.4135056
   4101,   26.2168846,          -6.,   51.1596413
   4102,   39.6887512,          -6.,   52.8789101
   4103,   29.5085411,          -6.,   68.7704086
   4104,   40.9394455,          -6.,   36.0396919
   4105,   34.7007332,          -6.,     68.91922
   4106,   30.9264431,          -6.,   66.1856537
   4107,   39.1172905,          -6.,   35.3504791
   4108,   26.9174976,          -6.,   61.8150711
   4109,   37.8518257,          -6.,   33.3850365
   4110,   38.9509506,          -6.,   41.4390945
   4111,   32.2640419,          -6.,   68.8226166
   4112,   37.4644775,          -6.,   65.2379761
   4113,   30.8650894,          -6.,   71.5005112
   4114,   36.9193497,          -6.,   29.2947922
   4115,   32.4634933,          -6.,   73.8507233
   4116,   29.8351727,          -6.,   58.6326981
   4117,   35.4549408,          -6.,   63.5692291
   4118,   36.6233826,          -6.,   41.4300232
   4119,   35.6482735,          -6.,   34.1962585
   4120,   41.7752571,          -6.,   30.3696976
   4121,   34.2850456,          -6.,   65.5180893
   4122,    32.495266,          -6.,     64.19767
   4123,   38.4731674,          -6.,   30.4168186
   4124,   33.8004532,          -6.,   28.5802727
   4125,   34.4093933,          -6.,   38.1263657
   4126,    31.204258,          -6.,   61.0132217
   4127,   34.2902794,          -6.,   41.1476212
   4128,   35.0429382,          -6.,   31.3149853
   4129,   36.4704704,          -6.,   61.4890556
   4130,   33.4260788,          -6.,    62.227623
   4131,   30.9817219,          -6.,   27.7963696
   4132,    33.211422,          -6.,   35.0252151
   4133,   31.5110893,          -6.,   29.7243919
   4134,   31.7536335,          -6.,     57.66819
   4135,   31.4871025,          -6.,   38.4802361
   4136,     32.46912,          -6.,   43.9770584
   4137,   32.3174782,          -6.,   32.1934662
   4138,   31.9007587,          -6.,   41.2907066
   4139,   30.6531124,          -6.,   35.5962181
   4140,   29.6950054,          -6.,   32.7314949
   4141,   34.5554504,          -6.,   57.2206192
   4142,   29.7920914,          -6.,   44.6156235
   4143,   37.0106888,          -6.,   45.9838295
   4144,    30.251791,          -6.,   55.3745003
   4145,   36.6805038,          -6.,   48.5069923
   4146,   28.9423904,          -6.,   38.8007965
   4147,   34.2125816,          -6.,   60.1016312
   4148,   32.4381409,          -6.,   54.3419609
   4149,   31.4640541,          -6.,   46.6273117
   4150,   30.8045063,          -6.,     52.34338
   4151,   32.0543785,          -6.,   51.0084305
   4152,   36.6140747,          -6.,   55.0438194
   4153,   28.7308064,          -6.,   47.0539856
   4154,   28.2519054,          -6.,   51.0942726
   4155,   34.0245171,          -6.,    52.829319
   4156,   29.0057583,          -6.,   53.1791153
   4157,   37.3016167,          -6.,   52.2721786
   4158,   30.8459568,          -6.,   48.1337814
   4159,   37.5935478,          -6.,    76.365387
   4160,   35.7007408,          -6.,   77.5998535
   4161,   36.5526581,          -6.,   26.2779942
   4162,   32.6173592,          -6.,   25.4151535
   4163,   28.6381111,          -6.,   26.3364983
   4164,   25.3941898,          -6.,   29.1225357
   4165,   30.8019142,          -6.,   74.7542038
   4166,   36.3091774,          -6.,   70.7726288
   4167,   41.1140327,          -6.,    33.583416
   4168,   35.7763786,          -6.,    28.135746
   4169,   32.4396095,          -6.,   27.3184891
   4170,   29.5573635,          -6.,   28.0138321
   4171,   27.1048393,          -6.,   30.7011929
   4172,   24.9730968,          -6.,   34.9972649
   4173,   25.6657143,          -6.,   67.1950302
   4174,   28.6628227,          -6.,   70.4281311
   4175,   36.1281815,          -6.,    67.161026
   4176,   33.1101646,          -6.,   70.4627075
   4177,   33.0951729,          -6.,   67.3279572
   4178,   28.7017727,          -6.,   67.1404724
   4179,   25.4617767,          -6.,   64.2270508
   4180,   21.9800339,          -6.,   61.0507736
   4181,   30.8850765,          -6.,   68.8059845
   4182,   41.2441788,          -6.,   39.3864899
   4183,   37.1356583,          -6.,   31.7583656
   4184,   26.6214104,          -6.,   36.6761856
   4185,   24.5088139,          -6.,   39.7677078
   4186,   29.5326118,          -6.,   63.8859558
   4187,   29.0016937,          -6.,   61.6118927
   4188,    31.052103,          -6.,   63.0994148
   4189,   39.5305595,          -6.,   55.0216827
   4190,   39.8451309,          -6.,   50.6602554
   4191,    39.418499,          -6.,   46.1473656
   4192,   29.3761883,          -6.,   41.5743484
   4193,   26.7800503,          -6.,   44.1478004
   4194,   39.5841484,          -6.,   37.3409462
   4195,   26.7693729,          -6.,   53.6653824
   4196,    26.388216,          -6.,   46.4751167
   4197,   38.5553513,          -6.,   57.8505402
   4198,   32.4059296,          -6.,   59.6345558
   4199,   28.5802422,          -6.,    59.731472
   4200,   36.8198204,          -6.,   36.5500145
   4201,   38.5496216,          -6.,    38.827282
   4202,   28.2660351,          -6.,    49.089016
   4203,   34.6045685,          -6.,   43.5706329
   4204,   36.8660393,          -6.,   43.6677284
   4205,   36.6087227,          -6.,    39.505085
   4206,   35.2368279,          -6.,   50.7404442
   4207,   33.0260963,          -6.,   49.2205124
   4208,   37.9749527,          -6.,     50.56493
   4209,   33.6914444,          -6.,   46.7883492
   4210,   35.0569992,          -6.,   45.5107498
   4211,   30.2348843,          -6.,   49.7392235
   4212,   29.7386932,          -6.,   50.9975395
   4213,   29.9750156,          -9.,   20.3451309
   4214,    27.095583,          -9.,   21.3371277
   4215,   24.4627323,          -9.,   22.8705158
   4216,    20.085886,          -9.,   27.0924091
   4217,     18.34025,          -9.,   29.5927353
   4218,   15.6555128,          -9.,   35.0624733
   4219,    13.415472,          -9.,   43.9169006
   4220,          13.,          -9.,   50.0000496
   4221,   13.4154854,          -9.,   56.0831985
   4222,   15.6555481,          -9.,   64.9376221
   4223,   18.3403015,          -9.,   70.4073486
   4224,    20.085947,          -9.,   72.9076691
   4225,   24.4627781,          -9.,   77.1295166
   4226,   27.0956306,          -9.,   78.6628952
   4227,   29.9750633,          -9.,   79.6548843
   4228,          33.,          -9.,          20.
   4229,          33.,          -9.,          80.
   4230,   36.0249863,          -9.,   79.6548691
   4231,   38.9044151,          -9.,   78.6628723
   4232,   41.5372658,          -9.,   77.1294861
   4233,   45.9141159,          -9.,   72.9075928
   4234,   47.6597481,          -9.,   70.4072647
   4235,   50.3444862,          -9.,   64.9375305
   4236,   52.5845299,          -9.,   56.0830994
   4237,          53.,          -9.,   49.9999504
   4238,   52.5845146,          -9.,   43.9168015
   4239,   50.3444519,          -9.,   35.0623779
   4240,   47.6596985,          -9.,   29.5926533
   4241,   45.9140511,          -9.,   27.0923309
   4242,   41.5372238,          -9.,   22.8704834
   4243,   38.9043694,          -9.,   21.3371067
   4244,   36.0249367,          -9.,   20.3451195
   4245,   22.1232681,          -9.,   24.8242664
   4246,   16.8693237,          -9.,   32.2643623
   4247,   14.6832371,          -9.,   37.9535713
   4248,    13.939785,          -9.,   40.9119034
   4249,   13.1035376,          -9.,   46.9513474
   4250,   13.1035442,          -9.,    53.048748
   4251,    13.939806,          -9.,    59.088192
   4252,   14.6832647,          -9.,    62.046524
   4253,   16.8693657,          -9.,   67.7357254
   4254,   22.1233082,          -9.,   75.1757736
   4255,   43.8767319,          -9.,   75.1757355
   4256,   49.1306763,          -9.,   67.7356415
   4257,    51.316761,          -9.,   62.0464287
   4258,    52.060215,          -9.,   59.0880966
   4259,   52.8964615,          -9.,   53.0486526
   4260,   52.8964539,          -9.,    46.951252
   4261,   52.0601959,          -9.,    40.911808
   4262,   51.3167343,          -9.,    37.953476
   4263,   49.1306343,          -9.,   32.2642746
   4264,   43.8766899,          -9.,   24.8242264
   4265,   35.2298889,          -9.,   23.1984615
   4266,   20.4570503,          -9.,   31.3369122
   4267,   46.6730194,          -9.,    33.252388
   4268,   16.5533028,          -9.,   41.7955284
   4269,   50.0400925,          -9.,   46.7889481
   4270,   50.0673599,          -9.,   52.4844589
   4271,   17.1770935,          -9.,   61.5136795
   4272,   46.6494408,          -9.,   66.2046814
   4273,   22.1052074,          -9.,   71.0997238
   4274,   41.8038635,          -9.,   72.9968567
   4275,   28.1828575,          -9.,   76.0426025
   4276,   30.6447296,          -9.,   76.8130264
   4277,   33.5107384,          -9.,   76.5985718
   4278,   35.9339676,          -9.,   74.4850311
   4279,   39.7629509,          -9.,   74.8180466
   4280,   23.9128456,          -9.,   73.0552368
   4281,    45.260479,          -9.,   68.6413727
   4282,   19.1435146,          -9.,   66.5725861
   4283,    16.606966,          -9.,   58.8154831
   4284,   15.9526415,          -9.,   53.1909065
   4285,   15.8824272,          -9.,   47.4536209
   4286,   17.1885414,          -9.,    39.043087
   4287,   19.1558971,          -9.,   33.7840691
   4288,   43.7848396,          -9.,   28.7325592
   4289,   23.6976719,          -9.,   27.0323467
   4290,   37.6279945,          -9.,   23.9462585
   4291,   21.9855061,          -9.,   29.0968304
   4292,   18.0608215,          -9.,   36.3642044
   4293,   49.2940331,          -9.,   41.1765022
   4294,   16.1116581,          -9.,   44.6017036
   4295,   15.8250637,          -9.,   50.3196259
   4296,    16.206522,          -9.,   56.0279121
   4297,   48.6924019,          -9.,   60.9169769
   4298,   17.9767151,          -9.,    64.108963
   4299,   20.5047836,          -9.,   68.9114838
   4300,   25.9560127,          -9.,    74.734848
   4301,   43.6397972,          -9.,   70.9107056
   4302,   47.7911758,          -9.,   63.6094627
   4303,   49.3568611,          -9.,    58.140377
   4304,   49.8132744,          -9.,   55.3227539
   4305,   50.1526871,          -9.,   49.6321831
   4306,   49.7709999,          -9.,   43.9702225
   4307,   48.6431351,          -9.,   38.4496384
   4308,   47.7798462,          -9.,   35.7961159
   4309,   45.3624268,          -9.,   30.8999939
   4310,   39.9014206,          -9.,   25.1751041
   4311,   38.4278908,          -9.,   27.3225994
   4312,   29.2505646,          -9.,   73.7055588
   4313,   27.3673935,          -9.,   72.4830399
   4314,   37.9883919,          -9.,   72.7471848
   4315,   25.5790176,          -9.,   70.9442749
   4316,    39.831852,          -9.,   70.9426956
   4317,    26.976965,          -9.,   27.5720348
   4318,   23.9780636,          -9.,   69.1934433
   4319,   24.0299911,          -9.,   31.1150627
   4320,   41.5061607,          -9.,   68.9794998
   4321,   22.7052479,          -9.,   33.1463318
   4322,   42.9987068,          -9.,   66.8800354
   4323,   43.1580048,          -9.,   32.2201118
   4324,   22.5213356,          -9.,   67.3223801
   4325,   44.3611374,          -9.,   34.2434273
   4326,   21.1884995,          -9.,    65.351387
   4327,   44.2910881,          -9.,   64.6571274
   4328,   21.4741039,          -9.,   35.3257484
   4329,   45.3731155,          -9.,   36.5341988
   4330,   20.0984821,          -9.,   63.3377953
   4331,   20.4319611,          -9.,   37.6162834
   4332,   45.3556976,          -9.,   62.3061447
   4333,   46.1257286,          -9.,   38.9348259
   4334,   19.5682163,          -9.,     61.09235
   4335,     46.17696,          -9.,   59.8231087
   4336,   19.6441994,          -9.,   40.0624466
   4337,    46.659977,          -9.,   41.4290199
   4338,   19.2696419,          -9.,   58.6330948
   4339,   46.7590561,          -9.,   57.2337112
   4340,   19.0930805,          -9.,   42.5710716
   4341,   47.0355186,          -9.,   44.0046234
   4342,   18.9781055,          -9.,   56.0168648
   4343,   47.1419945,          -9.,   54.6037941
   4344,   18.7357635,          -9.,   45.1917572
   4345,   47.3483658,          -9.,   51.9430046
   4346,   18.5629845,          -9.,   47.8785248
   4347,   47.2773933,          -9.,   46.6244431
   4348,   18.7200165,          -9.,   53.3207169
   4349,   47.3942909,          -9.,   49.2757759
   4350,   18.5624676,          -9.,    50.603096
   4351,    30.259304,          -9.,   23.1705284
   4352,   27.8521633,          -9.,   23.9805584
   4353,    32.786644,          -9.,   22.9029446
   4354,   25.7019634,          -9.,   25.2896709
   4355,   41.9629555,          -9.,   26.7987347
   4356,   34.5407333,          -9.,   25.7996216
   4357,   27.1182175,          -9.,   68.9016647
   4358,   37.9515305,          -9.,   68.9892349
   4359,   30.5744743,          -9.,   25.6376686
   4360,   28.8751526,          -9.,   29.8509731
   4361,   24.2644939,          -9.,   65.6617584
   4362,   39.4683342,          -9.,   67.0804214
   4363,   40.8387947,          -9.,   65.0889587
   4364,   26.7863464,          -9.,   33.1728821
   4365,    42.338871,          -9.,   35.1894417
   4366,    22.995245,          -9.,   63.8894196
   4367,   43.2096786,          -9.,   37.1935806
   4368,   42.0297928,          -9.,   63.0641098
   4369,   21.7352524,          -9.,    62.749115
   4370,   23.7637959,          -9.,   36.9400597
   4371,   43.7055893,          -9.,    39.305603
   4372,   43.0122528,          -9.,   60.9972153
   4373,   22.6931839,          -9.,   38.7998962
   4374,   21.9802685,          -9.,   58.6512871
   4375,   22.0440807,          -9.,   40.9488564
   4376,   44.0562363,          -9.,   41.5735207
   4377,   43.7808647,          -9.,   58.7634735
   4378,   21.7366829,          -9.,   56.0787888
   4379,   21.6134186,          -9.,   43.2461586
   4380,   44.3434067,          -9.,    43.965271
   4381,   44.2881088,          -9.,   56.3836784
   4382,   44.5689354,          -9.,   46.4370689
   4383,   44.5913391,          -9.,   53.9445686
   4384,   21.4469013,          -9.,   53.4764633
   4385,   21.3120117,          -9.,   45.6868134
   4386,   44.7098198,          -9.,   48.9346962
   4387,   44.7356148,          -9.,   51.4473801
   4388,   21.1774864,          -9.,   48.2474365
   4389,   21.2321167,          -9.,   50.8668022
   4390,   40.1745033,          -9.,   28.6882305
   4391,   27.3638897,          -9.,   64.8150558
   4392,   38.6932716,          -9.,   63.2661514
   4393,   28.3316441,          -9.,   36.1577072
   4394,   41.1911659,          -9.,   37.5593529
   4395,   39.7603493,          -9.,   61.3570061
   4396,   24.5382042,          -9.,   61.8899002
   4397,   41.4323616,          -9.,   41.5545158
   4398,   40.7257347,          -9.,   59.5978622
   4399,   26.2227859,          -9.,   38.8305817
   4400,   24.5318241,          -9.,   58.8894768
   4401,   41.7058067,          -9.,   43.8800354
   4402,   41.5627174,          -9.,   57.7380142
   4403,   24.4461765,          -9.,    41.607254
   4404,    24.486824,          -9.,   56.2420769
   4405,   41.9455452,          -9.,   46.2727165
   4406,   24.1666527,          -9.,   43.7927437
   4407,   24.1311913,          -9.,   53.6443939
   4408,   41.9341393,          -9.,   55.6113052
   4409,   23.8670311,          -9.,   46.1065674
   4410,   23.8018913,          -9.,   51.0779877
   4411,   42.1323891,          -9.,   53.3672829
   4412,   42.1204567,          -9.,   48.6403198
   4413,   23.7161045,          -9.,   48.5511742
   4414,   42.2200165,          -9.,   51.0121613
   4415,   34.4459457,          -9.,   72.4494934
   4416,   39.8169022,          -9.,   31.9585323
   4417,   37.4126778,          -9.,   59.4230576
   4418,   26.8620396,          -9.,   59.1682243
   4419,   39.2112732,          -9.,   43.7804718
   4420,   26.7995777,          -9.,   41.6393852
   4421,   39.7752838,          -9.,   56.8871956
   4422,   27.6322765,          -9.,   56.4825134
   4423,   26.1002903,          -9.,   48.7901268
   4424,   39.5555992,          -9.,   48.4135056
   4425,   26.2168846,          -9.,   51.1596413
   4426,   39.6887512,          -9.,   52.8789101
   4427,   29.5085411,          -9.,   68.7704086
   4428,   40.9394455,          -9.,   36.0396919
   4429,   34.7007332,          -9.,     68.91922
   4430,   30.9264431,          -9.,   66.1856537
   4431,   39.1172905,          -9.,   35.3504791
   4432,   26.9174976,          -9.,   61.8150711
   4433,   37.8518257,          -9.,   33.3850365
   4434,   38.9509506,          -9.,   41.4390945
   4435,   32.2640419,          -9.,   68.8226166
   4436,   37.4644775,          -9.,   65.2379761
   4437,   30.8650894,          -9.,   71.5005112
   4438,   36.9193497,          -9.,   29.2947922
   4439,   32.4634933,          -9.,   73.8507233
   4440,   29.8351727,          -9.,   58.6326981
   4441,   35.4549408,          -9.,   63.5692291
   4442,   36.6233826,          -9.,   41.4300232
   4443,   35.6482735,          -9.,   34.1962585
   4444,   41.7752571,          -9.,   30.3696976
   4445,   34.2850456,          -9.,   65.5180893
   4446,    32.495266,          -9.,     64.19767
   4447,   38.4731674,          -9.,   30.4168186
   4448,   33.8004532,          -9.,   28.5802727
   4449,   34.4093933,          -9.,   38.1263657
   4450,    31.204258,          -9.,   61.0132217
   4451,   34.2902794,          -9.,   41.1476212
   4452,   35.0429382,          -9.,   31.3149853
   4453,   36.4704704,          -9.,   61.4890556
   4454,   33.4260788,          -9.,    62.227623
   4455,   30.9817219,          -9.,   27.7963696
   4456,    33.211422,          -9.,   35.0252151
   4457,   31.5110893,          -9.,   29.7243919
   4458,   31.7536335,          -9.,     57.66819
   4459,   31.4871025,          -9.,   38.4802361
   4460,     32.46912,          -9.,   43.9770584
   4461,   32.3174782,          -9.,   32.1934662
   4462,   31.9007587,          -9.,   41.2907066
   4463,   30.6531124,          -9.,   35.5962181
   4464,   29.6950054,          -9.,   32.7314949
   4465,   34.5554504,          -9.,   57.2206192
   4466,   29.7920914,          -9.,   44.6156235
   4467,   37.0106888,          -9.,   45.9838295
   4468,    30.251791,          -9.,   55.3745003
   4469,   36.6805038,          -9.,   48.5069923
   4470,   28.9423904,          -9.,   38.8007965
   4471,   34.2125816,          -9.,   60.1016312
   4472,   32.4381409,          -9.,   54.3419609
   4473,   31.4640541,          -9.,   46.6273117
   4474,   30.8045063,          -9.,     52.34338
   4475,   32.0543785,          -9.,   51.0084305
   4476,   36.6140747,          -9.,   55.0438194
   4477,   28.7308064,          -9.,   47.0539856
   4478,   28.2519054,          -9.,   51.0942726
   4479,   34.0245171,          -9.,    52.829319
   4480,   29.0057583,          -9.,   53.1791153
   4481,   37.3016167,          -9.,   52.2721786
   4482,   30.8459568,          -9.,   48.1337814
   4483,   37.5935478,          -9.,    76.365387
   4484,   35.7007408,          -9.,   77.5998535
   4485,   36.5526581,          -9.,   26.2779942
   4486,   32.6173592,          -9.,   25.4151535
   4487,   28.6381111,          -9.,   26.3364983
   4488,   25.3941898,          -9.,   29.1225357
   4489,   30.8019142,          -9.,   74.7542038
   4490,   36.3091774,          -9.,   70.7726288
   4491,   41.1140327,          -9.,    33.583416
   4492,   35.7763786,          -9.,    28.135746
   4493,   32.4396095,          -9.,   27.3184891
   4494,   29.5573635,          -9.,   28.0138321
   4495,   27.1048393,          -9.,   30.7011929
   4496,   24.9730968,          -9.,   34.9972649
   4497,   25.6657143,          -9.,   67.1950302
   4498,   28.6628227,          -9.,   70.4281311
   4499,   36.1281815,          -9.,    67.161026
   4500,   33.1101646,          -9.,   70.4627075
   4501,   33.0951729,          -9.,   67.3279572
   4502,   28.7017727,          -9.,   67.1404724
   4503,   25.4617767,          -9.,   64.2270508
   4504,   21.9800339,          -9.,   61.0507736
   4505,   30.8850765,          -9.,   68.8059845
   4506,   41.2441788,          -9.,   39.3864899
   4507,   37.1356583,          -9.,   31.7583656
   4508,   26.6214104,          -9.,   36.6761856
   4509,   24.5088139,          -9.,   39.7677078
   4510,   29.5326118,          -9.,   63.8859558
   4511,   29.0016937,          -9.,   61.6118927
   4512,    31.052103,          -9.,   63.0994148
   4513,   39.5305595,          -9.,   55.0216827
   4514,   39.8451309,          -9.,   50.6602554
   4515,    39.418499,          -9.,   46.1473656
   4516,   29.3761883,          -9.,   41.5743484
   4517,   26.7800503,          -9.,   44.1478004
   4518,   39.5841484,          -9.,   37.3409462
   4519,   26.7693729,          -9.,   53.6653824
   4520,    26.388216,          -9.,   46.4751167
   4521,   38.5553513,          -9.,   57.8505402
   4522,   32.4059296,          -9.,   59.6345558
   4523,   28.5802422,          -9.,    59.731472
   4524,   36.8198204,          -9.,   36.5500145
   4525,   38.5496216,          -9.,    38.827282
   4526,   28.2660351,          -9.,    49.089016
   4527,   34.6045685,          -9.,   43.5706329
   4528,   36.8660393,          -9.,   43.6677284
   4529,   36.6087227,          -9.,    39.505085
   4530,   35.2368279,          -9.,   50.7404442
   4531,   33.0260963,          -9.,   49.2205124
   4532,   37.9749527,          -9.,     50.56493
   4533,   33.6914444,          -9.,   46.7883492
   4534,   35.0569992,          -9.,   45.5107498
   4535,   30.2348843,          -9.,   49.7392235
   4536,   29.7386932,          -9.,   50.9975395
   4537,   29.9750156,         -12.,   20.3451309
   4538,    27.095583,         -12.,   21.3371277
   4539,   24.4627323,         -12.,   22.8705158
   4540,    20.085886,         -12.,   27.0924091
   4541,     18.34025,         -12.,   29.5927353
   4542,   15.6555128,         -12.,   35.0624733
   4543,    13.415472,         -12.,   43.9169006
   4544,          13.,         -12.,   50.0000496
   4545,   13.4154854,         -12.,   56.0831985
   4546,   15.6555481,         -12.,   64.9376221
   4547,   18.3403015,         -12.,   70.4073486
   4548,    20.085947,         -12.,   72.9076691
   4549,   24.4627781,         -12.,   77.1295166
   4550,   27.0956306,         -12.,   78.6628952
   4551,   29.9750633,         -12.,   79.6548843
   4552,          33.,         -12.,          20.
   4553,          33.,         -12.,          80.
   4554,   36.0249863,         -12.,   79.6548691
   4555,   38.9044151,         -12.,   78.6628723
   4556,   41.5372658,         -12.,   77.1294861
   4557,   45.9141159,         -12.,   72.9075928
   4558,   47.6597481,         -12.,   70.4072647
   4559,   50.3444862,         -12.,   64.9375305
   4560,   52.5845299,         -12.,   56.0830994
   4561,          53.,         -12.,   49.9999504
   4562,   52.5845146,         -12.,   43.9168015
   4563,   50.3444519,         -12.,   35.0623779
   4564,   47.6596985,         -12.,   29.5926533
   4565,   45.9140511,         -12.,   27.0923309
   4566,   41.5372238,         -12.,   22.8704834
   4567,   38.9043694,         -12.,   21.3371067
   4568,   36.0249367,         -12.,   20.3451195
   4569,   22.1232681,         -12.,   24.8242664
   4570,   16.8693237,         -12.,   32.2643623
   4571,   14.6832371,         -12.,   37.9535713
   4572,    13.939785,         -12.,   40.9119034
   4573,   13.1035376,         -12.,   46.9513474
   4574,   13.1035442,         -12.,    53.048748
   4575,    13.939806,         -12.,    59.088192
   4576,   14.6832647,         -12.,    62.046524
   4577,   16.8693657,         -12.,   67.7357254
   4578,   22.1233082,         -12.,   75.1757736
   4579,   43.8767319,         -12.,   75.1757355
   4580,   49.1306763,         -12.,   67.7356415
   4581,    51.316761,         -12.,   62.0464287
   4582,    52.060215,         -12.,   59.0880966
   4583,   52.8964615,         -12.,   53.0486526
   4584,   52.8964539,         -12.,    46.951252
   4585,   52.0601959,         -12.,    40.911808
   4586,   51.3167343,         -12.,    37.953476
   4587,   49.1306343,         -12.,   32.2642746
   4588,   43.8766899,         -12.,   24.8242264
   4589,   35.2298889,         -12.,   23.1984615
   4590,   20.4570503,         -12.,   31.3369122
   4591,   46.6730194,         -12.,    33.252388
   4592,   16.5533028,         -12.,   41.7955284
   4593,   50.0400925,         -12.,   46.7889481
   4594,   50.0673599,         -12.,   52.4844589
   4595,   17.1770935,         -12.,   61.5136795
   4596,   46.6494408,         -12.,   66.2046814
   4597,   22.1052074,         -12.,   71.0997238
   4598,   41.8038635,         -12.,   72.9968567
   4599,   28.1828575,         -12.,   76.0426025
   4600,   30.6447296,         -12.,   76.8130264
   4601,   33.5107384,         -12.,   76.5985718
   4602,   35.9339676,         -12.,   74.4850311
   4603,   39.7629509,         -12.,   74.8180466
   4604,   23.9128456,         -12.,   73.0552368
   4605,    45.260479,         -12.,   68.6413727
   4606,   19.1435146,         -12.,   66.5725861
   4607,    16.606966,         -12.,   58.8154831
   4608,   15.9526415,         -12.,   53.1909065
   4609,   15.8824272,         -12.,   47.4536209
   4610,   17.1885414,         -12.,    39.043087
   4611,   19.1558971,         -12.,   33.7840691
   4612,   43.7848396,         -12.,   28.7325592
   4613,   23.6976719,         -12.,   27.0323467
   4614,   37.6279945,         -12.,   23.9462585
   4615,   21.9855061,         -12.,   29.0968304
   4616,   18.0608215,         -12.,   36.3642044
   4617,   49.2940331,         -12.,   41.1765022
   4618,   16.1116581,         -12.,   44.6017036
   4619,   15.8250637,         -12.,   50.3196259
   4620,    16.206522,         -12.,   56.0279121
   4621,   48.6924019,         -12.,   60.9169769
   4622,   17.9767151,         -12.,    64.108963
   4623,   20.5047836,         -12.,   68.9114838
   4624,   25.9560127,         -12.,    74.734848
   4625,   43.6397972,         -12.,   70.9107056
   4626,   47.7911758,         -12.,   63.6094627
   4627,   49.3568611,         -12.,    58.140377
   4628,   49.8132744,         -12.,   55.3227539
   4629,   50.1526871,         -12.,   49.6321831
   4630,   49.7709999,         -12.,   43.9702225
   4631,   48.6431351,         -12.,   38.4496384
   4632,   47.7798462,         -12.,   35.7961159
   4633,   45.3624268,         -12.,   30.8999939
   4634,   39.9014206,         -12.,   25.1751041
   4635,   38.4278908,         -12.,   27.3225994
   4636,   29.2505646,         -12.,   73.7055588
   4637,   27.3673935,         -12.,   72.4830399
   4638,   37.9883919,         -12.,   72.7471848
   4639,   25.5790176,         -12.,   70.9442749
   4640,    39.831852,         -12.,   70.9426956
   4641,    26.976965,         -12.,   27.5720348
   4642,   23.9780636,         -12.,   69.1934433
   4643,   24.0299911,         -12.,   31.1150627
   4644,   41.5061607,         -12.,   68.9794998
   4645,   22.7052479,         -12.,   33.1463318
   4646,   42.9987068,         -12.,   66.8800354
   4647,   43.1580048,         -12.,   32.2201118
   4648,   22.5213356,         -12.,   67.3223801
   4649,   44.3611374,         -12.,   34.2434273
   4650,   21.1884995,         -12.,    65.351387
   4651,   44.2910881,         -12.,   64.6571274
   4652,   21.4741039,         -12.,   35.3257484
   4653,   45.3731155,         -12.,   36.5341988
   4654,   20.0984821,         -12.,   63.3377953
   4655,   20.4319611,         -12.,   37.6162834
   4656,   45.3556976,         -12.,   62.3061447
   4657,   46.1257286,         -12.,   38.9348259
   4658,   19.5682163,         -12.,     61.09235
   4659,     46.17696,         -12.,   59.8231087
   4660,   19.6441994,         -12.,   40.0624466
   4661,    46.659977,         -12.,   41.4290199
   4662,   19.2696419,         -12.,   58.6330948
   4663,   46.7590561,         -12.,   57.2337112
   4664,   19.0930805,         -12.,   42.5710716
   4665,   47.0355186,         -12.,   44.0046234
   4666,   18.9781055,         -12.,   56.0168648
   4667,   47.1419945,         -12.,   54.6037941
   4668,   18.7357635,         -12.,   45.1917572
   4669,   47.3483658,         -12.,   51.9430046
   4670,   18.5629845,         -12.,   47.8785248
   4671,   47.2773933,         -12.,   46.6244431
   4672,   18.7200165,         -12.,   53.3207169
   4673,   47.3942909,         -12.,   49.2757759
   4674,   18.5624676,         -12.,    50.603096
   4675,    30.259304,         -12.,   23.1705284
   4676,   27.8521633,         -12.,   23.9805584
   4677,    32.786644,         -12.,   22.9029446
   4678,   25.7019634,         -12.,   25.2896709
   4679,   41.9629555,         -12.,   26.7987347
   4680,   34.5407333,         -12.,   25.7996216
   4681,   27.1182175,         -12.,   68.9016647
   4682,   37.9515305,         -12.,   68.9892349
   4683,   30.5744743,         -12.,   25.6376686
   4684,   28.8751526,         -12.,   29.8509731
   4685,   24.2644939,         -12.,   65.6617584
   4686,   39.4683342,         -12.,   67.0804214
   4687,   40.8387947,         -12.,   65.0889587
   4688,   26.7863464,         -12.,   33.1728821
   4689,    42.338871,         -12.,   35.1894417
   4690,    22.995245,         -12.,   63.8894196
   4691,   43.2096786,         -12.,   37.1935806
   4692,   42.0297928,         -12.,   63.0641098
   4693,   21.7352524,         -12.,    62.749115
   4694,   23.7637959,         -12.,   36.9400597
   4695,   43.7055893,         -12.,    39.305603
   4696,   43.0122528,         -12.,   60.9972153
   4697,   22.6931839,         -12.,   38.7998962
   4698,   21.9802685,         -12.,   58.6512871
   4699,   22.0440807,         -12.,   40.9488564
   4700,   44.0562363,         -12.,   41.5735207
   4701,   43.7808647,         -12.,   58.7634735
   4702,   21.7366829,         -12.,   56.0787888
   4703,   21.6134186,         -12.,   43.2461586
   4704,   44.3434067,         -12.,    43.965271
   4705,   44.2881088,         -12.,   56.3836784
   4706,   44.5689354,         -12.,   46.4370689
   4707,   44.5913391,         -12.,   53.9445686
   4708,   21.4469013,         -12.,   53.4764633
   4709,   21.3120117,         -12.,   45.6868134
   4710,   44.7098198,         -12.,   48.9346962
   4711,   44.7356148,         -12.,   51.4473801
   4712,   21.1774864,         -12.,   48.2474365
   4713,   21.2321167,         -12.,   50.8668022
   4714,   40.1745033,         -12.,   28.6882305
   4715,   27.3638897,         -12.,   64.8150558
   4716,   38.6932716,         -12.,   63.2661514
   4717,   28.3316441,         -12.,   36.1577072
   4718,   41.1911659,         -12.,   37.5593529
   4719,   39.7603493,         -12.,   61.3570061
   4720,   24.5382042,         -12.,   61.8899002
   4721,   41.4323616,         -12.,   41.5545158
   4722,   40.7257347,         -12.,   59.5978622
   4723,   26.2227859,         -12.,   38.8305817
   4724,   24.5318241,         -12.,   58.8894768
   4725,   41.7058067,         -12.,   43.8800354
   4726,   41.5627174,         -12.,   57.7380142
   4727,   24.4461765,         -12.,    41.607254
   4728,    24.486824,         -12.,   56.2420769
   4729,   41.9455452,         -12.,   46.2727165
   4730,   24.1666527,         -12.,   43.7927437
   4731,   24.1311913,         -12.,   53.6443939
   4732,   41.9341393,         -12.,   55.6113052
   4733,   23.8670311,         -12.,   46.1065674
   4734,   23.8018913,         -12.,   51.0779877
   4735,   42.1323891,         -12.,   53.3672829
   4736,   42.1204567,         -12.,   48.6403198
   4737,   23.7161045,         -12.,   48.5511742
   4738,   42.2200165,         -12.,   51.0121613
   4739,   34.4459457,         -12.,   72.4494934
   4740,   39.8169022,         -12.,   31.9585323
   4741,   37.4126778,         -12.,   59.4230576
   4742,   26.8620396,         -12.,   59.1682243
   4743,   39.2112732,         -12.,   43.7804718
   4744,   26.7995777,         -12.,   41.6393852
   4745,   39.7752838,         -12.,   56.8871956
   4746,   27.6322765,         -12.,   56.4825134
   4747,   26.1002903,         -12.,   48.7901268
   4748,   39.5555992,         -12.,   48.4135056
   4749,   26.2168846,         -12.,   51.1596413
   4750,   39.6887512,         -12.,   52.8789101
   4751,   29.5085411,         -12.,   68.7704086
   4752,   40.9394455,         -12.,   36.0396919
   4753,   34.7007332,         -12.,     68.91922
   4754,   30.9264431,         -12.,   66.1856537
   4755,   39.1172905,         -12.,   35.3504791
   4756,   26.9174976,         -12.,   61.8150711
   4757,   37.8518257,         -12.,   33.3850365
   4758,   38.9509506,         -12.,   41.4390945
   4759,   32.2640419,         -12.,   68.8226166
   4760,   37.4644775,         -12.,   65.2379761
   4761,   30.8650894,         -12.,   71.5005112
   4762,   36.9193497,         -12.,   29.2947922
   4763,   32.4634933,         -12.,   73.8507233
   4764,   29.8351727,         -12.,   58.6326981
   4765,   35.4549408,         -12.,   63.5692291
   4766,   36.6233826,         -12.,   41.4300232
   4767,   35.6482735,         -12.,   34.1962585
   4768,   41.7752571,         -12.,   30.3696976
   4769,   34.2850456,         -12.,   65.5180893
   4770,    32.495266,         -12.,     64.19767
   4771,   38.4731674,         -12.,   30.4168186
   4772,   33.8004532,         -12.,   28.5802727
   4773,   34.4093933,         -12.,   38.1263657
   4774,    31.204258,         -12.,   61.0132217
   4775,   34.2902794,         -12.,   41.1476212
   4776,   35.0429382,         -12.,   31.3149853
   4777,   36.4704704,         -12.,   61.4890556
   4778,   33.4260788,         -12.,    62.227623
   4779,   30.9817219,         -12.,   27.7963696
   4780,    33.211422,         -12.,   35.0252151
   4781,   31.5110893,         -12.,   29.7243919
   4782,   31.7536335,         -12.,     57.66819
   4783,   31.4871025,         -12.,   38.4802361
   4784,     32.46912,         -12.,   43.9770584
   4785,   32.3174782,         -12.,   32.1934662
   4786,   31.9007587,         -12.,   41.2907066
   4787,   30.6531124,         -12.,   35.5962181
   4788,   29.6950054,         -12.,   32.7314949
   4789,   34.5554504,         -12.,   57.2206192
   4790,   29.7920914,         -12.,   44.6156235
   4791,   37.0106888,         -12.,   45.9838295
   4792,    30.251791,         -12.,   55.3745003
   4793,   36.6805038,         -12.,   48.5069923
   4794,   28.9423904,         -12.,   38.8007965
   4795,   34.2125816,         -12.,   60.1016312
   4796,   32.4381409,         -12.,   54.3419609
   4797,   31.4640541,         -12.,   46.6273117
   4798,   30.8045063,         -12.,     52.34338
   4799,   32.0543785,         -12.,   51.0084305
   4800,   36.6140747,         -12.,   55.0438194
   4801,   28.7308064,         -12.,   47.0539856
   4802,   28.2519054,         -12.,   51.0942726
   4803,   34.0245171,         -12.,    52.829319
   4804,   29.0057583,         -12.,   53.1791153
   4805,   37.3016167,         -12.,   52.2721786
   4806,   30.8459568,         -12.,   48.1337814
   4807,   37.5935478,         -12.,    76.365387
   4808,   35.7007408,         -12.,   77.5998535
   4809,   36.5526581,         -12.,   26.2779942
   4810,   32.6173592,         -12.,   25.4151535
   4811,   28.6381111,         -12.,   26.3364983
   4812,   25.3941898,         -12.,   29.1225357
   4813,   30.8019142,         -12.,   74.7542038
   4814,   36.3091774,         -12.,   70.7726288
   4815,   41.1140327,         -12.,    33.583416
   4816,   35.7763786,         -12.,    28.135746
   4817,   32.4396095,         -12.,   27.3184891
   4818,   29.5573635,         -12.,   28.0138321
   4819,   27.1048393,         -12.,   30.7011929
   4820,   24.9730968,         -12.,   34.9972649
   4821,   25.6657143,         -12.,   67.1950302
   4822,   28.6628227,         -12.,   70.4281311
   4823,   36.1281815,         -12.,    67.161026
   4824,   33.1101646,         -12.,   70.4627075
   4825,   33.0951729,         -12.,   67.3279572
   4826,   28.7017727,         -12.,   67.1404724
   4827,   25.4617767,         -12.,   64.2270508
   4828,   21.9800339,         -12.,   61.0507736
   4829,   30.8850765,         -12.,   68.8059845
   4830,   41.2441788,         -12.,   39.3864899
   4831,   37.1356583,         -12.,   31.7583656
   4832,   26.6214104,         -12.,   36.6761856
   4833,   24.5088139,         -12.,   39.7677078
   4834,   29.5326118,         -12.,   63.8859558
   4835,   29.0016937,         -12.,   61.6118927
   4836,    31.052103,         -12.,   63.0994148
   4837,   39.5305595,         -12.,   55.0216827
   4838,   39.8451309,         -12.,   50.6602554
   4839,    39.418499,         -12.,   46.1473656
   4840,   29.3761883,         -12.,   41.5743484
   4841,   26.7800503,         -12.,   44.1478004
   4842,   39.5841484,         -12.,   37.3409462
   4843,   26.7693729,         -12.,   53.6653824
   4844,    26.388216,         -12.,   46.4751167
   4845,   38.5553513,         -12.,   57.8505402
   4846,   32.4059296,         -12.,   59.6345558
   4847,   28.5802422,         -12.,    59.731472
   4848,   36.8198204,         -12.,   36.5500145
   4849,   38.5496216,         -12.,    38.827282
   4850,   28.2660351,         -12.,    49.089016
   4851,   34.6045685,         -12.,   43.5706329
   4852,   36.8660393,         -12.,   43.6677284
   4853,   36.6087227,         -12.,    39.505085
   4854,   35.2368279,         -12.,   50.7404442
   4855,   33.0260963,         -12.,   49.2205124
   4856,   37.9749527,         -12.,     50.56493
   4857,   33.6914444,         -12.,   46.7883492
   4858,   35.0569992,         -12.,   45.5107498
   4859,   30.2348843,         -12.,   49.7392235
   4860,   29.7386932,         -12.,   50.9975395
   4861,   29.9750156,         -15.,   20.3451309
   4862,    27.095583,         -15.,   21.3371277
   4863,   24.4627323,         -15.,   22.8705158
   4864,    20.085886,         -15.,   27.0924091
   4865,     18.34025,         -15.,   29.5927353
   4866,   15.6555128,         -15.,   35.0624733
   4867,    13.415472,         -15.,   43.9169006
   4868,          13.,         -15.,   50.0000496
   4869,   13.4154854,         -15.,   56.0831985
   4870,   15.6555481,         -15.,   64.9376221
   4871,   18.3403015,         -15.,   70.4073486
   4872,    20.085947,         -15.,   72.9076691
   4873,   24.4627781,         -15.,   77.1295166
   4874,   27.0956306,         -15.,   78.6628952
   4875,   29.9750633,         -15.,   79.6548843
   4876,          33.,         -15.,          20.
   4877,          33.,         -15.,          80.
   4878,   36.0249863,         -15.,   79.6548691
   4879,   38.9044151,         -15.,   78.6628723
   4880,   41.5372658,         -15.,   77.1294861
   4881,   45.9141159,         -15.,   72.9075928
   4882,   47.6597481,         -15.,   70.4072647
   4883,   50.3444862,         -15.,   64.9375305
   4884,   52.5845299,         -15.,   56.0830994
   4885,          53.,         -15.,   49.9999504
   4886,   52.5845146,         -15.,   43.9168015
   4887,   50.3444519,         -15.,   35.0623779
   4888,   47.6596985,         -15.,   29.5926533
   4889,   45.9140511,         -15.,   27.0923309
   4890,   41.5372238,         -15.,   22.8704834
   4891,   38.9043694,         -15.,   21.3371067
   4892,   36.0249367,         -15.,   20.3451195
   4893,   22.1232681,         -15.,   24.8242664
   4894,   16.8693237,         -15.,   32.2643623
   4895,   14.6832371,         -15.,   37.9535713
   4896,    13.939785,         -15.,   40.9119034
   4897,   13.1035376,         -15.,   46.9513474
   4898,   13.1035442,         -15.,    53.048748
   4899,    13.939806,         -15.,    59.088192
   4900,   14.6832647,         -15.,    62.046524
   4901,   16.8693657,         -15.,   67.7357254
   4902,   22.1233082,         -15.,   75.1757736
   4903,   43.8767319,         -15.,   75.1757355
   4904,   49.1306763,         -15.,   67.7356415
   4905,    51.316761,         -15.,   62.0464287
   4906,    52.060215,         -15.,   59.0880966
   4907,   52.8964615,         -15.,   53.0486526
   4908,   52.8964539,         -15.,    46.951252
   4909,   52.0601959,         -15.,    40.911808
   4910,   51.3167343,         -15.,    37.953476
   4911,   49.1306343,         -15.,   32.2642746
   4912,   43.8766899,         -15.,   24.8242264
   4913,   35.2298889,         -15.,   23.1984615
   4914,   20.4570503,         -15.,   31.3369122
   4915,   46.6730194,         -15.,    33.252388
   4916,   16.5533028,         -15.,   41.7955284
   4917,   50.0400925,         -15.,   46.7889481
   4918,   50.0673599,         -15.,   52.4844589
   4919,   17.1770935,         -15.,   61.5136795
   4920,   46.6494408,         -15.,   66.2046814
   4921,   22.1052074,         -15.,   71.0997238
   4922,   41.8038635,         -15.,   72.9968567
   4923,   28.1828575,         -15.,   76.0426025
   4924,   30.6447296,         -15.,   76.8130264
   4925,   33.5107384,         -15.,   76.5985718
   4926,   35.9339676,         -15.,   74.4850311
   4927,   39.7629509,         -15.,   74.8180466
   4928,   23.9128456,         -15.,   73.0552368
   4929,    45.260479,         -15.,   68.6413727
   4930,   19.1435146,         -15.,   66.5725861
   4931,    16.606966,         -15.,   58.8154831
   4932,   15.9526415,         -15.,   53.1909065
   4933,   15.8824272,         -15.,   47.4536209
   4934,   17.1885414,         -15.,    39.043087
   4935,   19.1558971,         -15.,   33.7840691
   4936,   43.7848396,         -15.,   28.7325592
   4937,   23.6976719,         -15.,   27.0323467
   4938,   37.6279945,         -15.,   23.9462585
   4939,   21.9855061,         -15.,   29.0968304
   4940,   18.0608215,         -15.,   36.3642044
   4941,   49.2940331,         -15.,   41.1765022
   4942,   16.1116581,         -15.,   44.6017036
   4943,   15.8250637,         -15.,   50.3196259
   4944,    16.206522,         -15.,   56.0279121
   4945,   48.6924019,         -15.,   60.9169769
   4946,   17.9767151,         -15.,    64.108963
   4947,   20.5047836,         -15.,   68.9114838
   4948,   25.9560127,         -15.,    74.734848
   4949,   43.6397972,         -15.,   70.9107056
   4950,   47.7911758,         -15.,   63.6094627
   4951,   49.3568611,         -15.,    58.140377
   4952,   49.8132744,         -15.,   55.3227539
   4953,   50.1526871,         -15.,   49.6321831
   4954,   49.7709999,         -15.,   43.9702225
   4955,   48.6431351,         -15.,   38.4496384
   4956,   47.7798462,         -15.,   35.7961159
   4957,   45.3624268,         -15.,   30.8999939
   4958,   39.9014206,         -15.,   25.1751041
   4959,   38.4278908,         -15.,   27.3225994
   4960,   29.2505646,         -15.,   73.7055588
   4961,   27.3673935,         -15.,   72.4830399
   4962,   37.9883919,         -15.,   72.7471848
   4963,   25.5790176,         -15.,   70.9442749
   4964,    39.831852,         -15.,   70.9426956
   4965,    26.976965,         -15.,   27.5720348
   4966,   23.9780636,         -15.,   69.1934433
   4967,   24.0299911,         -15.,   31.1150627
   4968,   41.5061607,         -15.,   68.9794998
   4969,   22.7052479,         -15.,   33.1463318
   4970,   42.9987068,         -15.,   66.8800354
   4971,   43.1580048,         -15.,   32.2201118
   4972,   22.5213356,         -15.,   67.3223801
   4973,   44.3611374,         -15.,   34.2434273
   4974,   21.1884995,         -15.,    65.351387
   4975,   44.2910881,         -15.,   64.6571274
   4976,   21.4741039,         -15.,   35.3257484
   4977,   45.3731155,         -15.,   36.5341988
   4978,   20.0984821,         -15.,   63.3377953
   4979,   20.4319611,         -15.,   37.6162834
   4980,   45.3556976,         -15.,   62.3061447
   4981,   46.1257286,         -15.,   38.9348259
   4982,   19.5682163,         -15.,     61.09235
   4983,     46.17696,         -15.,   59.8231087
   4984,   19.6441994,         -15.,   40.0624466
   4985,    46.659977,         -15.,   41.4290199
   4986,   19.2696419,         -15.,   58.6330948
   4987,   46.7590561,         -15.,   57.2337112
   4988,   19.0930805,         -15.,   42.5710716
   4989,   47.0355186,         -15.,   44.0046234
   4990,   18.9781055,         -15.,   56.0168648
   4991,   47.1419945,         -15.,   54.6037941
   4992,   18.7357635,         -15.,   45.1917572
   4993,   47.3483658,         -15.,   51.9430046
   4994,   18.5629845,         -15.,   47.8785248
   4995,   47.2773933,         -15.,   46.6244431
   4996,   18.7200165,         -15.,   53.3207169
   4997,   47.3942909,         -15.,   49.2757759
   4998,   18.5624676,         -15.,    50.603096
   4999,    30.259304,         -15.,   23.1705284
   5000,   27.8521633,         -15.,   23.9805584
   5001,    32.786644,         -15.,   22.9029446
   5002,   25.7019634,         -15.,   25.2896709
   5003,   41.9629555,         -15.,   26.7987347
   5004,   34.5407333,         -15.,   25.7996216
   5005,   27.1182175,         -15.,   68.9016647
   5006,   37.9515305,         -15.,   68.9892349
   5007,   30.5744743,         -15.,   25.6376686
   5008,   28.8751526,         -15.,   29.8509731
   5009,   24.2644939,         -15.,   65.6617584
   5010,   39.4683342,         -15.,   67.0804214
   5011,   40.8387947,         -15.,   65.0889587
   5012,   26.7863464,         -15.,   33.1728821
   5013,    42.338871,         -15.,   35.1894417
   5014,    22.995245,         -15.,   63.8894196
   5015,   43.2096786,         -15.,   37.1935806
   5016,   42.0297928,         -15.,   63.0641098
   5017,   21.7352524,         -15.,    62.749115
   5018,   23.7637959,         -15.,   36.9400597
   5019,   43.7055893,         -15.,    39.305603
   5020,   43.0122528,         -15.,   60.9972153
   5021,   22.6931839,         -15.,   38.7998962
   5022,   21.9802685,         -15.,   58.6512871
   5023,   22.0440807,         -15.,   40.9488564
   5024,   44.0562363,         -15.,   41.5735207
   5025,   43.7808647,         -15.,   58.7634735
   5026,   21.7366829,         -15.,   56.0787888
   5027,   21.6134186,         -15.,   43.2461586
   5028,   44.3434067,         -15.,    43.965271
   5029,   44.2881088,         -15.,   56.3836784
   5030,   44.5689354,         -15.,   46.4370689
   5031,   44.5913391,         -15.,   53.9445686
   5032,   21.4469013,         -15.,   53.4764633
   5033,   21.3120117,         -15.,   45.6868134
   5034,   44.7098198,         -15.,   48.9346962
   5035,   44.7356148,         -15.,   51.4473801
   5036,   21.1774864,         -15.,   48.2474365
   5037,   21.2321167,         -15.,   50.8668022
   5038,   40.1745033,         -15.,   28.6882305
   5039,   27.3638897,         -15.,   64.8150558
   5040,   38.6932716,         -15.,   63.2661514
   5041,   28.3316441,         -15.,   36.1577072
   5042,   41.1911659,         -15.,   37.5593529
   5043,   39.7603493,         -15.,   61.3570061
   5044,   24.5382042,         -15.,   61.8899002
   5045,   41.4323616,         -15.,   41.5545158
   5046,   40.7257347,         -15.,   59.5978622
   5047,   26.2227859,         -15.,   38.8305817
   5048,   24.5318241,         -15.,   58.8894768
   5049,   41.7058067,         -15.,   43.8800354
   5050,   41.5627174,         -15.,   57.7380142
   5051,   24.4461765,         -15.,    41.607254
   5052,    24.486824,         -15.,   56.2420769
   5053,   41.9455452,         -15.,   46.2727165
   5054,   24.1666527,         -15.,   43.7927437
   5055,   24.1311913,         -15.,   53.6443939
   5056,   41.9341393,         -15.,   55.6113052
   5057,   23.8670311,         -15.,   46.1065674
   5058,   23.8018913,         -15.,   51.0779877
   5059,   42.1323891,         -15.,   53.3672829
   5060,   42.1204567,         -15.,   48.6403198
   5061,   23.7161045,         -15.,   48.5511742
   5062,   42.2200165,         -15.,   51.0121613
   5063,   34.4459457,         -15.,   72.4494934
   5064,   39.8169022,         -15.,   31.9585323
   5065,   37.4126778,         -15.,   59.4230576
   5066,   26.8620396,         -15.,   59.1682243
   5067,   39.2112732,         -15.,   43.7804718
   5068,   26.7995777,         -15.,   41.6393852
   5069,   39.7752838,         -15.,   56.8871956
   5070,   27.6322765,         -15.,   56.4825134
   5071,   26.1002903,         -15.,   48.7901268
   5072,   39.5555992,         -15.,   48.4135056
   5073,   26.2168846,         -15.,   51.1596413
   5074,   39.6887512,         -15.,   52.8789101
   5075,   29.5085411,         -15.,   68.7704086
   5076,   40.9394455,         -15.,   36.0396919
   5077,   34.7007332,         -15.,     68.91922
   5078,   30.9264431,         -15.,   66.1856537
   5079,   39.1172905,         -15.,   35.3504791
   5080,   26.9174976,         -15.,   61.8150711
   5081,   37.8518257,         -15.,   33.3850365
   5082,   38.9509506,         -15.,   41.4390945
   5083,   32.2640419,         -15.,   68.8226166
   5084,   37.4644775,         -15.,   65.2379761
   5085,   30.8650894,         -15.,   71.5005112
   5086,   36.9193497,         -15.,   29.2947922
   5087,   32.4634933,         -15.,   73.8507233
   5088,   29.8351727,         -15.,   58.6326981
   5089,   35.4549408,         -15.,   63.5692291
   5090,   36.6233826,         -15.,   41.4300232
   5091,   35.6482735,         -15.,   34.1962585
   5092,   41.7752571,         -15.,   30.3696976
   5093,   34.2850456,         -15.,   65.5180893
   5094,    32.495266,         -15.,     64.19767
   5095,   38.4731674,         -15.,   30.4168186
   5096,   33.8004532,         -15.,   28.5802727
   5097,   34.4093933,         -15.,   38.1263657
   5098,    31.204258,         -15.,   61.0132217
   5099,   34.2902794,         -15.,   41.1476212
   5100,   35.0429382,         -15.,   31.3149853
   5101,   36.4704704,         -15.,   61.4890556
   5102,   33.4260788,         -15.,    62.227623
   5103,   30.9817219,         -15.,   27.7963696
   5104,    33.211422,         -15.,   35.0252151
   5105,   31.5110893,         -15.,   29.7243919
   5106,   31.7536335,         -15.,     57.66819
   5107,   31.4871025,         -15.,   38.4802361
   5108,     32.46912,         -15.,   43.9770584
   5109,   32.3174782,         -15.,   32.1934662
   5110,   31.9007587,         -15.,   41.2907066
   5111,   30.6531124,         -15.,   35.5962181
   5112,   29.6950054,         -15.,   32.7314949
   5113,   34.5554504,         -15.,   57.2206192
   5114,   29.7920914,         -15.,   44.6156235
   5115,   37.0106888,         -15.,   45.9838295
   5116,    30.251791,         -15.,   55.3745003
   5117,   36.6805038,         -15.,   48.5069923
   5118,   28.9423904,         -15.,   38.8007965
   5119,   34.2125816,         -15.,   60.1016312
   5120,   32.4381409,         -15.,   54.3419609
   5121,   31.4640541,         -15.,   46.6273117
   5122,   30.8045063,         -15.,     52.34338
   5123,   32.0543785,         -15.,   51.0084305
   5124,   36.6140747,         -15.,   55.0438194
   5125,   28.7308064,         -15.,   47.0539856
   5126,   28.2519054,         -15.,   51.0942726
   5127,   34.0245171,         -15.,    52.829319
   5128,   29.0057583,         -15.,   53.1791153
   5129,   37.3016167,         -15.,   52.2721786
   5130,   30.8459568,         -15.,   48.1337814
   5131,   37.5935478,         -15.,    76.365387
   5132,   35.7007408,         -15.,   77.5998535
   5133,   36.5526581,         -15.,   26.2779942
   5134,   32.6173592,         -15.,   25.4151535
   5135,   28.6381111,         -15.,   26.3364983
   5136,   25.3941898,         -15.,   29.1225357
   5137,   30.8019142,         -15.,   74.7542038
   5138,   36.3091774,         -15.,   70.7726288
   5139,   41.1140327,         -15.,    33.583416
   5140,   35.7763786,         -15.,    28.135746
   5141,   32.4396095,         -15.,   27.3184891
   5142,   29.5573635,         -15.,   28.0138321
   5143,   27.1048393,         -15.,   30.7011929
   5144,   24.9730968,         -15.,   34.9972649
   5145,   25.6657143,         -15.,   67.1950302
   5146,   28.6628227,         -15.,   70.4281311
   5147,   36.1281815,         -15.,    67.161026
   5148,   33.1101646,         -15.,   70.4627075
   5149,   33.0951729,         -15.,   67.3279572
   5150,   28.7017727,         -15.,   67.1404724
   5151,   25.4617767,         -15.,   64.2270508
   5152,   21.9800339,         -15.,   61.0507736
   5153,   30.8850765,         -15.,   68.8059845
   5154,   41.2441788,         -15.,   39.3864899
   5155,   37.1356583,         -15.,   31.7583656
   5156,   26.6214104,         -15.,   36.6761856
   5157,   24.5088139,         -15.,   39.7677078
   5158,   29.5326118,         -15.,   63.8859558
   5159,   29.0016937,         -15.,   61.6118927
   5160,    31.052103,         -15.,   63.0994148
   5161,   39.5305595,         -15.,   55.0216827
   5162,   39.8451309,         -15.,   50.6602554
   5163,    39.418499,         -15.,   46.1473656
   5164,   29.3761883,         -15.,   41.5743484
   5165,   26.7800503,         -15.,   44.1478004
   5166,   39.5841484,         -15.,   37.3409462
   5167,   26.7693729,         -15.,   53.6653824
   5168,    26.388216,         -15.,   46.4751167
   5169,   38.5553513,         -15.,   57.8505402
   5170,   32.4059296,         -15.,   59.6345558
   5171,   28.5802422,         -15.,    59.731472
   5172,   36.8198204,         -15.,   36.5500145
   5173,   38.5496216,         -15.,    38.827282
   5174,   28.2660351,         -15.,    49.089016
   5175,   34.6045685,         -15.,   43.5706329
   5176,   36.8660393,         -15.,   43.6677284
   5177,   36.6087227,         -15.,    39.505085
   5178,   35.2368279,         -15.,   50.7404442
   5179,   33.0260963,         -15.,   49.2205124
   5180,   37.9749527,         -15.,     50.56493
   5181,   33.6914444,         -15.,   46.7883492
   5182,   35.0569992,         -15.,   45.5107498
   5183,   30.2348843,         -15.,   49.7392235
   5184,   29.7386932,         -15.,   50.9975395
   5185,   29.9750156,         -18.,   20.3451309
   5186,    27.095583,         -18.,   21.3371277
   5187,   24.4627323,         -18.,   22.8705158
   5188,    20.085886,         -18.,   27.0924091
   5189,     18.34025,         -18.,   29.5927353
   5190,   15.6555128,         -18.,   35.0624733
   5191,    13.415472,         -18.,   43.9169006
   5192,          13.,         -18.,   50.0000496
   5193,   13.4154854,         -18.,   56.0831985
   5194,   15.6555481,         -18.,   64.9376221
   5195,   18.3403015,         -18.,   70.4073486
   5196,    20.085947,         -18.,   72.9076691
   5197,   24.4627781,         -18.,   77.1295166
   5198,   27.0956306,         -18.,   78.6628952
   5199,   29.9750633,         -18.,   79.6548843
   5200,          33.,         -18.,          20.
   5201,          33.,         -18.,          80.
   5202,   36.0249863,         -18.,   79.6548691
   5203,   38.9044151,         -18.,   78.6628723
   5204,   41.5372658,         -18.,   77.1294861
   5205,   45.9141159,         -18.,   72.9075928
   5206,   47.6597481,         -18.,   70.4072647
   5207,   50.3444862,         -18.,   64.9375305
   5208,   52.5845299,         -18.,   56.0830994
   5209,          53.,         -18.,   49.9999504
   5210,   52.5845146,         -18.,   43.9168015
   5211,   50.3444519,         -18.,   35.0623779
   5212,   47.6596985,         -18.,   29.5926533
   5213,   45.9140511,         -18.,   27.0923309
   5214,   41.5372238,         -18.,   22.8704834
   5215,   38.9043694,         -18.,   21.3371067
   5216,   36.0249367,         -18.,   20.3451195
   5217,   22.1232681,         -18.,   24.8242664
   5218,   16.8693237,         -18.,   32.2643623
   5219,   14.6832371,         -18.,   37.9535713
   5220,    13.939785,         -18.,   40.9119034
   5221,   13.1035376,         -18.,   46.9513474
   5222,   13.1035442,         -18.,    53.048748
   5223,    13.939806,         -18.,    59.088192
   5224,   14.6832647,         -18.,    62.046524
   5225,   16.8693657,         -18.,   67.7357254
   5226,   22.1233082,         -18.,   75.1757736
   5227,   43.8767319,         -18.,   75.1757355
   5228,   49.1306763,         -18.,   67.7356415
   5229,    51.316761,         -18.,   62.0464287
   5230,    52.060215,         -18.,   59.0880966
   5231,   52.8964615,         -18.,   53.0486526
   5232,   52.8964539,         -18.,    46.951252
   5233,   52.0601959,         -18.,    40.911808
   5234,   51.3167343,         -18.,    37.953476
   5235,   49.1306343,         -18.,   32.2642746
   5236,   43.8766899,         -18.,   24.8242264
   5237,   35.2298889,         -18.,   23.1984615
   5238,   20.4570503,         -18.,   31.3369122
   5239,   46.6730194,         -18.,    33.252388
   5240,   16.5533028,         -18.,   41.7955284
   5241,   50.0400925,         -18.,   46.7889481
   5242,   50.0673599,         -18.,   52.4844589
   5243,   17.1770935,         -18.,   61.5136795
   5244,   46.6494408,         -18.,   66.2046814
   5245,   22.1052074,         -18.,   71.0997238
   5246,   41.8038635,         -18.,   72.9968567
   5247,   28.1828575,         -18.,   76.0426025
   5248,   30.6447296,         -18.,   76.8130264
   5249,   33.5107384,         -18.,   76.5985718
   5250,   35.9339676,         -18.,   74.4850311
   5251,   39.7629509,         -18.,   74.8180466
   5252,   23.9128456,         -18.,   73.0552368
   5253,    45.260479,         -18.,   68.6413727
   5254,   19.1435146,         -18.,   66.5725861
   5255,    16.606966,         -18.,   58.8154831
   5256,   15.9526415,         -18.,   53.1909065
   5257,   15.8824272,         -18.,   47.4536209
   5258,   17.1885414,         -18.,    39.043087
   5259,   19.1558971,         -18.,   33.7840691
   5260,   43.7848396,         -18.,   28.7325592
   5261,   23.6976719,         -18.,   27.0323467
   5262,   37.6279945,         -18.,   23.9462585
   5263,   21.9855061,         -18.,   29.0968304
   5264,   18.0608215,         -18.,   36.3642044
   5265,   49.2940331,         -18.,   41.1765022
   5266,   16.1116581,         -18.,   44.6017036
   5267,   15.8250637,         -18.,   50.3196259
   5268,    16.206522,         -18.,   56.0279121
   5269,   48.6924019,         -18.,   60.9169769
   5270,   17.9767151,         -18.,    64.108963
   5271,   20.5047836,         -18.,   68.9114838
   5272,   25.9560127,         -18.,    74.734848
   5273,   43.6397972,         -18.,   70.9107056
   5274,   47.7911758,         -18.,   63.6094627
   5275,   49.3568611,         -18.,    58.140377
   5276,   49.8132744,         -18.,   55.3227539
   5277,   50.1526871,         -18.,   49.6321831
   5278,   49.7709999,         -18.,   43.9702225
   5279,   48.6431351,         -18.,   38.4496384
   5280,   47.7798462,         -18.,   35.7961159
   5281,   45.3624268,         -18.,   30.8999939
   5282,   39.9014206,         -18.,   25.1751041
   5283,   38.4278908,         -18.,   27.3225994
   5284,   29.2505646,         -18.,   73.7055588
   5285,   27.3673935,         -18.,   72.4830399
   5286,   37.9883919,         -18.,   72.7471848
   5287,   25.5790176,         -18.,   70.9442749
   5288,    39.831852,         -18.,   70.9426956
   5289,    26.976965,         -18.,   27.5720348
   5290,   23.9780636,         -18.,   69.1934433
   5291,   24.0299911,         -18.,   31.1150627
   5292,   41.5061607,         -18.,   68.9794998
   5293,   22.7052479,         -18.,   33.1463318
   5294,   42.9987068,         -18.,   66.8800354
   5295,   43.1580048,         -18.,   32.2201118
   5296,   22.5213356,         -18.,   67.3223801
   5297,   44.3611374,         -18.,   34.2434273
   5298,   21.1884995,         -18.,    65.351387
   5299,   44.2910881,         -18.,   64.6571274
   5300,   21.4741039,         -18.,   35.3257484
   5301,   45.3731155,         -18.,   36.5341988
   5302,   20.0984821,         -18.,   63.3377953
   5303,   20.4319611,         -18.,   37.6162834
   5304,   45.3556976,         -18.,   62.3061447
   5305,   46.1257286,         -18.,   38.9348259
   5306,   19.5682163,         -18.,     61.09235
   5307,     46.17696,         -18.,   59.8231087
   5308,   19.6441994,         -18.,   40.0624466
   5309,    46.659977,         -18.,   41.4290199
   5310,   19.2696419,         -18.,   58.6330948
   5311,   46.7590561,         -18.,   57.2337112
   5312,   19.0930805,         -18.,   42.5710716
   5313,   47.0355186,         -18.,   44.0046234
   5314,   18.9781055,         -18.,   56.0168648
   5315,   47.1419945,         -18.,   54.6037941
   5316,   18.7357635,         -18.,   45.1917572
   5317,   47.3483658,         -18.,   51.9430046
   5318,   18.5629845,         -18.,   47.8785248
   5319,   47.2773933,         -18.,   46.6244431
   5320,   18.7200165,         -18.,   53.3207169
   5321,   47.3942909,         -18.,   49.2757759
   5322,   18.5624676,         -18.,    50.603096
   5323,    30.259304,         -18.,   23.1705284
   5324,   27.8521633,         -18.,   23.9805584
   5325,    32.786644,         -18.,   22.9029446
   5326,   25.7019634,         -18.,   25.2896709
   5327,   41.9629555,         -18.,   26.7987347
   5328,   34.5407333,         -18.,   25.7996216
   5329,   27.1182175,         -18.,   68.9016647
   5330,   37.9515305,         -18.,   68.9892349
   5331,   30.5744743,         -18.,   25.6376686
   5332,   28.8751526,         -18.,   29.8509731
   5333,   24.2644939,         -18.,   65.6617584
   5334,   39.4683342,         -18.,   67.0804214
   5335,   40.8387947,         -18.,   65.0889587
   5336,   26.7863464,         -18.,   33.1728821
   5337,    42.338871,         -18.,   35.1894417
   5338,    22.995245,         -18.,   63.8894196
   5339,   43.2096786,         -18.,   37.1935806
   5340,   42.0297928,         -18.,   63.0641098
   5341,   21.7352524,         -18.,    62.749115
   5342,   23.7637959,         -18.,   36.9400597
   5343,   43.7055893,         -18.,    39.305603
   5344,   43.0122528,         -18.,   60.9972153
   5345,   22.6931839,         -18.,   38.7998962
   5346,   21.9802685,         -18.,   58.6512871
   5347,   22.0440807,         -18.,   40.9488564
   5348,   44.0562363,         -18.,   41.5735207
   5349,   43.7808647,         -18.,   58.7634735
   5350,   21.7366829,         -18.,   56.0787888
   5351,   21.6134186,         -18.,   43.2461586
   5352,   44.3434067,         -18.,    43.965271
   5353,   44.2881088,         -18.,   56.3836784
   5354,   44.5689354,         -18.,   46.4370689
   5355,   44.5913391,         -18.,   53.9445686
   5356,   21.4469013,         -18.,   53.4764633
   5357,   21.3120117,         -18.,   45.6868134
   5358,   44.7098198,         -18.,   48.9346962
   5359,   44.7356148,         -18.,   51.4473801
   5360,   21.1774864,         -18.,   48.2474365
   5361,   21.2321167,         -18.,   50.8668022
   5362,   40.1745033,         -18.,   28.6882305
   5363,   27.3638897,         -18.,   64.8150558
   5364,   38.6932716,         -18.,   63.2661514
   5365,   28.3316441,         -18.,   36.1577072
   5366,   41.1911659,         -18.,   37.5593529
   5367,   39.7603493,         -18.,   61.3570061
   5368,   24.5382042,         -18.,   61.8899002
   5369,   41.4323616,         -18.,   41.5545158
   5370,   40.7257347,         -18.,   59.5978622
   5371,   26.2227859,         -18.,   38.8305817
   5372,   24.5318241,         -18.,   58.8894768
   5373,   41.7058067,         -18.,   43.8800354
   5374,   41.5627174,         -18.,   57.7380142
   5375,   24.4461765,         -18.,    41.607254
   5376,    24.486824,         -18.,   56.2420769
   5377,   41.9455452,         -18.,   46.2727165
   5378,   24.1666527,         -18.,   43.7927437
   5379,   24.1311913,         -18.,   53.6443939
   5380,   41.9341393,         -18.,   55.6113052
   5381,   23.8670311,         -18.,   46.1065674
   5382,   23.8018913,         -18.,   51.0779877
   5383,   42.1323891,         -18.,   53.3672829
   5384,   42.1204567,         -18.,   48.6403198
   5385,   23.7161045,         -18.,   48.5511742
   5386,   42.2200165,         -18.,   51.0121613
   5387,   34.4459457,         -18.,   72.4494934
   5388,   39.8169022,         -18.,   31.9585323
   5389,   37.4126778,         -18.,   59.4230576
   5390,   26.8620396,         -18.,   59.1682243
   5391,   39.2112732,         -18.,   43.7804718
   5392,   26.7995777,         -18.,   41.6393852
   5393,   39.7752838,         -18.,   56.8871956
   5394,   27.6322765,         -18.,   56.4825134
   5395,   26.1002903,         -18.,   48.7901268
   5396,   39.5555992,         -18.,   48.4135056
   5397,   26.2168846,         -18.,   51.1596413
   5398,   39.6887512,         -18.,   52.8789101
   5399,   29.5085411,         -18.,   68.7704086
   5400,   40.9394455,         -18.,   36.0396919
   5401,   34.7007332,         -18.,     68.91922
   5402,   30.9264431,         -18.,   66.1856537
   5403,   39.1172905,         -18.,   35.3504791
   5404,   26.9174976,         -18.,   61.8150711
   5405,   37.8518257,         -18.,   33.3850365
   5406,   38.9509506,         -18.,   41.4390945
   5407,   32.2640419,         -18.,   68.8226166
   5408,   37.4644775,         -18.,   65.2379761
   5409,   30.8650894,         -18.,   71.5005112
   5410,   36.9193497,         -18.,   29.2947922
   5411,   32.4634933,         -18.,   73.8507233
   5412,   29.8351727,         -18.,   58.6326981
   5413,   35.4549408,         -18.,   63.5692291
   5414,   36.6233826,         -18.,   41.4300232
   5415,   35.6482735,         -18.,   34.1962585
   5416,   41.7752571,         -18.,   30.3696976
   5417,   34.2850456,         -18.,   65.5180893
   5418,    32.495266,         -18.,     64.19767
   5419,   38.4731674,         -18.,   30.4168186
   5420,   33.8004532,         -18.,   28.5802727
   5421,   34.4093933,         -18.,   38.1263657
   5422,    31.204258,         -18.,   61.0132217
   5423,   34.2902794,         -18.,   41.1476212
   5424,   35.0429382,         -18.,   31.3149853
   5425,   36.4704704,         -18.,   61.4890556
   5426,   33.4260788,         -18.,    62.227623
   5427,   30.9817219,         -18.,   27.7963696
   5428,    33.211422,         -18.,   35.0252151
   5429,   31.5110893,         -18.,   29.7243919
   5430,   31.7536335,         -18.,     57.66819
   5431,   31.4871025,         -18.,   38.4802361
   5432,     32.46912,         -18.,   43.9770584
   5433,   32.3174782,         -18.,   32.1934662
   5434,   31.9007587,         -18.,   41.2907066
   5435,   30.6531124,         -18.,   35.5962181
   5436,   29.6950054,         -18.,   32.7314949
   5437,   34.5554504,         -18.,   57.2206192
   5438,   29.7920914,         -18.,   44.6156235
   5439,   37.0106888,         -18.,   45.9838295
   5440,    30.251791,         -18.,   55.3745003
   5441,   36.6805038,         -18.,   48.5069923
   5442,   28.9423904,         -18.,   38.8007965
   5443,   34.2125816,         -18.,   60.1016312
   5444,   32.4381409,         -18.,   54.3419609
   5445,   31.4640541,         -18.,   46.6273117
   5446,   30.8045063,         -18.,     52.34338
   5447,   32.0543785,         -18.,   51.0084305
   5448,   36.6140747,         -18.,   55.0438194
   5449,   28.7308064,         -18.,   47.0539856
   5450,   28.2519054,         -18.,   51.0942726
   5451,   34.0245171,         -18.,    52.829319
   5452,   29.0057583,         -18.,   53.1791153
   5453,   37.3016167,         -18.,   52.2721786
   5454,   30.8459568,         -18.,   48.1337814
   5455,   37.5935478,         -18.,    76.365387
   5456,   35.7007408,         -18.,   77.5998535
   5457,   36.5526581,         -18.,   26.2779942
   5458,   32.6173592,         -18.,   25.4151535
   5459,   28.6381111,         -18.,   26.3364983
   5460,   25.3941898,         -18.,   29.1225357
   5461,   30.8019142,         -18.,   74.7542038
   5462,   36.3091774,         -18.,   70.7726288
   5463,   41.1140327,         -18.,    33.583416
   5464,   35.7763786,         -18.,    28.135746
   5465,   32.4396095,         -18.,   27.3184891
   5466,   29.5573635,         -18.,   28.0138321
   5467,   27.1048393,         -18.,   30.7011929
   5468,   24.9730968,         -18.,   34.9972649
   5469,   25.6657143,         -18.,   67.1950302
   5470,   28.6628227,         -18.,   70.4281311
   5471,   36.1281815,         -18.,    67.161026
   5472,   33.1101646,         -18.,   70.4627075
   5473,   33.0951729,         -18.,   67.3279572
   5474,   28.7017727,         -18.,   67.1404724
   5475,   25.4617767,         -18.,   64.2270508
   5476,   21.9800339,         -18.,   61.0507736
   5477,   30.8850765,         -18.,   68.8059845
   5478,   41.2441788,         -18.,   39.3864899
   5479,   37.1356583,         -18.,   31.7583656
   5480,   26.6214104,         -18.,   36.6761856
   5481,   24.5088139,         -18.,   39.7677078
   5482,   29.5326118,         -18.,   63.8859558
   5483,   29.0016937,         -18.,   61.6118927
   5484,    31.052103,         -18.,   63.0994148
   5485,   39.5305595,         -18.,   55.0216827
   5486,   39.8451309,         -18.,   50.6602554
   5487,    39.418499,         -18.,   46.1473656
   5488,   29.3761883,         -18.,   41.5743484
   5489,   26.7800503,         -18.,   44.1478004
   5490,   39.5841484,         -18.,   37.3409462
   5491,   26.7693729,         -18.,   53.6653824
   5492,    26.388216,         -18.,   46.4751167
   5493,   38.5553513,         -18.,   57.8505402
   5494,   32.4059296,         -18.,   59.6345558
   5495,   28.5802422,         -18.,    59.731472
   5496,   36.8198204,         -18.,   36.5500145
   5497,   38.5496216,         -18.,    38.827282
   5498,   28.2660351,         -18.,    49.089016
   5499,   34.6045685,         -18.,   43.5706329
   5500,   36.8660393,         -18.,   43.6677284
   5501,   36.6087227,         -18.,    39.505085
   5502,   35.2368279,         -18.,   50.7404442
   5503,   33.0260963,         -18.,   49.2205124
   5504,   37.9749527,         -18.,     50.56493
   5505,   33.6914444,         -18.,   46.7883492
   5506,   35.0569992,         -18.,   45.5107498
   5507,   30.2348843,         -18.,   49.7392235
   5508,   29.7386932,         -18.,   50.9975395
   5509,   29.9750156,         -21.,   20.3451309
   5510,    27.095583,         -21.,   21.3371277
   5511,   24.4627323,         -21.,   22.8705158
   5512,    20.085886,         -21.,   27.0924091
   5513,     18.34025,         -21.,   29.5927353
   5514,   15.6555128,         -21.,   35.0624733
   5515,    13.415472,         -21.,   43.9169006
   5516,          13.,         -21.,   50.0000496
   5517,   13.4154854,         -21.,   56.0831985
   5518,   15.6555481,         -21.,   64.9376221
   5519,   18.3403015,         -21.,   70.4073486
   5520,    20.085947,         -21.,   72.9076691
   5521,   24.4627781,         -21.,   77.1295166
   5522,   27.0956306,         -21.,   78.6628952
   5523,   29.9750633,         -21.,   79.6548843
   5524,          33.,         -21.,          20.
   5525,          33.,         -21.,          80.
   5526,   36.0249863,         -21.,   79.6548691
   5527,   38.9044151,         -21.,   78.6628723
   5528,   41.5372658,         -21.,   77.1294861
   5529,   45.9141159,         -21.,   72.9075928
   5530,   47.6597481,         -21.,   70.4072647
   5531,   50.3444862,         -21.,   64.9375305
   5532,   52.5845299,         -21.,   56.0830994
   5533,          53.,         -21.,   49.9999504
   5534,   52.5845146,         -21.,   43.9168015
   5535,   50.3444519,         -21.,   35.0623779
   5536,   47.6596985,         -21.,   29.5926533
   5537,   45.9140511,         -21.,   27.0923309
   5538,   41.5372238,         -21.,   22.8704834
   5539,   38.9043694,         -21.,   21.3371067
   5540,   36.0249367,         -21.,   20.3451195
   5541,   22.1232681,         -21.,   24.8242664
   5542,   16.8693237,         -21.,   32.2643623
   5543,   14.6832371,         -21.,   37.9535713
   5544,    13.939785,         -21.,   40.9119034
   5545,   13.1035376,         -21.,   46.9513474
   5546,   13.1035442,         -21.,    53.048748
   5547,    13.939806,         -21.,    59.088192
   5548,   14.6832647,         -21.,    62.046524
   5549,   16.8693657,         -21.,   67.7357254
   5550,   22.1233082,         -21.,   75.1757736
   5551,   43.8767319,         -21.,   75.1757355
   5552,   49.1306763,         -21.,   67.7356415
   5553,    51.316761,         -21.,   62.0464287
   5554,    52.060215,         -21.,   59.0880966
   5555,   52.8964615,         -21.,   53.0486526
   5556,   52.8964539,         -21.,    46.951252
   5557,   52.0601959,         -21.,    40.911808
   5558,   51.3167343,         -21.,    37.953476
   5559,   49.1306343,         -21.,   32.2642746
   5560,   43.8766899,         -21.,   24.8242264
   5561,   35.2298889,         -21.,   23.1984615
   5562,   20.4570503,         -21.,   31.3369122
   5563,   46.6730194,         -21.,    33.252388
   5564,   16.5533028,         -21.,   41.7955284
   5565,   50.0400925,         -21.,   46.7889481
   5566,   50.0673599,         -21.,   52.4844589
   5567,   17.1770935,         -21.,   61.5136795
   5568,   46.6494408,         -21.,   66.2046814
   5569,   22.1052074,         -21.,   71.0997238
   5570,   41.8038635,         -21.,   72.9968567
   5571,   28.1828575,         -21.,   76.0426025
   5572,   30.6447296,         -21.,   76.8130264
   5573,   33.5107384,         -21.,   76.5985718
   5574,   35.9339676,         -21.,   74.4850311
   5575,   39.7629509,         -21.,   74.8180466
   5576,   23.9128456,         -21.,   73.0552368
   5577,    45.260479,         -21.,   68.6413727
   5578,   19.1435146,         -21.,   66.5725861
   5579,    16.606966,         -21.,   58.8154831
   5580,   15.9526415,         -21.,   53.1909065
   5581,   15.8824272,         -21.,   47.4536209
   5582,   17.1885414,         -21.,    39.043087
   5583,   19.1558971,         -21.,   33.7840691
   5584,   43.7848396,         -21.,   28.7325592
   5585,   23.6976719,         -21.,   27.0323467
   5586,   37.6279945,         -21.,   23.9462585
   5587,   21.9855061,         -21.,   29.0968304
   5588,   18.0608215,         -21.,   36.3642044
   5589,   49.2940331,         -21.,   41.1765022
   5590,   16.1116581,         -21.,   44.6017036
   5591,   15.8250637,         -21.,   50.3196259
   5592,    16.206522,         -21.,   56.0279121
   5593,   48.6924019,         -21.,   60.9169769
   5594,   17.9767151,         -21.,    64.108963
   5595,   20.5047836,         -21.,   68.9114838
   5596,   25.9560127,         -21.,    74.734848
   5597,   43.6397972,         -21.,   70.9107056
   5598,   47.7911758,         -21.,   63.6094627
   5599,   49.3568611,         -21.,    58.140377
   5600,   49.8132744,         -21.,   55.3227539
   5601,   50.1526871,         -21.,   49.6321831
   5602,   49.7709999,         -21.,   43.9702225
   5603,   48.6431351,         -21.,   38.4496384
   5604,   47.7798462,         -21.,   35.7961159
   5605,   45.3624268,         -21.,   30.8999939
   5606,   39.9014206,         -21.,   25.1751041
   5607,   38.4278908,         -21.,   27.3225994
   5608,   29.2505646,         -21.,   73.7055588
   5609,   27.3673935,         -21.,   72.4830399
   5610,   37.9883919,         -21.,   72.7471848
   5611,   25.5790176,         -21.,   70.9442749
   5612,    39.831852,         -21.,   70.9426956
   5613,    26.976965,         -21.,   27.5720348
   5614,   23.9780636,         -21.,   69.1934433
   5615,   24.0299911,         -21.,   31.1150627
   5616,   41.5061607,         -21.,   68.9794998
   5617,   22.7052479,         -21.,   33.1463318
   5618,   42.9987068,         -21.,   66.8800354
   5619,   43.1580048,         -21.,   32.2201118
   5620,   22.5213356,         -21.,   67.3223801
   5621,   44.3611374,         -21.,   34.2434273
   5622,   21.1884995,         -21.,    65.351387
   5623,   44.2910881,         -21.,   64.6571274
   5624,   21.4741039,         -21.,   35.3257484
   5625,   45.3731155,         -21.,   36.5341988
   5626,   20.0984821,         -21.,   63.3377953
   5627,   20.4319611,         -21.,   37.6162834
   5628,   45.3556976,         -21.,   62.3061447
   5629,   46.1257286,         -21.,   38.9348259
   5630,   19.5682163,         -21.,     61.09235
   5631,     46.17696,         -21.,   59.8231087
   5632,   19.6441994,         -21.,   40.0624466
   5633,    46.659977,         -21.,   41.4290199
   5634,   19.2696419,         -21.,   58.6330948
   5635,   46.7590561,         -21.,   57.2337112
   5636,   19.0930805,         -21.,   42.5710716
   5637,   47.0355186,         -21.,   44.0046234
   5638,   18.9781055,         -21.,   56.0168648
   5639,   47.1419945,         -21.,   54.6037941
   5640,   18.7357635,         -21.,   45.1917572
   5641,   47.3483658,         -21.,   51.9430046
   5642,   18.5629845,         -21.,   47.8785248
   5643,   47.2773933,         -21.,   46.6244431
   5644,   18.7200165,         -21.,   53.3207169
   5645,   47.3942909,         -21.,   49.2757759
   5646,   18.5624676,         -21.,    50.603096
   5647,    30.259304,         -21.,   23.1705284
   5648,   27.8521633,         -21.,   23.9805584
   5649,    32.786644,         -21.,   22.9029446
   5650,   25.7019634,         -21.,   25.2896709
   5651,   41.9629555,         -21.,   26.7987347
   5652,   34.5407333,         -21.,   25.7996216
   5653,   27.1182175,         -21.,   68.9016647
   5654,   37.9515305,         -21.,   68.9892349
   5655,   30.5744743,         -21.,   25.6376686
   5656,   28.8751526,         -21.,   29.8509731
   5657,   24.2644939,         -21.,   65.6617584
   5658,   39.4683342,         -21.,   67.0804214
   5659,   40.8387947,         -21.,   65.0889587
   5660,   26.7863464,         -21.,   33.1728821
   5661,    42.338871,         -21.,   35.1894417
   5662,    22.995245,         -21.,   63.8894196
   5663,   43.2096786,         -21.,   37.1935806
   5664,   42.0297928,         -21.,   63.0641098
   5665,   21.7352524,         -21.,    62.749115
   5666,   23.7637959,         -21.,   36.9400597
   5667,   43.7055893,         -21.,    39.305603
   5668,   43.0122528,         -21.,   60.9972153
   5669,   22.6931839,         -21.,   38.7998962
   5670,   21.9802685,         -21.,   58.6512871
   5671,   22.0440807,         -21.,   40.9488564
   5672,   44.0562363,         -21.,   41.5735207
   5673,   43.7808647,         -21.,   58.7634735
   5674,   21.7366829,         -21.,   56.0787888
   5675,   21.6134186,         -21.,   43.2461586
   5676,   44.3434067,         -21.,    43.965271
   5677,   44.2881088,         -21.,   56.3836784
   5678,   44.5689354,         -21.,   46.4370689
   5679,   44.5913391,         -21.,   53.9445686
   5680,   21.4469013,         -21.,   53.4764633
   5681,   21.3120117,         -21.,   45.6868134
   5682,   44.7098198,         -21.,   48.9346962
   5683,   44.7356148,         -21.,   51.4473801
   5684,   21.1774864,         -21.,   48.2474365
   5685,   21.2321167,         -21.,   50.8668022
   5686,   40.1745033,         -21.,   28.6882305
   5687,   27.3638897,         -21.,   64.8150558
   5688,   38.6932716,         -21.,   63.2661514
   5689,   28.3316441,         -21.,   36.1577072
   5690,   41.1911659,         -21.,   37.5593529
   5691,   39.7603493,         -21.,   61.3570061
   5692,   24.5382042,         -21.,   61.8899002
   5693,   41.4323616,         -21.,   41.5545158
   5694,   40.7257347,         -21.,   59.5978622
   5695,   26.2227859,         -21.,   38.8305817
   5696,   24.5318241,         -21.,   58.8894768
   5697,   41.7058067,         -21.,   43.8800354
   5698,   41.5627174,         -21.,   57.7380142
   5699,   24.4461765,         -21.,    41.607254
   5700,    24.486824,         -21.,   56.2420769
   5701,   41.9455452,         -21.,   46.2727165
   5702,   24.1666527,         -21.,   43.7927437
   5703,   24.1311913,         -21.,   53.6443939
   5704,   41.9341393,         -21.,   55.6113052
   5705,   23.8670311,         -21.,   46.1065674
   5706,   23.8018913,         -21.,   51.0779877
   5707,   42.1323891,         -21.,   53.3672829
   5708,   42.1204567,         -21.,   48.6403198
   5709,   23.7161045,         -21.,   48.5511742
   5710,   42.2200165,         -21.,   51.0121613
   5711,   34.4459457,         -21.,   72.4494934
   5712,   39.8169022,         -21.,   31.9585323
   5713,   37.4126778,         -21.,   59.4230576
   5714,   26.8620396,         -21.,   59.1682243
   5715,   39.2112732,         -21.,   43.7804718
   5716,   26.7995777,         -21.,   41.6393852
   5717,   39.7752838,         -21.,   56.8871956
   5718,   27.6322765,         -21.,   56.4825134
   5719,   26.1002903,         -21.,   48.7901268
   5720,   39.5555992,         -21.,   48.4135056
   5721,   26.2168846,         -21.,   51.1596413
   5722,   39.6887512,         -21.,   52.8789101
   5723,   29.5085411,         -21.,   68.7704086
   5724,   40.9394455,         -21.,   36.0396919
   5725,   34.7007332,         -21.,     68.91922
   5726,   30.9264431,         -21.,   66.1856537
   5727,   39.1172905,         -21.,   35.3504791
   5728,   26.9174976,         -21.,   61.8150711
   5729,   37.8518257,         -21.,   33.3850365
   5730,   38.9509506,         -21.,   41.4390945
   5731,   32.2640419,         -21.,   68.8226166
   5732,   37.4644775,         -21.,   65.2379761
   5733,   30.8650894,         -21.,   71.5005112
   5734,   36.9193497,         -21.,   29.2947922
   5735,   32.4634933,         -21.,   73.8507233
   5736,   29.8351727,         -21.,   58.6326981
   5737,   35.4549408,         -21.,   63.5692291
   5738,   36.6233826,         -21.,   41.4300232
   5739,   35.6482735,         -21.,   34.1962585
   5740,   41.7752571,         -21.,   30.3696976
   5741,   34.2850456,         -21.,   65.5180893
   5742,    32.495266,         -21.,     64.19767
   5743,   38.4731674,         -21.,   30.4168186
   5744,   33.8004532,         -21.,   28.5802727
   5745,   34.4093933,         -21.,   38.1263657
   5746,    31.204258,         -21.,   61.0132217
   5747,   34.2902794,         -21.,   41.1476212
   5748,   35.0429382,         -21.,   31.3149853
   5749,   36.4704704,         -21.,   61.4890556
   5750,   33.4260788,         -21.,    62.227623
   5751,   30.9817219,         -21.,   27.7963696
   5752,    33.211422,         -21.,   35.0252151
   5753,   31.5110893,         -21.,   29.7243919
   5754,   31.7536335,         -21.,     57.66819
   5755,   31.4871025,         -21.,   38.4802361
   5756,     32.46912,         -21.,   43.9770584
   5757,   32.3174782,         -21.,   32.1934662
   5758,   31.9007587,         -21.,   41.2907066
   5759,   30.6531124,         -21.,   35.5962181
   5760,   29.6950054,         -21.,   32.7314949
   5761,   34.5554504,         -21.,   57.2206192
   5762,   29.7920914,         -21.,   44.6156235
   5763,   37.0106888,         -21.,   45.9838295
   5764,    30.251791,         -21.,   55.3745003
   5765,   36.6805038,         -21.,   48.5069923
   5766,   28.9423904,         -21.,   38.8007965
   5767,   34.2125816,         -21.,   60.1016312
   5768,   32.4381409,         -21.,   54.3419609
   5769,   31.4640541,         -21.,   46.6273117
   5770,   30.8045063,         -21.,     52.34338
   5771,   32.0543785,         -21.,   51.0084305
   5772,   36.6140747,         -21.,   55.0438194
   5773,   28.7308064,         -21.,   47.0539856
   5774,   28.2519054,         -21.,   51.0942726
   5775,   34.0245171,         -21.,    52.829319
   5776,   29.0057583,         -21.,   53.1791153
   5777,   37.3016167,         -21.,   52.2721786
   5778,   30.8459568,         -21.,   48.1337814
   5779,   37.5935478,         -21.,    76.365387
   5780,   35.7007408,         -21.,   77.5998535
   5781,   36.5526581,         -21.,   26.2779942
   5782,   32.6173592,         -21.,   25.4151535
   5783,   28.6381111,         -21.,   26.3364983
   5784,   25.3941898,         -21.,   29.1225357
   5785,   30.8019142,         -21.,   74.7542038
   5786,   36.3091774,         -21.,   70.7726288
   5787,   41.1140327,         -21.,    33.583416
   5788,   35.7763786,         -21.,    28.135746
   5789,   32.4396095,         -21.,   27.3184891
   5790,   29.5573635,         -21.,   28.0138321
   5791,   27.1048393,         -21.,   30.7011929
   5792,   24.9730968,         -21.,   34.9972649
   5793,   25.6657143,         -21.,   67.1950302
   5794,   28.6628227,         -21.,   70.4281311
   5795,   36.1281815,         -21.,    67.161026
   5796,   33.1101646,         -21.,   70.4627075
   5797,   33.0951729,         -21.,   67.3279572
   5798,   28.7017727,         -21.,   67.1404724
   5799,   25.4617767,         -21.,   64.2270508
   5800,   21.9800339,         -21.,   61.0507736
   5801,   30.8850765,         -21.,   68.8059845
   5802,   41.2441788,         -21.,   39.3864899
   5803,   37.1356583,         -21.,   31.7583656
   5804,   26.6214104,         -21.,   36.6761856
   5805,   24.5088139,         -21.,   39.7677078
   5806,   29.5326118,         -21.,   63.8859558
   5807,   29.0016937,         -21.,   61.6118927
   5808,    31.052103,         -21.,   63.0994148
   5809,   39.5305595,         -21.,   55.0216827
   5810,   39.8451309,         -21.,   50.6602554
   5811,    39.418499,         -21.,   46.1473656
   5812,   29.3761883,         -21.,   41.5743484
   5813,   26.7800503,         -21.,   44.1478004
   5814,   39.5841484,         -21.,   37.3409462
   5815,   26.7693729,         -21.,   53.6653824
   5816,    26.388216,         -21.,   46.4751167
   5817,   38.5553513,         -21.,   57.8505402
   5818,   32.4059296,         -21.,   59.6345558
   5819,   28.5802422,         -21.,    59.731472
   5820,   36.8198204,         -21.,   36.5500145
   5821,   38.5496216,         -21.,    38.827282
   5822,   28.2660351,         -21.,    49.089016
   5823,   34.6045685,         -21.,   43.5706329
   5824,   36.8660393,         -21.,   43.6677284
   5825,   36.6087227,         -21.,    39.505085
   5826,   35.2368279,         -21.,   50.7404442
   5827,   33.0260963,         -21.,   49.2205124
   5828,   37.9749527,         -21.,     50.56493
   5829,   33.6914444,         -21.,   46.7883492
   5830,   35.0569992,         -21.,   45.5107498
   5831,   30.2348843,         -21.,   49.7392235
   5832,   29.7386932,         -21.,   50.9975395
   5833,   29.9750156,         -24.,   20.3451309
   5834,    27.095583,         -24.,   21.3371277
   5835,   24.4627323,         -24.,   22.8705158
   5836,    20.085886,         -24.,   27.0924091
   5837,     18.34025,         -24.,   29.5927353
   5838,   15.6555128,         -24.,   35.0624733
   5839,    13.415472,         -24.,   43.9169006
   5840,          13.,         -24.,   50.0000496
   5841,   13.4154854,         -24.,   56.0831985
   5842,   15.6555481,         -24.,   64.9376221
   5843,   18.3403015,         -24.,   70.4073486
   5844,    20.085947,         -24.,   72.9076691
   5845,   24.4627781,         -24.,   77.1295166
   5846,   27.0956306,         -24.,   78.6628952
   5847,   29.9750633,         -24.,   79.6548843
   5848,          33.,         -24.,          20.
   5849,          33.,         -24.,          80.
   5850,   36.0249863,         -24.,   79.6548691
   5851,   38.9044151,         -24.,   78.6628723
   5852,   41.5372658,         -24.,   77.1294861
   5853,   45.9141159,         -24.,   72.9075928
   5854,   47.6597481,         -24.,   70.4072647
   5855,   50.3444862,         -24.,   64.9375305
   5856,   52.5845299,         -24.,   56.0830994
   5857,          53.,         -24.,   49.9999504
   5858,   52.5845146,         -24.,   43.9168015
   5859,   50.3444519,         -24.,   35.0623779
   5860,   47.6596985,         -24.,   29.5926533
   5861,   45.9140511,         -24.,   27.0923309
   5862,   41.5372238,         -24.,   22.8704834
   5863,   38.9043694,         -24.,   21.3371067
   5864,   36.0249367,         -24.,   20.3451195
   5865,   22.1232681,         -24.,   24.8242664
   5866,   16.8693237,         -24.,   32.2643623
   5867,   14.6832371,         -24.,   37.9535713
   5868,    13.939785,         -24.,   40.9119034
   5869,   13.1035376,         -24.,   46.9513474
   5870,   13.1035442,         -24.,    53.048748
   5871,    13.939806,         -24.,    59.088192
   5872,   14.6832647,         -24.,    62.046524
   5873,   16.8693657,         -24.,   67.7357254
   5874,   22.1233082,         -24.,   75.1757736
   5875,   43.8767319,         -24.,   75.1757355
   5876,   49.1306763,         -24.,   67.7356415
   5877,    51.316761,         -24.,   62.0464287
   5878,    52.060215,         -24.,   59.0880966
   5879,   52.8964615,         -24.,   53.0486526
   5880,   52.8964539,         -24.,    46.951252
   5881,   52.0601959,         -24.,    40.911808
   5882,   51.3167343,         -24.,    37.953476
   5883,   49.1306343,         -24.,   32.2642746
   5884,   43.8766899,         -24.,   24.8242264
   5885,   35.2298889,         -24.,   23.1984615
   5886,   20.4570503,         -24.,   31.3369122
   5887,   46.6730194,         -24.,    33.252388
   5888,   16.5533028,         -24.,   41.7955284
   5889,   50.0400925,         -24.,   46.7889481
   5890,   50.0673599,         -24.,   52.4844589
   5891,   17.1770935,         -24.,   61.5136795
   5892,   46.6494408,         -24.,   66.2046814
   5893,   22.1052074,         -24.,   71.0997238
   5894,   41.8038635,         -24.,   72.9968567
   5895,   28.1828575,         -24.,   76.0426025
   5896,   30.6447296,         -24.,   76.8130264
   5897,   33.5107384,         -24.,   76.5985718
   5898,   35.9339676,         -24.,   74.4850311
   5899,   39.7629509,         -24.,   74.8180466
   5900,   23.9128456,         -24.,   73.0552368
   5901,    45.260479,         -24.,   68.6413727
   5902,   19.1435146,         -24.,   66.5725861
   5903,    16.606966,         -24.,   58.8154831
   5904,   15.9526415,         -24.,   53.1909065
   5905,   15.8824272,         -24.,   47.4536209
   5906,   17.1885414,         -24.,    39.043087
   5907,   19.1558971,         -24.,   33.7840691
   5908,   43.7848396,         -24.,   28.7325592
   5909,   23.6976719,         -24.,   27.0323467
   5910,   37.6279945,         -24.,   23.9462585
   5911,   21.9855061,         -24.,   29.0968304
   5912,   18.0608215,         -24.,   36.3642044
   5913,   49.2940331,         -24.,   41.1765022
   5914,   16.1116581,         -24.,   44.6017036
   5915,   15.8250637,         -24.,   50.3196259
   5916,    16.206522,         -24.,   56.0279121
   5917,   48.6924019,         -24.,   60.9169769
   5918,   17.9767151,         -24.,    64.108963
   5919,   20.5047836,         -24.,   68.9114838
   5920,   25.9560127,         -24.,    74.734848
   5921,   43.6397972,         -24.,   70.9107056
   5922,   47.7911758,         -24.,   63.6094627
   5923,   49.3568611,         -24.,    58.140377
   5924,   49.8132744,         -24.,   55.3227539
   5925,   50.1526871,         -24.,   49.6321831
   5926,   49.7709999,         -24.,   43.9702225
   5927,   48.6431351,         -24.,   38.4496384
   5928,   47.7798462,         -24.,   35.7961159
   5929,   45.3624268,         -24.,   30.8999939
   5930,   39.9014206,         -24.,   25.1751041
   5931,   38.4278908,         -24.,   27.3225994
   5932,   29.2505646,         -24.,   73.7055588
   5933,   27.3673935,         -24.,   72.4830399
   5934,   37.9883919,         -24.,   72.7471848
   5935,   25.5790176,         -24.,   70.9442749
   5936,    39.831852,         -24.,   70.9426956
   5937,    26.976965,         -24.,   27.5720348
   5938,   23.9780636,         -24.,   69.1934433
   5939,   24.0299911,         -24.,   31.1150627
   5940,   41.5061607,         -24.,   68.9794998
   5941,   22.7052479,         -24.,   33.1463318
   5942,   42.9987068,         -24.,   66.8800354
   5943,   43.1580048,         -24.,   32.2201118
   5944,   22.5213356,         -24.,   67.3223801
   5945,   44.3611374,         -24.,   34.2434273
   5946,   21.1884995,         -24.,    65.351387
   5947,   44.2910881,         -24.,   64.6571274
   5948,   21.4741039,         -24.,   35.3257484
   5949,   45.3731155,         -24.,   36.5341988
   5950,   20.0984821,         -24.,   63.3377953
   5951,   20.4319611,         -24.,   37.6162834
   5952,   45.3556976,         -24.,   62.3061447
   5953,   46.1257286,         -24.,   38.9348259
   5954,   19.5682163,         -24.,     61.09235
   5955,     46.17696,         -24.,   59.8231087
   5956,   19.6441994,         -24.,   40.0624466
   5957,    46.659977,         -24.,   41.4290199
   5958,   19.2696419,         -24.,   58.6330948
   5959,   46.7590561,         -24.,   57.2337112
   5960,   19.0930805,         -24.,   42.5710716
   5961,   47.0355186,         -24.,   44.0046234
   5962,   18.9781055,         -24.,   56.0168648
   5963,   47.1419945,         -24.,   54.6037941
   5964,   18.7357635,         -24.,   45.1917572
   5965,   47.3483658,         -24.,   51.9430046
   5966,   18.5629845,         -24.,   47.8785248
   5967,   47.2773933,         -24.,   46.6244431
   5968,   18.7200165,         -24.,   53.3207169
   5969,   47.3942909,         -24.,   49.2757759
   5970,   18.5624676,         -24.,    50.603096
   5971,    30.259304,         -24.,   23.1705284
   5972,   27.8521633,         -24.,   23.9805584
   5973,    32.786644,         -24.,   22.9029446
   5974,   25.7019634,         -24.,   25.2896709
   5975,   41.9629555,         -24.,   26.7987347
   5976,   34.5407333,         -24.,   25.7996216
   5977,   27.1182175,         -24.,   68.9016647
   5978,   37.9515305,         -24.,   68.9892349
   5979,   30.5744743,         -24.,   25.6376686
   5980,   28.8751526,         -24.,   29.8509731
   5981,   24.2644939,         -24.,   65.6617584
   5982,   39.4683342,         -24.,   67.0804214
   5983,   40.8387947,         -24.,   65.0889587
   5984,   26.7863464,         -24.,   33.1728821
   5985,    42.338871,         -24.,   35.1894417
   5986,    22.995245,         -24.,   63.8894196
   5987,   43.2096786,         -24.,   37.1935806
   5988,   42.0297928,         -24.,   63.0641098
   5989,   21.7352524,         -24.,    62.749115
   5990,   23.7637959,         -24.,   36.9400597
   5991,   43.7055893,         -24.,    39.305603
   5992,   43.0122528,         -24.,   60.9972153
   5993,   22.6931839,         -24.,   38.7998962
   5994,   21.9802685,         -24.,   58.6512871
   5995,   22.0440807,         -24.,   40.9488564
   5996,   44.0562363,         -24.,   41.5735207
   5997,   43.7808647,         -24.,   58.7634735
   5998,   21.7366829,         -24.,   56.0787888
   5999,   21.6134186,         -24.,   43.2461586
   6000,   44.3434067,         -24.,    43.965271
   6001,   44.2881088,         -24.,   56.3836784
   6002,   44.5689354,         -24.,   46.4370689
   6003,   44.5913391,         -24.,   53.9445686
   6004,   21.4469013,         -24.,   53.4764633
   6005,   21.3120117,         -24.,   45.6868134
   6006,   44.7098198,         -24.,   48.9346962
   6007,   44.7356148,         -24.,   51.4473801
   6008,   21.1774864,         -24.,   48.2474365
   6009,   21.2321167,         -24.,   50.8668022
   6010,   40.1745033,         -24.,   28.6882305
   6011,   27.3638897,         -24.,   64.8150558
   6012,   38.6932716,         -24.,   63.2661514
   6013,   28.3316441,         -24.,   36.1577072
   6014,   41.1911659,         -24.,   37.5593529
   6015,   39.7603493,         -24.,   61.3570061
   6016,   24.5382042,         -24.,   61.8899002
   6017,   41.4323616,         -24.,   41.5545158
   6018,   40.7257347,         -24.,   59.5978622
   6019,   26.2227859,         -24.,   38.8305817
   6020,   24.5318241,         -24.,   58.8894768
   6021,   41.7058067,         -24.,   43.8800354
   6022,   41.5627174,         -24.,   57.7380142
   6023,   24.4461765,         -24.,    41.607254
   6024,    24.486824,         -24.,   56.2420769
   6025,   41.9455452,         -24.,   46.2727165
   6026,   24.1666527,         -24.,   43.7927437
   6027,   24.1311913,         -24.,   53.6443939
   6028,   41.9341393,         -24.,   55.6113052
   6029,   23.8670311,         -24.,   46.1065674
   6030,   23.8018913,         -24.,   51.0779877
   6031,   42.1323891,         -24.,   53.3672829
   6032,   42.1204567,         -24.,   48.6403198
   6033,   23.7161045,         -24.,   48.5511742
   6034,   42.2200165,         -24.,   51.0121613
   6035,   34.4459457,         -24.,   72.4494934
   6036,   39.8169022,         -24.,   31.9585323
   6037,   37.4126778,         -24.,   59.4230576
   6038,   26.8620396,         -24.,   59.1682243
   6039,   39.2112732,         -24.,   43.7804718
   6040,   26.7995777,         -24.,   41.6393852
   6041,   39.7752838,         -24.,   56.8871956
   6042,   27.6322765,         -24.,   56.4825134
   6043,   26.1002903,         -24.,   48.7901268
   6044,   39.5555992,         -24.,   48.4135056
   6045,   26.2168846,         -24.,   51.1596413
   6046,   39.6887512,         -24.,   52.8789101
   6047,   29.5085411,         -24.,   68.7704086
   6048,   40.9394455,         -24.,   36.0396919
   6049,   34.7007332,         -24.,     68.91922
   6050,   30.9264431,         -24.,   66.1856537
   6051,   39.1172905,         -24.,   35.3504791
   6052,   26.9174976,         -24.,   61.8150711
   6053,   37.8518257,         -24.,   33.3850365
   6054,   38.9509506,         -24.,   41.4390945
   6055,   32.2640419,         -24.,   68.8226166
   6056,   37.4644775,         -24.,   65.2379761
   6057,   30.8650894,         -24.,   71.5005112
   6058,   36.9193497,         -24.,   29.2947922
   6059,   32.4634933,         -24.,   73.8507233
   6060,   29.8351727,         -24.,   58.6326981
   6061,   35.4549408,         -24.,   63.5692291
   6062,   36.6233826,         -24.,   41.4300232
   6063,   35.6482735,         -24.,   34.1962585
   6064,   41.7752571,         -24.,   30.3696976
   6065,   34.2850456,         -24.,   65.5180893
   6066,    32.495266,         -24.,     64.19767
   6067,   38.4731674,         -24.,   30.4168186
   6068,   33.8004532,         -24.,   28.5802727
   6069,   34.4093933,         -24.,   38.1263657
   6070,    31.204258,         -24.,   61.0132217
   6071,   34.2902794,         -24.,   41.1476212
   6072,   35.0429382,         -24.,   31.3149853
   6073,   36.4704704,         -24.,   61.4890556
   6074,   33.4260788,         -24.,    62.227623
   6075,   30.9817219,         -24.,   27.7963696
   6076,    33.211422,         -24.,   35.0252151
   6077,   31.5110893,         -24.,   29.7243919
   6078,   31.7536335,         -24.,     57.66819
   6079,   31.4871025,         -24.,   38.4802361
   6080,     32.46912,         -24.,   43.9770584
   6081,   32.3174782,         -24.,   32.1934662
   6082,   31.9007587,         -24.,   41.2907066
   6083,   30.6531124,         -24.,   35.5962181
   6084,   29.6950054,         -24.,   32.7314949
   6085,   34.5554504,         -24.,   57.2206192
   6086,   29.7920914,         -24.,   44.6156235
   6087,   37.0106888,         -24.,   45.9838295
   6088,    30.251791,         -24.,   55.3745003
   6089,   36.6805038,         -24.,   48.5069923
   6090,   28.9423904,         -24.,   38.8007965
   6091,   34.2125816,         -24.,   60.1016312
   6092,   32.4381409,         -24.,   54.3419609
   6093,   31.4640541,         -24.,   46.6273117
   6094,   30.8045063,         -24.,     52.34338
   6095,   32.0543785,         -24.,   51.0084305
   6096,   36.6140747,         -24.,   55.0438194
   6097,   28.7308064,         -24.,   47.0539856
   6098,   28.2519054,         -24.,   51.0942726
   6099,   34.0245171,         -24.,    52.829319
   6100,   29.0057583,         -24.,   53.1791153
   6101,   37.3016167,         -24.,   52.2721786
   6102,   30.8459568,         -24.,   48.1337814
   6103,   37.5935478,         -24.,    76.365387
   6104,   35.7007408,         -24.,   77.5998535
   6105,   36.5526581,         -24.,   26.2779942
   6106,   32.6173592,         -24.,   25.4151535
   6107,   28.6381111,         -24.,   26.3364983
   6108,   25.3941898,         -24.,   29.1225357
   6109,   30.8019142,         -24.,   74.7542038
   6110,   36.3091774,         -24.,   70.7726288
   6111,   41.1140327,         -24.,    33.583416
   6112,   35.7763786,         -24.,    28.135746
   6113,   32.4396095,         -24.,   27.3184891
   6114,   29.5573635,         -24.,   28.0138321
   6115,   27.1048393,         -24.,   30.7011929
   6116,   24.9730968,         -24.,   34.9972649
   6117,   25.6657143,         -24.,   67.1950302
   6118,   28.6628227,         -24.,   70.4281311
   6119,   36.1281815,         -24.,    67.161026
   6120,   33.1101646,         -24.,   70.4627075
   6121,   33.0951729,         -24.,   67.3279572
   6122,   28.7017727,         -24.,   67.1404724
   6123,   25.4617767,         -24.,   64.2270508
   6124,   21.9800339,         -24.,   61.0507736
   6125,   30.8850765,         -24.,   68.8059845
   6126,   41.2441788,         -24.,   39.3864899
   6127,   37.1356583,         -24.,   31.7583656
   6128,   26.6214104,         -24.,   36.6761856
   6129,   24.5088139,         -24.,   39.7677078
   6130,   29.5326118,         -24.,   63.8859558
   6131,   29.0016937,         -24.,   61.6118927
   6132,    31.052103,         -24.,   63.0994148
   6133,   39.5305595,         -24.,   55.0216827
   6134,   39.8451309,         -24.,   50.6602554
   6135,    39.418499,         -24.,   46.1473656
   6136,   29.3761883,         -24.,   41.5743484
   6137,   26.7800503,         -24.,   44.1478004
   6138,   39.5841484,         -24.,   37.3409462
   6139,   26.7693729,         -24.,   53.6653824
   6140,    26.388216,         -24.,   46.4751167
   6141,   38.5553513,         -24.,   57.8505402
   6142,   32.4059296,         -24.,   59.6345558
   6143,   28.5802422,         -24.,    59.731472
   6144,   36.8198204,         -24.,   36.5500145
   6145,   38.5496216,         -24.,    38.827282
   6146,   28.2660351,         -24.,    49.089016
   6147,   34.6045685,         -24.,   43.5706329
   6148,   36.8660393,         -24.,   43.6677284
   6149,   36.6087227,         -24.,    39.505085
   6150,   35.2368279,         -24.,   50.7404442
   6151,   33.0260963,         -24.,   49.2205124
   6152,   37.9749527,         -24.,     50.56493
   6153,   33.6914444,         -24.,   46.7883492
   6154,   35.0569992,         -24.,   45.5107498
   6155,   30.2348843,         -24.,   49.7392235
   6156,   29.7386932,         -24.,   50.9975395
   6157,   29.9750156,         -27.,   20.3451309
   6158,    27.095583,         -27.,   21.3371277
   6159,   24.4627323,         -27.,   22.8705158
   6160,    20.085886,         -27.,   27.0924091
   6161,     18.34025,         -27.,   29.5927353
   6162,   15.6555128,         -27.,   35.0624733
   6163,    13.415472,         -27.,   43.9169006
   6164,          13.,         -27.,   50.0000496
   6165,   13.4154854,         -27.,   56.0831985
   6166,   15.6555481,         -27.,   64.9376221
   6167,   18.3403015,         -27.,   70.4073486
   6168,    20.085947,         -27.,   72.9076691
   6169,   24.4627781,         -27.,   77.1295166
   6170,   27.0956306,         -27.,   78.6628952
   6171,   29.9750633,         -27.,   79.6548843
   6172,          33.,         -27.,          20.
   6173,          33.,         -27.,          80.
   6174,   36.0249863,         -27.,   79.6548691
   6175,   38.9044151,         -27.,   78.6628723
   6176,   41.5372658,         -27.,   77.1294861
   6177,   45.9141159,         -27.,   72.9075928
   6178,   47.6597481,         -27.,   70.4072647
   6179,   50.3444862,         -27.,   64.9375305
   6180,   52.5845299,         -27.,   56.0830994
   6181,          53.,         -27.,   49.9999504
   6182,   52.5845146,         -27.,   43.9168015
   6183,   50.3444519,         -27.,   35.0623779
   6184,   47.6596985,         -27.,   29.5926533
   6185,   45.9140511,         -27.,   27.0923309
   6186,   41.5372238,         -27.,   22.8704834
   6187,   38.9043694,         -27.,   21.3371067
   6188,   36.0249367,         -27.,   20.3451195
   6189,   22.1232681,         -27.,   24.8242664
   6190,   16.8693237,         -27.,   32.2643623
   6191,   14.6832371,         -27.,   37.9535713
   6192,    13.939785,         -27.,   40.9119034
   6193,   13.1035376,         -27.,   46.9513474
   6194,   13.1035442,         -27.,    53.048748
   6195,    13.939806,         -27.,    59.088192
   6196,   14.6832647,         -27.,    62.046524
   6197,   16.8693657,         -27.,   67.7357254
   6198,   22.1233082,         -27.,   75.1757736
   6199,   43.8767319,         -27.,   75.1757355
   6200,   49.1306763,         -27.,   67.7356415
   6201,    51.316761,         -27.,   62.0464287
   6202,    52.060215,         -27.,   59.0880966
   6203,   52.8964615,         -27.,   53.0486526
   6204,   52.8964539,         -27.,    46.951252
   6205,   52.0601959,         -27.,    40.911808
   6206,   51.3167343,         -27.,    37.953476
   6207,   49.1306343,         -27.,   32.2642746
   6208,   43.8766899,         -27.,   24.8242264
   6209,   35.2298889,         -27.,   23.1984615
   6210,   20.4570503,         -27.,   31.3369122
   6211,   46.6730194,         -27.,    33.252388
   6212,   16.5533028,         -27.,   41.7955284
   6213,   50.0400925,         -27.,   46.7889481
   6214,   50.0673599,         -27.,   52.4844589
   6215,   17.1770935,         -27.,   61.5136795
   6216,   46.6494408,         -27.,   66.2046814
   6217,   22.1052074,         -27.,   71.0997238
   6218,   41.8038635,         -27.,   72.9968567
   6219,   28.1828575,         -27.,   76.0426025
   6220,   30.6447296,         -27.,   76.8130264
   6221,   33.5107384,         -27.,   76.5985718
   6222,   35.9339676,         -27.,   74.4850311
   6223,   39.7629509,         -27.,   74.8180466
   6224,   23.9128456,         -27.,   73.0552368
   6225,    45.260479,         -27.,   68.6413727
   6226,   19.1435146,         -27.,   66.5725861
   6227,    16.606966,         -27.,   58.8154831
   6228,   15.9526415,         -27.,   53.1909065
   6229,   15.8824272,         -27.,   47.4536209
   6230,   17.1885414,         -27.,    39.043087
   6231,   19.1558971,         -27.,   33.7840691
   6232,   43.7848396,         -27.,   28.7325592
   6233,   23.6976719,         -27.,   27.0323467
   6234,   37.6279945,         -27.,   23.9462585
   6235,   21.9855061,         -27.,   29.0968304
   6236,   18.0608215,         -27.,   36.3642044
   6237,   49.2940331,         -27.,   41.1765022
   6238,   16.1116581,         -27.,   44.6017036
   6239,   15.8250637,         -27.,   50.3196259
   6240,    16.206522,         -27.,   56.0279121
   6241,   48.6924019,         -27.,   60.9169769
   6242,   17.9767151,         -27.,    64.108963
   6243,   20.5047836,         -27.,   68.9114838
   6244,   25.9560127,         -27.,    74.734848
   6245,   43.6397972,         -27.,   70.9107056
   6246,   47.7911758,         -27.,   63.6094627
   6247,   49.3568611,         -27.,    58.140377
   6248,   49.8132744,         -27.,   55.3227539
   6249,   50.1526871,         -27.,   49.6321831
   6250,   49.7709999,         -27.,   43.9702225
   6251,   48.6431351,         -27.,   38.4496384
   6252,   47.7798462,         -27.,   35.7961159
   6253,   45.3624268,         -27.,   30.8999939
   6254,   39.9014206,         -27.,   25.1751041
   6255,   38.4278908,         -27.,   27.3225994
   6256,   29.2505646,         -27.,   73.7055588
   6257,   27.3673935,         -27.,   72.4830399
   6258,   37.9883919,         -27.,   72.7471848
   6259,   25.5790176,         -27.,   70.9442749
   6260,    39.831852,         -27.,   70.9426956
   6261,    26.976965,         -27.,   27.5720348
   6262,   23.9780636,         -27.,   69.1934433
   6263,   24.0299911,         -27.,   31.1150627
   6264,   41.5061607,         -27.,   68.9794998
   6265,   22.7052479,         -27.,   33.1463318
   6266,   42.9987068,         -27.,   66.8800354
   6267,   43.1580048,         -27.,   32.2201118
   6268,   22.5213356,         -27.,   67.3223801
   6269,   44.3611374,         -27.,   34.2434273
   6270,   21.1884995,         -27.,    65.351387
   6271,   44.2910881,         -27.,   64.6571274
   6272,   21.4741039,         -27.,   35.3257484
   6273,   45.3731155,         -27.,   36.5341988
   6274,   20.0984821,         -27.,   63.3377953
   6275,   20.4319611,         -27.,   37.6162834
   6276,   45.3556976,         -27.,   62.3061447
   6277,   46.1257286,         -27.,   38.9348259
   6278,   19.5682163,         -27.,     61.09235
   6279,     46.17696,         -27.,   59.8231087
   6280,   19.6441994,         -27.,   40.0624466
   6281,    46.659977,         -27.,   41.4290199
   6282,   19.2696419,         -27.,   58.6330948
   6283,   46.7590561,         -27.,   57.2337112
   6284,   19.0930805,         -27.,   42.5710716
   6285,   47.0355186,         -27.,   44.0046234
   6286,   18.9781055,         -27.,   56.0168648
   6287,   47.1419945,         -27.,   54.6037941
   6288,   18.7357635,         -27.,   45.1917572
   6289,   47.3483658,         -27.,   51.9430046
   6290,   18.5629845,         -27.,   47.8785248
   6291,   47.2773933,         -27.,   46.6244431
   6292,   18.7200165,         -27.,   53.3207169
   6293,   47.3942909,         -27.,   49.2757759
   6294,   18.5624676,         -27.,    50.603096
   6295,    30.259304,         -27.,   23.1705284
   6296,   27.8521633,         -27.,   23.9805584
   6297,    32.786644,         -27.,   22.9029446
   6298,   25.7019634,         -27.,   25.2896709
   6299,   41.9629555,         -27.,   26.7987347
   6300,   34.5407333,         -27.,   25.7996216
   6301,   27.1182175,         -27.,   68.9016647
   6302,   37.9515305,         -27.,   68.9892349
   6303,   30.5744743,         -27.,   25.6376686
   6304,   28.8751526,         -27.,   29.8509731
   6305,   24.2644939,         -27.,   65.6617584
   6306,   39.4683342,         -27.,   67.0804214
   6307,   40.8387947,         -27.,   65.0889587
   6308,   26.7863464,         -27.,   33.1728821
   6309,    42.338871,         -27.,   35.1894417
   6310,    22.995245,         -27.,   63.8894196
   6311,   43.2096786,         -27.,   37.1935806
   6312,   42.0297928,         -27.,   63.0641098
   6313,   21.7352524,         -27.,    62.749115
   6314,   23.7637959,         -27.,   36.9400597
   6315,   43.7055893,         -27.,    39.305603
   6316,   43.0122528,         -27.,   60.9972153
   6317,   22.6931839,         -27.,   38.7998962
   6318,   21.9802685,         -27.,   58.6512871
   6319,   22.0440807,         -27.,   40.9488564
   6320,   44.0562363,         -27.,   41.5735207
   6321,   43.7808647,         -27.,   58.7634735
   6322,   21.7366829,         -27.,   56.0787888
   6323,   21.6134186,         -27.,   43.2461586
   6324,   44.3434067,         -27.,    43.965271
   6325,   44.2881088,         -27.,   56.3836784
   6326,   44.5689354,         -27.,   46.4370689
   6327,   44.5913391,         -27.,   53.9445686
   6328,   21.4469013,         -27.,   53.4764633
   6329,   21.3120117,         -27.,   45.6868134
   6330,   44.7098198,         -27.,   48.9346962
   6331,   44.7356148,         -27.,   51.4473801
   6332,   21.1774864,         -27.,   48.2474365
   6333,   21.2321167,         -27.,   50.8668022
   6334,   40.1745033,         -27.,   28.6882305
   6335,   27.3638897,         -27.,   64.8150558
   6336,   38.6932716,         -27.,   63.2661514
   6337,   28.3316441,         -27.,   36.1577072
   6338,   41.1911659,         -27.,   37.5593529
   6339,   39.7603493,         -27.,   61.3570061
   6340,   24.5382042,         -27.,   61.8899002
   6341,   41.4323616,         -27.,   41.5545158
   6342,   40.7257347,         -27.,   59.5978622
   6343,   26.2227859,         -27.,   38.8305817
   6344,   24.5318241,         -27.,   58.8894768
   6345,   41.7058067,         -27.,   43.8800354
   6346,   41.5627174,         -27.,   57.7380142
   6347,   24.4461765,         -27.,    41.607254
   6348,    24.486824,         -27.,   56.2420769
   6349,   41.9455452,         -27.,   46.2727165
   6350,   24.1666527,         -27.,   43.7927437
   6351,   24.1311913,         -27.,   53.6443939
   6352,   41.9341393,         -27.,   55.6113052
   6353,   23.8670311,         -27.,   46.1065674
   6354,   23.8018913,         -27.,   51.0779877
   6355,   42.1323891,         -27.,   53.3672829
   6356,   42.1204567,         -27.,   48.6403198
   6357,   23.7161045,         -27.,   48.5511742
   6358,   42.2200165,         -27.,   51.0121613
   6359,   34.4459457,         -27.,   72.4494934
   6360,   39.8169022,         -27.,   31.9585323
   6361,   37.4126778,         -27.,   59.4230576
   6362,   26.8620396,         -27.,   59.1682243
   6363,   39.2112732,         -27.,   43.7804718
   6364,   26.7995777,         -27.,   41.6393852
   6365,   39.7752838,         -27.,   56.8871956
   6366,   27.6322765,         -27.,   56.4825134
   6367,   26.1002903,         -27.,   48.7901268
   6368,   39.5555992,         -27.,   48.4135056
   6369,   26.2168846,         -27.,   51.1596413
   6370,   39.6887512,         -27.,   52.8789101
   6371,   29.5085411,         -27.,   68.7704086
   6372,   40.9394455,         -27.,   36.0396919
   6373,   34.7007332,         -27.,     68.91922
   6374,   30.9264431,         -27.,   66.1856537
   6375,   39.1172905,         -27.,   35.3504791
   6376,   26.9174976,         -27.,   61.8150711
   6377,   37.8518257,         -27.,   33.3850365
   6378,   38.9509506,         -27.,   41.4390945
   6379,   32.2640419,         -27.,   68.8226166
   6380,   37.4644775,         -27.,   65.2379761
   6381,   30.8650894,         -27.,   71.5005112
   6382,   36.9193497,         -27.,   29.2947922
   6383,   32.4634933,         -27.,   73.8507233
   6384,   29.8351727,         -27.,   58.6326981
   6385,   35.4549408,         -27.,   63.5692291
   6386,   36.6233826,         -27.,   41.4300232
   6387,   35.6482735,         -27.,   34.1962585
   6388,   41.7752571,         -27.,   30.3696976
   6389,   34.2850456,         -27.,   65.5180893
   6390,    32.495266,         -27.,     64.19767
   6391,   38.4731674,         -27.,   30.4168186
   6392,   33.8004532,         -27.,   28.5802727
   6393,   34.4093933,         -27.,   38.1263657
   6394,    31.204258,         -27.,   61.0132217
   6395,   34.2902794,         -27.,   41.1476212
   6396,   35.0429382,         -27.,   31.3149853
   6397,   36.4704704,         -27.,   61.4890556
   6398,   33.4260788,         -27.,    62.227623
   6399,   30.9817219,         -27.,   27.7963696
   6400,    33.211422,         -27.,   35.0252151
   6401,   31.5110893,         -27.,   29.7243919
   6402,   31.7536335,         -27.,     57.66819
   6403,   31.4871025,         -27.,   38.4802361
   6404,     32.46912,         -27.,   43.9770584
   6405,   32.3174782,         -27.,   32.1934662
   6406,   31.9007587,         -27.,   41.2907066
   6407,   30.6531124,         -27.,   35.5962181
   6408,   29.6950054,         -27.,   32.7314949
   6409,   34.5554504,         -27.,   57.2206192
   6410,   29.7920914,         -27.,   44.6156235
   6411,   37.0106888,         -27.,   45.9838295
   6412,    30.251791,         -27.,   55.3745003
   6413,   36.6805038,         -27.,   48.5069923
   6414,   28.9423904,         -27.,   38.8007965
   6415,   34.2125816,         -27.,   60.1016312
   6416,   32.4381409,         -27.,   54.3419609
   6417,   31.4640541,         -27.,   46.6273117
   6418,   30.8045063,         -27.,     52.34338
   6419,   32.0543785,         -27.,   51.0084305
   6420,   36.6140747,         -27.,   55.0438194
   6421,   28.7308064,         -27.,   47.0539856
   6422,   28.2519054,         -27.,   51.0942726
   6423,   34.0245171,         -27.,    52.829319
   6424,   29.0057583,         -27.,   53.1791153
   6425,   37.3016167,         -27.,   52.2721786
   6426,   30.8459568,         -27.,   48.1337814
   6427,   37.5935478,         -27.,    76.365387
   6428,   35.7007408,         -27.,   77.5998535
   6429,   36.5526581,         -27.,   26.2779942
   6430,   32.6173592,         -27.,   25.4151535
   6431,   28.6381111,         -27.,   26.3364983
   6432,   25.3941898,         -27.,   29.1225357
   6433,   30.8019142,         -27.,   74.7542038
   6434,   36.3091774,         -27.,   70.7726288
   6435,   41.1140327,         -27.,    33.583416
   6436,   35.7763786,         -27.,    28.135746
   6437,   32.4396095,         -27.,   27.3184891
   6438,   29.5573635,         -27.,   28.0138321
   6439,   27.1048393,         -27.,   30.7011929
   6440,   24.9730968,         -27.,   34.9972649
   6441,   25.6657143,         -27.,   67.1950302
   6442,   28.6628227,         -27.,   70.4281311
   6443,   36.1281815,         -27.,    67.161026
   6444,   33.1101646,         -27.,   70.4627075
   6445,   33.0951729,         -27.,   67.3279572
   6446,   28.7017727,         -27.,   67.1404724
   6447,   25.4617767,         -27.,   64.2270508
   6448,   21.9800339,         -27.,   61.0507736
   6449,   30.8850765,         -27.,   68.8059845
   6450,   41.2441788,         -27.,   39.3864899
   6451,   37.1356583,         -27.,   31.7583656
   6452,   26.6214104,         -27.,   36.6761856
   6453,   24.5088139,         -27.,   39.7677078
   6454,   29.5326118,         -27.,   63.8859558
   6455,   29.0016937,         -27.,   61.6118927
   6456,    31.052103,         -27.,   63.0994148
   6457,   39.5305595,         -27.,   55.0216827
   6458,   39.8451309,         -27.,   50.6602554
   6459,    39.418499,         -27.,   46.1473656
   6460,   29.3761883,         -27.,   41.5743484
   6461,   26.7800503,         -27.,   44.1478004
   6462,   39.5841484,         -27.,   37.3409462
   6463,   26.7693729,         -27.,   53.6653824
   6464,    26.388216,         -27.,   46.4751167
   6465,   38.5553513,         -27.,   57.8505402
   6466,   32.4059296,         -27.,   59.6345558
   6467,   28.5802422,         -27.,    59.731472
   6468,   36.8198204,         -27.,   36.5500145
   6469,   38.5496216,         -27.,    38.827282
   6470,   28.2660351,         -27.,    49.089016
   6471,   34.6045685,         -27.,   43.5706329
   6472,   36.8660393,         -27.,   43.6677284
   6473,   36.6087227,         -27.,    39.505085
   6474,   35.2368279,         -27.,   50.7404442
   6475,   33.0260963,         -27.,   49.2205124
   6476,   37.9749527,         -27.,     50.56493
   6477,   33.6914444,         -27.,   46.7883492
   6478,   35.0569992,         -27.,   45.5107498
   6479,   30.2348843,         -27.,   49.7392235
   6480,   29.7386932,         -27.,   50.9975395
   6481,   29.9750156,         -30.,   20.3451309
   6482,    27.095583,         -30.,   21.3371277
   6483,   24.4627323,         -30.,   22.8705158
   6484,    20.085886,         -30.,   27.0924091
   6485,     18.34025,         -30.,   29.5927353
   6486,   15.6555128,         -30.,   35.0624733
   6487,    13.415472,         -30.,   43.9169006
   6488,          13.,         -30.,   50.0000496
   6489,   13.4154854,         -30.,   56.0831985
   6490,   15.6555481,         -30.,   64.9376221
   6491,   18.3403015,         -30.,   70.4073486
   6492,    20.085947,         -30.,   72.9076691
   6493,   24.4627781,         -30.,   77.1295166
   6494,   27.0956306,         -30.,   78.6628952
   6495,   29.9750633,         -30.,   79.6548843
   6496,          33.,         -30.,          20.
   6497,          33.,         -30.,          80.
   6498,   36.0249863,         -30.,   79.6548691
   6499,   38.9044151,         -30.,   78.6628723
   6500,   41.5372658,         -30.,   77.1294861
   6501,   45.9141159,         -30.,   72.9075928
   6502,   47.6597481,         -30.,   70.4072647
   6503,   50.3444862,         -30.,   64.9375305
   6504,   52.5845299,         -30.,   56.0830994
   6505,          53.,         -30.,   49.9999504
   6506,   52.5845146,         -30.,   43.9168015
   6507,   50.3444519,         -30.,   35.0623779
   6508,   47.6596985,         -30.,   29.5926533
   6509,   45.9140511,         -30.,   27.0923309
   6510,   41.5372238,         -30.,   22.8704834
   6511,   38.9043694,         -30.,   21.3371067
   6512,   36.0249367,         -30.,   20.3451195
   6513,   22.1232681,         -30.,   24.8242664
   6514,   16.8693237,         -30.,   32.2643623
   6515,   14.6832371,         -30.,   37.9535713
   6516,    13.939785,         -30.,   40.9119034
   6517,   13.1035376,         -30.,   46.9513474
   6518,   13.1035442,         -30.,    53.048748
   6519,    13.939806,         -30.,    59.088192
   6520,   14.6832647,         -30.,    62.046524
   6521,   16.8693657,         -30.,   67.7357254
   6522,   22.1233082,         -30.,   75.1757736
   6523,   43.8767319,         -30.,   75.1757355
   6524,   49.1306763,         -30.,   67.7356415
   6525,    51.316761,         -30.,   62.0464287
   6526,    52.060215,         -30.,   59.0880966
   6527,   52.8964615,         -30.,   53.0486526
   6528,   52.8964539,         -30.,    46.951252
   6529,   52.0601959,         -30.,    40.911808
   6530,   51.3167343,         -30.,    37.953476
   6531,   49.1306343,         -30.,   32.2642746
   6532,   43.8766899,         -30.,   24.8242264
   6533,   35.2298889,         -30.,   23.1984615
   6534,   20.4570503,         -30.,   31.3369122
   6535,   46.6730194,         -30.,    33.252388
   6536,   16.5533028,         -30.,   41.7955284
   6537,   50.0400925,         -30.,   46.7889481
   6538,   50.0673599,         -30.,   52.4844589
   6539,   17.1770935,         -30.,   61.5136795
   6540,   46.6494408,         -30.,   66.2046814
   6541,   22.1052074,         -30.,   71.0997238
   6542,   41.8038635,         -30.,   72.9968567
   6543,   28.1828575,         -30.,   76.0426025
   6544,   30.6447296,         -30.,   76.8130264
   6545,   33.5107384,         -30.,   76.5985718
   6546,   35.9339676,         -30.,   74.4850311
   6547,   39.7629509,         -30.,   74.8180466
   6548,   23.9128456,         -30.,   73.0552368
   6549,    45.260479,         -30.,   68.6413727
   6550,   19.1435146,         -30.,   66.5725861
   6551,    16.606966,         -30.,   58.8154831
   6552,   15.9526415,         -30.,   53.1909065
   6553,   15.8824272,         -30.,   47.4536209
   6554,   17.1885414,         -30.,    39.043087
   6555,   19.1558971,         -30.,   33.7840691
   6556,   43.7848396,         -30.,   28.7325592
   6557,   23.6976719,         -30.,   27.0323467
   6558,   37.6279945,         -30.,   23.9462585
   6559,   21.9855061,         -30.,   29.0968304
   6560,   18.0608215,         -30.,   36.3642044
   6561,   49.2940331,         -30.,   41.1765022
   6562,   16.1116581,         -30.,   44.6017036
   6563,   15.8250637,         -30.,   50.3196259
   6564,    16.206522,         -30.,   56.0279121
   6565,   48.6924019,         -30.,   60.9169769
   6566,   17.9767151,         -30.,    64.108963
   6567,   20.5047836,         -30.,   68.9114838
   6568,   25.9560127,         -30.,    74.734848
   6569,   43.6397972,         -30.,   70.9107056
   6570,   47.7911758,         -30.,   63.6094627
   6571,   49.3568611,         -30.,    58.140377
   6572,   49.8132744,         -30.,   55.3227539
   6573,   50.1526871,         -30.,   49.6321831
   6574,   49.7709999,         -30.,   43.9702225
   6575,   48.6431351,         -30.,   38.4496384
   6576,   47.7798462,         -30.,   35.7961159
   6577,   45.3624268,         -30.,   30.8999939
   6578,   39.9014206,         -30.,   25.1751041
   6579,   38.4278908,         -30.,   27.3225994
   6580,   29.2505646,         -30.,   73.7055588
   6581,   27.3673935,         -30.,   72.4830399
   6582,   37.9883919,         -30.,   72.7471848
   6583,   25.5790176,         -30.,   70.9442749
   6584,    39.831852,         -30.,   70.9426956
   6585,    26.976965,         -30.,   27.5720348
   6586,   23.9780636,         -30.,   69.1934433
   6587,   24.0299911,         -30.,   31.1150627
   6588,   41.5061607,         -30.,   68.9794998
   6589,   22.7052479,         -30.,   33.1463318
   6590,   42.9987068,         -30.,   66.8800354
   6591,   43.1580048,         -30.,   32.2201118
   6592,   22.5213356,         -30.,   67.3223801
   6593,   44.3611374,         -30.,   34.2434273
   6594,   21.1884995,         -30.,    65.351387
   6595,   44.2910881,         -30.,   64.6571274
   6596,   21.4741039,         -30.,   35.3257484
   6597,   45.3731155,         -30.,   36.5341988
   6598,   20.0984821,         -30.,   63.3377953
   6599,   20.4319611,         -30.,   37.6162834
   6600,   45.3556976,         -30.,   62.3061447
   6601,   46.1257286,         -30.,   38.9348259
   6602,   19.5682163,         -30.,     61.09235
   6603,     46.17696,         -30.,   59.8231087
   6604,   19.6441994,         -30.,   40.0624466
   6605,    46.659977,         -30.,   41.4290199
   6606,   19.2696419,         -30.,   58.6330948
   6607,   46.7590561,         -30.,   57.2337112
   6608,   19.0930805,         -30.,   42.5710716
   6609,   47.0355186,         -30.,   44.0046234
   6610,   18.9781055,         -30.,   56.0168648
   6611,   47.1419945,         -30.,   54.6037941
   6612,   18.7357635,         -30.,   45.1917572
   6613,   47.3483658,         -30.,   51.9430046
   6614,   18.5629845,         -30.,   47.8785248
   6615,   47.2773933,         -30.,   46.6244431
   6616,   18.7200165,         -30.,   53.3207169
   6617,   47.3942909,         -30.,   49.2757759
   6618,   18.5624676,         -30.,    50.603096
   6619,    30.259304,         -30.,   23.1705284
   6620,   27.8521633,         -30.,   23.9805584
   6621,    32.786644,         -30.,   22.9029446
   6622,   25.7019634,         -30.,   25.2896709
   6623,   41.9629555,         -30.,   26.7987347
   6624,   34.5407333,         -30.,   25.7996216
   6625,   27.1182175,         -30.,   68.9016647
   6626,   37.9515305,         -30.,   68.9892349
   6627,   30.5744743,         -30.,   25.6376686
   6628,   28.8751526,         -30.,   29.8509731
   6629,   24.2644939,         -30.,   65.6617584
   6630,   39.4683342,         -30.,   67.0804214
   6631,   40.8387947,         -30.,   65.0889587
   6632,   26.7863464,         -30.,   33.1728821
   6633,    42.338871,         -30.,   35.1894417
   6634,    22.995245,         -30.,   63.8894196
   6635,   43.2096786,         -30.,   37.1935806
   6636,   42.0297928,         -30.,   63.0641098
   6637,   21.7352524,         -30.,    62.749115
   6638,   23.7637959,         -30.,   36.9400597
   6639,   43.7055893,         -30.,    39.305603
   6640,   43.0122528,         -30.,   60.9972153
   6641,   22.6931839,         -30.,   38.7998962
   6642,   21.9802685,         -30.,   58.6512871
   6643,   22.0440807,         -30.,   40.9488564
   6644,   44.0562363,         -30.,   41.5735207
   6645,   43.7808647,         -30.,   58.7634735
   6646,   21.7366829,         -30.,   56.0787888
   6647,   21.6134186,         -30.,   43.2461586
   6648,   44.3434067,         -30.,    43.965271
   6649,   44.2881088,         -30.,   56.3836784
   6650,   44.5689354,         -30.,   46.4370689
   6651,   44.5913391,         -30.,   53.9445686
   6652,   21.4469013,         -30.,   53.4764633
   6653,   21.3120117,         -30.,   45.6868134
   6654,   44.7098198,         -30.,   48.9346962
   6655,   44.7356148,         -30.,   51.4473801
   6656,   21.1774864,         -30.,   48.2474365
   6657,   21.2321167,         -30.,   50.8668022
   6658,   40.1745033,         -30.,   28.6882305
   6659,   27.3638897,         -30.,   64.8150558
   6660,   38.6932716,         -30.,   63.2661514
   6661,   28.3316441,         -30.,   36.1577072
   6662,   41.1911659,         -30.,   37.5593529
   6663,   39.7603493,         -30.,   61.3570061
   6664,   24.5382042,         -30.,   61.8899002
   6665,   41.4323616,         -30.,   41.5545158
   6666,   40.7257347,         -30.,   59.5978622
   6667,   26.2227859,         -30.,   38.8305817
   6668,   24.5318241,         -30.,   58.8894768
   6669,   41.7058067,         -30.,   43.8800354
   6670,   41.5627174,         -30.,   57.7380142
   6671,   24.4461765,         -30.,    41.607254
   6672,    24.486824,         -30.,   56.2420769
   6673,   41.9455452,         -30.,   46.2727165
   6674,   24.1666527,         -30.,   43.7927437
   6675,   24.1311913,         -30.,   53.6443939
   6676,   41.9341393,         -30.,   55.6113052
   6677,   23.8670311,         -30.,   46.1065674
   6678,   23.8018913,         -30.,   51.0779877
   6679,   42.1323891,         -30.,   53.3672829
   6680,   42.1204567,         -30.,   48.6403198
   6681,   23.7161045,         -30.,   48.5511742
   6682,   42.2200165,         -30.,   51.0121613
   6683,   34.4459457,         -30.,   72.4494934
   6684,   39.8169022,         -30.,   31.9585323
   6685,   37.4126778,         -30.,   59.4230576
   6686,   26.8620396,         -30.,   59.1682243
   6687,   39.2112732,         -30.,   43.7804718
   6688,   26.7995777,         -30.,   41.6393852
   6689,   39.7752838,         -30.,   56.8871956
   6690,   27.6322765,         -30.,   56.4825134
   6691,   26.1002903,         -30.,   48.7901268
   6692,   39.5555992,         -30.,   48.4135056
   6693,   26.2168846,         -30.,   51.1596413
   6694,   39.6887512,         -30.,   52.8789101
   6695,   29.5085411,         -30.,   68.7704086
   6696,   40.9394455,         -30.,   36.0396919
   6697,   34.7007332,         -30.,     68.91922
   6698,   30.9264431,         -30.,   66.1856537
   6699,   39.1172905,         -30.,   35.3504791
   6700,   26.9174976,         -30.,   61.8150711
   6701,   37.8518257,         -30.,   33.3850365
   6702,   38.9509506,         -30.,   41.4390945
   6703,   32.2640419,         -30.,   68.8226166
   6704,   37.4644775,         -30.,   65.2379761
   6705,   30.8650894,         -30.,   71.5005112
   6706,   36.9193497,         -30.,   29.2947922
   6707,   32.4634933,         -30.,   73.8507233
   6708,   29.8351727,         -30.,   58.6326981
   6709,   35.4549408,         -30.,   63.5692291
   6710,   36.6233826,         -30.,   41.4300232
   6711,   35.6482735,         -30.,   34.1962585
   6712,   41.7752571,         -30.,   30.3696976
   6713,   34.2850456,         -30.,   65.5180893
   6714,    32.495266,         -30.,     64.19767
   6715,   38.4731674,         -30.,   30.4168186
   6716,   33.8004532,         -30.,   28.5802727
   6717,   34.4093933,         -30.,   38.1263657
   6718,    31.204258,         -30.,   61.0132217
   6719,   34.2902794,         -30.,   41.1476212
   6720,   35.0429382,         -30.,   31.3149853
   6721,   36.4704704,         -30.,   61.4890556
   6722,   33.4260788,         -30.,    62.227623
   6723,   30.9817219,         -30.,   27.7963696
   6724,    33.211422,         -30.,   35.0252151
   6725,   31.5110893,         -30.,   29.7243919
   6726,   31.7536335,         -30.,     57.66819
   6727,   31.4871025,         -30.,   38.4802361
   6728,     32.46912,         -30.,   43.9770584
   6729,   32.3174782,         -30.,   32.1934662
   6730,   31.9007587,         -30.,   41.2907066
   6731,   30.6531124,         -30.,   35.5962181
   6732,   29.6950054,         -30.,   32.7314949
   6733,   34.5554504,         -30.,   57.2206192
   6734,   29.7920914,         -30.,   44.6156235
   6735,   37.0106888,         -30.,   45.9838295
   6736,    30.251791,         -30.,   55.3745003
   6737,   36.6805038,         -30.,   48.5069923
   6738,   28.9423904,         -30.,   38.8007965
   6739,   34.2125816,         -30.,   60.1016312
   6740,   32.4381409,         -30.,   54.3419609
   6741,   31.4640541,         -30.,   46.6273117
   6742,   30.8045063,         -30.,     52.34338
   6743,   32.0543785,         -30.,   51.0084305
   6744,   36.6140747,         -30.,   55.0438194
   6745,   28.7308064,         -30.,   47.0539856
   6746,   28.2519054,         -30.,   51.0942726
   6747,   34.0245171,         -30.,    52.829319
   6748,   29.0057583,         -30.,   53.1791153
   6749,   37.3016167,         -30.,   52.2721786
   6750,   30.8459568,         -30.,   48.1337814
   6751,   37.5935478,         -30.,    76.365387
   6752,   35.7007408,         -30.,   77.5998535
   6753,   36.5526581,         -30.,   26.2779942
   6754,   32.6173592,         -30.,   25.4151535
   6755,   28.6381111,         -30.,   26.3364983
   6756,   25.3941898,         -30.,   29.1225357
   6757,   30.8019142,         -30.,   74.7542038
   6758,   36.3091774,         -30.,   70.7726288
   6759,   41.1140327,         -30.,    33.583416
   6760,   35.7763786,         -30.,    28.135746
   6761,   32.4396095,         -30.,   27.3184891
   6762,   29.5573635,         -30.,   28.0138321
   6763,   27.1048393,         -30.,   30.7011929
   6764,   24.9730968,         -30.,   34.9972649
   6765,   25.6657143,         -30.,   67.1950302
   6766,   28.6628227,         -30.,   70.4281311
   6767,   36.1281815,         -30.,    67.161026
   6768,   33.1101646,         -30.,   70.4627075
   6769,   33.0951729,         -30.,   67.3279572
   6770,   28.7017727,         -30.,   67.1404724
   6771,   25.4617767,         -30.,   64.2270508
   6772,   21.9800339,         -30.,   61.0507736
   6773,   30.8850765,         -30.,   68.8059845
   6774,   41.2441788,         -30.,   39.3864899
   6775,   37.1356583,         -30.,   31.7583656
   6776,   26.6214104,         -30.,   36.6761856
   6777,   24.5088139,         -30.,   39.7677078
   6778,   29.5326118,         -30.,   63.8859558
   6779,   29.0016937,         -30.,   61.6118927
   6780,    31.052103,         -30.,   63.0994148
   6781,   39.5305595,         -30.,   55.0216827
   6782,   39.8451309,         -30.,   50.6602554
   6783,    39.418499,         -30.,   46.1473656
   6784,   29.3761883,         -30.,   41.5743484
   6785,   26.7800503,         -30.,   44.1478004
   6786,   39.5841484,         -30.,   37.3409462
   6787,   26.7693729,         -30.,   53.6653824
   6788,    26.388216,         -30.,   46.4751167
   6789,   38.5553513,         -30.,   57.8505402
   6790,   32.4059296,         -30.,   59.6345558
   6791,   28.5802422,         -30.,    59.731472
   6792,   36.8198204,         -30.,   36.5500145
   6793,   38.5496216,         -30.,    38.827282
   6794,   28.2660351,         -30.,    49.089016
   6795,   34.6045685,         -30.,   43.5706329
   6796,   36.8660393,         -30.,   43.6677284
   6797,   36.6087227,         -30.,    39.505085
   6798,   35.2368279,         -30.,   50.7404442
   6799,   33.0260963,         -30.,   49.2205124
   6800,   37.9749527,         -30.,     50.56493
   6801,   33.6914444,         -30.,   46.7883492
   6802,   35.0569992,         -30.,   45.5107498
   6803,   30.2348843,         -30.,   49.7392235
   6804,   29.7386932,         -30.,   50.9975395
*Element, type=C3D8
   1,  141,  139,    1,   16,  465,  463,  325,  340
   2,   53,  141,   16,   32,  377,  465,  340,  356
   3,    2,    1,  139,  140,  326,  325,  463,  464
   4,  142,   77,   33,    3,  466,  401,  357,  327
   5,  144,   53,   78,  273,  468,  377,  402,  597
   6,  235,  178,  232,  204,  559,  502,  556,  528
   7,  124,   74,   80,  119,  448,  398,  404,  443
   8,   82,   73,   37,    7,  406,  397,  361,  331
   9,  114,   70,   86,  118,  438,  394,  410,  442
  10,   25,   47,   58,   93,  349,  371,  382,  417
  11,  121,   95,   81,  125,  445,  419,  405,  449
  12,  102,  278,  146,  104,  426,  602,  470,  428
  13,   14,   13,   88,   63,  338,  337,  412,  387
  14,   62,   89,   21,   43,  386,  413,  345,  367
  15,   15,   14,   63,   64,  339,  338,  387,  388
  16,   18,   17,   65,  272,  342,  341,  389,  596
  17,  227,   65,   64,  277,  551,  389,  388,  601
  18,   65,  227,  203,   66,  389,  551,  527,  390
  19,   67,   62,   43,   20,  391,  386,  367,  344
  20,   44,   22,   69,   60,  368,  346,  393,  384
  21,  145,  286,  101,  103,  469,  610,  425,  427
  22,  149,  112,  114,  154,  473,  436,  438,  478
  23,   84,   71,   39,    9,  408,  395,  363,  333
  24,  163,  124,  119,  161,  487,  448,  443,  485
  25,   74,   56,   36,   35,  398,  380,  360,  359
  26,   76,  232,  178,  143,  400,  556,  502,  467
  27,    4,   33,   77,   79,  328,  357,  401,  403
  28,   78,   53,   32,   31,  402,  377,  356,  355
  29,   79,   54,    5,    4,  403,  378,  329,  328
  30,   55,   97,   28,   51,  379,  421,  352,  375
  31,  117,   96,   95,  121,  441,  420,  419,  445
  32,   38,    8,   83,   72,  362,  332,  407,  396
  33,   40,   39,   71,   59,  364,  363,  395,  383
  34,  156,  115,  110,  151,  480,  439,  434,  475
  35,   12,   11,   87,   61,  336,  335,  411,  385
  36,   15,   64,   65,   17,  339,  388,  389,  341
  37,   67,  102,  104,   62,  391,  426,  428,  386
  38,   90,   85,   45,   23,  414,  409,  369,  347
  39,   47,   24,   92,   58,  371,  348,  416,  382
  40,   48,   25,   93,   57,  372,  349,  417,  381
  41,   94,   81,   49,   26,  418,  405,  373,  350
  42,   50,   49,   81,   95,  374,  373,  405,  419
  43,  232,   76,   97,  111,  556,  400,  421,  435
  44,   97,   76,   29,   28,  421,  400,  353,  352
  45,   98,   78,   31,   30,  422,  402,  355,  354
  46,   54,   75,   34,    5,  378,  399,  358,  329
  47,   35,    6,   80,   74,  359,  330,  404,  398
  48,   51,   27,   96,   55,  375,  351,  420,  379
  49,  111,   97,   55,  113,  435,  421,  379,  437
  50,   56,   82,    7,   36,  380,  406,  331,  360
  51,   57,   94,   26,   48,  381,  418,  350,  372
  52,   11,   41,   70,   87,  335,  365,  394,  411
  53,   46,   45,   85,   91,  370,  369,  409,  415
  54,   59,   86,   10,   40,  383,  410,  334,  364
  55,   60,   90,   23,   44,  384,  414,  347,  368
  56,   61,   68,   42,   12,  385,  392,  366,  336
  57,  102,   67,  271,   66,  426,  391,  595,  390
  58,   68,  103,  101,   88,  392,  427,  425,  412
  59,   88,  101,  100,   63,  412,  425,  424,  387
  60,   65,   66,  271,  272,  389,  390,  595,  596
  61,  225,  288,  203,  227,  549,  612,  527,  551
  62,  271,   67,   20,   19,  595,  391,  344,  343
  63,   13,   42,   68,   88,  337,  366,  392,  412
  64,   89,   69,   22,   21,  413,  393,  346,  345
  65,   62,  104,  108,   89,  386,  428,  432,  413
  66,  106,   61,   87,  112,  430,  385,  411,  436
  67,   86,   70,   41,   10,  410,  394,  365,  334
  68,  122,   59,   71,  126,  446,  383,  395,  450
  69,    9,   38,   72,   84,  333,  362,  396,  408
  70,  251,  181,  152,  252,  575,  505,  476,  576
  71,    8,   37,   73,   83,  332,  361,  397,  407
  72,  148,  283,  276,  105,  472,  607,  600,  429
  73,    6,   34,   75,   80,  330,  358,  399,  404
  74,   30,   52,  143,   98,  354,  376,  467,  422
  75,  273,   78,   98,   99,  597,  402,  422,  423
  76,  139,  147,  275,  140,  463,  471,  599,  464
  77,    3,    2,  140,  142,  327,  326,  464,  466
  78,   53,  144,  274,  141,  377,  468,  598,  465
  79,  119,   80,   75,  116,  443,  404,  399,  440
  80,  152,  107,  276,  283,  476,  431,  600,  607
  81,  113,   55,   96,  117,  437,  379,  420,  441
  82,  173,  132,  128,  167,  497,  456,  452,  491
  83,  118,   86,   59,  122,  442,  410,  383,  446
  84,  285,  106,  112,  149,  609,  430,  436,  473
  85,  289,  218,  234,  233,  613,  542,  558,  557
  86,  100,  277,   64,   63,  424,  601,  388,  387
  87,   24,   46,   91,   92,  348,  370,  415,  416
  88,  180,  151,  150,  224,  504,  475,  474,  548
  89,  125,   81,   94,  129,  449,  405,  418,  453
  90,   27,   50,   95,   96,  351,  374,  419,  420
  91,  111,  279,  204,  232,  435,  603,  528,  556
  92,   99,   98,  143,  178,  423,  422,  467,  502
  93,  142,  105,  276,   77,  466,  429,  600,  401
  94,   61,  106,  103,   68,  385,  430,  427,  392
  95,  110,   69,   89,  108,  434,  393,  413,  432
  96,  115,   60,   69,  110,  439,  384,  393,  434
  97,  120,   90,   60,  115,  444,  414,  384,  439
  98,  123,   85,   90,  120,  447,  409,  414,  444
  99,  109,   54,   79,  107,  433,  378,  403,  431
 100,  116,   75,   54,  109,  440,  399,  378,  433
 101,  112,   87,   70,  114,  436,  411,  394,  438
 102,  128,   56,   74,  124,  452,  380,  398,  448
 103,  127,   91,   85,  123,  451,  415,  409,  447
 104,  132,   82,   56,  128,  456,  406,  380,  452
 105,  131,   92,   91,  127,  455,  416,  415,  451
 106,  160,  120,  115,  156,  484,  444,  439,  480
 107,  221,  231,  240,  295,  545,  555,  564,  619
 108,  161,  119,  116,  158,  485,  443,  440,  482
 109,  169,  127,  123,  165,  493,  451,  447,  489
 110,  133,   58,   92,  131,  457,  382,  416,  455
 111,  134,   73,   82,  132,  458,  397,  406,  456
 112,  252,  152,  283,  148,  576,  476,  607,  472
 113,  285,  149,  291,  179,  609,  473,  615,  503
 114,  138,   83,   73,  134,  462,  407,  397,  458
 115,  137,   93,   58,  133,  461,  417,  382,  457
 116,  126,   71,   84,  130,  450,  395,  408,  454
 117,  218,  289,  223,  293,  542,  613,  547,  617
 118,  161,  158,  187,  297,  485,  482,  511,  621
 119,   57,  135,  129,   94,  381,  459,  453,  418
 120,  121,  159,  155,  117,  445,  483,  479,  441
 121,   72,  136,  130,   84,  396,  460,  454,  408
 122,  154,  114,  118,  157,  478,  438,  442,  481
 123,  194,  167,  163,  191,  518,  491,  487,  515
 124,  164,  125,  129,  168,  488,  449,  453,  492
 125,  162,  126,  130,  166,  486,  450,  454,  490
 126,  292,  157,  118,  122,  616,  481,  442,  446
 127,  135,   57,   93,  137,  459,  381,  417,  461
 128,  222,  230,  317,  313,  546,  554,  641,  637
 129,  136,   72,   83,  138,  460,  396,  407,  462
 130,  184,  154,  157,  292,  508,  478,  481,  616
 131,  159,  121,  125,  164,  483,  445,  449,  488
 132,  292,  122,  126,  162,  616,  446,  450,  486
 133,  243,  147,  274,  281,  567,  471,  598,  605
 134,  148,  105,  275,  282,  472,  429,  599,  606
 135,   52,   29,   76,  143,  376,  353,  400,  467
 136,  240,  236,  280,  226,  564,  560,  604,  550
 137,  236,  144,  273,  280,  560,  468,  597,  604
 138,  106,  285,  145,  103,  430,  609,  469,  427
 139,  278,  203,  288,  217,  602,  527,  612,  541
 140,  150,  108,  104,  146,  474,  432,  428,  470
 141,  150,  151,  110,  108,  474,  475,  434,  432
 142,  140,  275,  105,  142,  464,  599,  429,  466
 143,  245,  148,  282,  243,  569,  472,  606,  567
 144,  284,  109,  107,  152,  608,  433,  431,  476
 145,  165,  123,  120,  160,  489,  447,  444,  484
 146,  171,  131,  127,  169,  495,  455,  451,  493
 147,  167,  128,  124,  163,  491,  452,  448,  487
 148,  153,  113,  117,  155,  477,  437,  441,  479
 149,  279,  111,  113,  153,  603,  435,  437,  477
 150,  179,  290,  145,  285,  503,  614,  469,  609
 151,  152,  181,  296,  284,  476,  505,  620,  608
 152,  175,  133,  131,  171,  499,  457,  455,  495
 153,  149,  154,  184,  291,  473,  478,  508,  615
 154,  187,  158,  284,  296,  511,  482,  608,  620
 155,  176,  134,  132,  173,  500,  458,  456,  497
 156,  151,  180,  183,  156,  475,  504,  507,  480
 157,  196,  169,  165,  190,  520,  493,  489,  514
 158,  174,  137,  133,  175,  498,  461,  457,  499
 159,  177,  138,  134,  176,  501,  462,  458,  500
 160,  201,  176,  173,  197,  525,  500,  497,  521
 161,  136,  172,  166,  130,  460,  496,  490,  454
 162,  211,  201,  197,  308,  535,  525,  521,  632
 163,  135,  170,  168,  129,  459,  494,  492,  453
 164,  182,  155,  159,  294,  506,  479,  483,  618
 165,  156,  183,  186,  160,  480,  507,  510,  484
 166,  309,  186,  183,  205,  633,  510,  507,  529
 167,  222,  185,  189,  207,  546,  509,  513,  531
 168,  294,  159,  164,  185,  618,  483,  488,  509
 169,  137,  174,  170,  135,  461,  498,  494,  459
 170,  168,  189,  185,  164,  492,  513,  509,  488
 171,  174,  200,  193,  170,  498,  524,  517,  494
 172,  138,  177,  172,  136,  462,  501,  496,  460
 173,  166,  192,  188,  162,  490,  516,  512,  486
 174,  170,  193,  189,  168,  494,  517,  513,  492
 175,  190,  209,  301,  196,  514,  533,  625,  520
 176,  172,  195,  192,  166,  496,  519,  516,  490
 177,  220,  179,  291,  184,  544,  503,  615,  508
 178,  190,  165,  160,  186,  514,  489,  484,  510
 179,  216,  219,  279,  153,  540,  543,  603,  477
 180,  216,  153,  155,  182,  540,  477,  479,  506
 181,  199,  171,  169,  196,  523,  495,  493,  520
 182,  180,  241,  205,  183,  504,  565,  529,  507
 183,  184,  292,  162,  188,  508,  616,  486,  512
 184,  238,  300,  298,  299,  562,  624,  622,  623
 185,  304,  208,  187,  258,  628,  532,  511,  582
 186,  202,  175,  171,  199,  526,  499,  495,  523
 187,  258,  187,  296,  181,  582,  511,  620,  505
 188,  197,  173,  167,  194,  521,  497,  491,  518
 189,  310,  238,  228,  246,  634,  562,  552,  570
 190,  270,  323,  314,  265,  594,  647,  638,  589
 191,  255,  303,  212,  257,  579,  627,  536,  581
 192,  208,  191,  297,  187,  532,  515,  621,  511
 193,  198,  177,  176,  201,  522,  501,  500,  525
 194,  210,  206,  188,  192,  534,  530,  512,  516
 195,  303,  193,  200,  212,  627,  517,  524,  536
 196,  193,  303,  207,  189,  517,  627,  531,  513
 197,  264,  301,  209,  309,  588,  625,  533,  633
 198,  177,  198,  195,  172,  501,  522,  519,  496
 199,  195,  198,  213,  307,  519,  522,  537,  631
 200,  195,  307,  210,  192,  519,  631,  534,  516
 201,  200,  174,  175,  202,  524,  498,  499,  526
 202,  250,  239,  315,  248,  574,  563,  639,  572
 203,  225,  227,  277,  100,  549,  551,  601,  424
 204,  102,   66,  203,  278,  426,  390,  527,  602
 205,  241,  229,  242,  259,  565,  553,  566,  583
 206,  209,  190,  186,  309,  533,  514,  510,  633
 207,  206,  220,  184,  188,  530,  544,  508,  512
 208,  222,  313,  294,  185,  546,  637,  618,  509
 209,  208,  305,  194,  191,  532,  629,  518,  515
 210,  302,  202,  199,  214,  626,  526,  523,  538
 211,  319,  270,  261,  321,  643,  594,  585,  645
 212,  256,  210,  307,  268,  580,  534,  631,  592
 213,  198,  201,  211,  213,  522,  525,  535,  537
 214,  202,  302,  212,  200,  526,  626,  536,  524
 215,  255,  322,  315,  316,  579,  646,  639,  640
 216,  269,  214,  301,  264,  593,  538,  625,  588
 217,  288,  225,  293,  223,  612,  549,  617,  547
 218,  287,  233,  229,  224,  611,  557,  553,  548
 219,  239,  237,  317,  230,  563,  561,  641,  554
 220,  179,  298,  218,  290,  503,  622,  542,  614
 221,  234,  300,  238,  242,  558,  624,  562,  566
 222,  251,  244,  237,  247,  575,  568,  561,  571
 223,  306,  219,  216,  182,  630,  543,  540,  506
 224,  299,  298,  179,  220,  623,  622,  503,  544
 225,  280,  273,   99,  226,  604,  597,  423,  550
 226,  295,  240,  226,  235,  619,  564,  550,  559
 227,  225,  286,  215,  293,  549,  610,  539,  617
 228,  287,  224,  150,  146,  611,  548,  474,  470
 229,  241,  180,  224,  229,  565,  504,  548,  553
 230,  289,  217,  288,  223,  613,  541,  612,  547
 231,  236,  281,  274,  144,  560,  605,  598,  468
 232,  281,  236,  245,  243,  605,  560,  569,  567
 233,  210,  228,  311,  206,  534,  552,  635,  530
 234,  304,  250,  248,  254,  628,  574,  572,  578
 235,  316,  230,  222,  207,  640,  554,  546,  531
 236,  244,  251,  252,  249,  568,  575,  576,  573
 237,  233,  287,  217,  289,  557,  611,  541,  613
 238,  228,  238,  299,  311,  552,  562,  623,  635
 239,  229,  233,  234,  242,  553,  557,  558,  566
 240,  226,   99,  178,  235,  550,  423,  502,  559
 241,  148,  245,  249,  252,  472,  569,  573,  576
 242,  237,  244,  231,  312,  561,  568,  555,  636
 243,  181,  251,  247,  258,  505,  575,  571,  582
 244,  264,  309,  205,  253,  588,  633,  529,  577
 245,  313,  317,  237,  312,  637,  641,  561,  636
 246,  204,  221,  295,  235,  528,  545,  619,  559
 247,  253,  205,  241,  259,  577,  529,  565,  583
 248,  243,  282,  275,  147,  567,  606,  599,  471
 249,  244,  249,  240,  231,  568,  573,  564,  555
 250,  249,  245,  236,  240,  573,  569,  560,  564
 251,  253,  246,  256,  260,  577,  570,  580,  584
 252,  210,  256,  246,  228,  534,  580,  570,  552
 253,  304,  258,  247,  250,  628,  582,  571,  574
 254,  250,  247,  237,  239,  574,  571,  561,  563
 255,  321,  261,  254,  248,  645,  585,  578,  572
 256,  257,  321,  322,  255,  581,  645,  646,  579
 257,  259,  242,  238,  310,  583,  566,  562,  634
 258,  267,  264,  253,  260,  591,  588,  577,  584
 259,  308,  305,  254,  265,  632,  629,  578,  589
 260,  324,  323,  263,  262,  648,  647,  587,  586
 261,  269,  318,  257,  320,  593,  642,  581,  644
 262,  265,  254,  261,  270,  589,  578,  585,  594
 263,  259,  310,  246,  253,  583,  634,  570,  577
 264,  262,  263,  267,  260,  586,  587,  591,  584
 265,  323,  324,  266,  314,  647,  648,  590,  638
 266,  268,  262,  260,  256,  592,  586,  584,  580
 267,  264,  267,  318,  269,  588,  591,  642,  593
 268,  267,  263,  319,  318,  591,  587,  643,  642
 269,  208,  304,  254,  305,  532,  628,  578,  629
 270,  314,  266,  213,  211,  638,  590,  537,  535
 271,  268,  307,  213,  266,  592,  631,  537,  590
 272,  320,  302,  214,  269,  644,  626,  538,  593
 273,  319,  263,  323,  270,  643,  587,  647,  594
 274,   19,   18,  272,  271,  343,  342,  596,  595
 275,  147,  139,  141,  274,  471,  463,  465,  598
 276,  107,   79,   77,  276,  431,  403,  401,  600
 277,  287,  146,  278,  217,  611,  470,  602,  541
 278,  221,  204,  279,  219,  545,  528,  603,  543
 279,  158,  116,  109,  284,  482,  440,  433,  608
 280,  145,  290,  215,  286,  469,  614,  539,  610
 281,  225,  100,  101,  286,  549,  424,  425,  610
 282,  218,  293,  215,  290,  542,  617,  539,  614
 283,  306,  182,  294,  313,  630,  506,  618,  637
 284,  191,  163,  161,  297,  515,  487,  485,  621
 285,  300,  234,  218,  298,  624,  558,  542,  622
 286,  214,  199,  196,  301,  538,  523,  520,  625
 287,  257,  212,  302,  320,  581,  536,  626,  644
 288,  255,  316,  207,  303,  579,  640,  531,  627
 289,  305,  308,  197,  194,  629,  632,  521,  518
 290,  313,  312,  219,  306,  637,  636,  543,  630
 291,  219,  312,  231,  221,  543,  636,  555,  545
 292,  299,  220,  206,  311,  623,  544,  530,  635
 293,  314,  211,  308,  265,  638,  535,  632,  589
 294,  316,  315,  239,  230,  640,  639,  563,  554
 295,  321,  248,  315,  322,  645,  572,  639,  646
 296,  321,  257,  318,  319,  645,  581,  642,  643
 297,  262,  268,  266,  324,  586,  592,  590,  648
 298,  465,  463,  325,  340,  789,  787,  649,  664
 299,  377,  465,  340,  356,  701,  789,  664,  680
 300,  326,  325,  463,  464,  650,  649,  787,  788
 301,  466,  401,  357,  327,  790,  725,  681,  651
 302,  468,  377,  402,  597,  792,  701,  726,  921
 303,  559,  502,  556,  528,  883,  826,  880,  852
 304,  448,  398,  404,  443,  772,  722,  728,  767
 305,  406,  397,  361,  331,  730,  721,  685,  655
 306,  438,  394,  410,  442,  762,  718,  734,  766
 307,  349,  371,  382,  417,  673,  695,  706,  741
 308,  445,  419,  405,  449,  769,  743,  729,  773
 309,  426,  602,  470,  428,  750,  926,  794,  752
 310,  338,  337,  412,  387,  662,  661,  736,  711
 311,  386,  413,  345,  367,  710,  737,  669,  691
 312,  339,  338,  387,  388,  663,  662,  711,  712
 313,  342,  341,  389,  596,  666,  665,  713,  920
 314,  551,  389,  388,  601,  875,  713,  712,  925
 315,  389,  551,  527,  390,  713,  875,  851,  714
 316,  391,  386,  367,  344,  715,  710,  691,  668
 317,  368,  346,  393,  384,  692,  670,  717,  708
 318,  469,  610,  425,  427,  793,  934,  749,  751
 319,  473,  436,  438,  478,  797,  760,  762,  802
 320,  408,  395,  363,  333,  732,  719,  687,  657
 321,  487,  448,  443,  485,  811,  772,  767,  809
 322,  398,  380,  360,  359,  722,  704,  684,  683
 323,  400,  556,  502,  467,  724,  880,  826,  791
 324,  328,  357,  401,  403,  652,  681,  725,  727
 325,  402,  377,  356,  355,  726,  701,  680,  679
 326,  403,  378,  329,  328,  727,  702,  653,  652
 327,  379,  421,  352,  375,  703,  745,  676,  699
 328,  441,  420,  419,  445,  765,  744,  743,  769
 329,  362,  332,  407,  396,  686,  656,  731,  720
 330,  364,  363,  395,  383,  688,  687,  719,  707
 331,  480,  439,  434,  475,  804,  763,  758,  799
 332,  336,  335,  411,  385,  660,  659,  735,  709
 333,  339,  388,  389,  341,  663,  712,  713,  665
 334,  391,  426,  428,  386,  715,  750,  752,  710
 335,  414,  409,  369,  347,  738,  733,  693,  671
 336,  371,  348,  416,  382,  695,  672,  740,  706
 337,  372,  349,  417,  381,  696,  673,  741,  705
 338,  418,  405,  373,  350,  742,  729,  697,  674
 339,  374,  373,  405,  419,  698,  697,  729,  743
 340,  556,  400,  421,  435,  880,  724,  745,  759
 341,  421,  400,  353,  352,  745,  724,  677,  676
 342,  422,  402,  355,  354,  746,  726,  679,  678
 343,  378,  399,  358,  329,  702,  723,  682,  653
 344,  359,  330,  404,  398,  683,  654,  728,  722
 345,  375,  351,  420,  379,  699,  675,  744,  703
 346,  435,  421,  379,  437,  759,  745,  703,  761
 347,  380,  406,  331,  360,  704,  730,  655,  684
 348,  381,  418,  350,  372,  705,  742,  674,  696
 349,  335,  365,  394,  411,  659,  689,  718,  735
 350,  370,  369,  409,  415,  694,  693,  733,  739
 351,  383,  410,  334,  364,  707,  734,  658,  688
 352,  384,  414,  347,  368,  708,  738,  671,  692
 353,  385,  392,  366,  336,  709,  716,  690,  660
 354,  426,  391,  595,  390,  750,  715,  919,  714
 355,  392,  427,  425,  412,  716,  751,  749,  736
 356,  412,  425,  424,  387,  736,  749,  748,  711
 357,  389,  390,  595,  596,  713,  714,  919,  920
 358,  549,  612,  527,  551,  873,  936,  851,  875
 359,  595,  391,  344,  343,  919,  715,  668,  667
 360,  337,  366,  392,  412,  661,  690,  716,  736
 361,  413,  393,  346,  345,  737,  717,  670,  669
 362,  386,  428,  432,  413,  710,  752,  756,  737
 363,  430,  385,  411,  436,  754,  709,  735,  760
 364,  410,  394,  365,  334,  734,  718,  689,  658
 365,  446,  383,  395,  450,  770,  707,  719,  774
 366,  333,  362,  396,  408,  657,  686,  720,  732
 367,  575,  505,  476,  576,  899,  829,  800,  900
 368,  332,  361,  397,  407,  656,  685,  721,  731
 369,  472,  607,  600,  429,  796,  931,  924,  753
 370,  330,  358,  399,  404,  654,  682,  723,  728
 371,  354,  376,  467,  422,  678,  700,  791,  746
 372,  597,  402,  422,  423,  921,  726,  746,  747
 373,  463,  471,  599,  464,  787,  795,  923,  788
 374,  327,  326,  464,  466,  651,  650,  788,  790
 375,  377,  468,  598,  465,  701,  792,  922,  789
 376,  443,  404,  399,  440,  767,  728,  723,  764
 377,  476,  431,  600,  607,  800,  755,  924,  931
 378,  437,  379,  420,  441,  761,  703,  744,  765
 379,  497,  456,  452,  491,  821,  780,  776,  815
 380,  442,  410,  383,  446,  766,  734,  707,  770
 381,  609,  430,  436,  473,  933,  754,  760,  797
 382,  613,  542,  558,  557,  937,  866,  882,  881
 383,  424,  601,  388,  387,  748,  925,  712,  711
 384,  348,  370,  415,  416,  672,  694,  739,  740
 385,  504,  475,  474,  548,  828,  799,  798,  872
 386,  449,  405,  418,  453,  773,  729,  742,  777
 387,  351,  374,  419,  420,  675,  698,  743,  744
 388,  435,  603,  528,  556,  759,  927,  852,  880
 389,  423,  422,  467,  502,  747,  746,  791,  826
 390,  466,  429,  600,  401,  790,  753,  924,  725
 391,  385,  430,  427,  392,  709,  754,  751,  716
 392,  434,  393,  413,  432,  758,  717,  737,  756
 393,  439,  384,  393,  434,  763,  708,  717,  758
 394,  444,  414,  384,  439,  768,  738,  708,  763
 395,  447,  409,  414,  444,  771,  733,  738,  768
 396,  433,  378,  403,  431,  757,  702,  727,  755
 397,  440,  399,  378,  433,  764,  723,  702,  757
 398,  436,  411,  394,  438,  760,  735,  718,  762
 399,  452,  380,  398,  448,  776,  704,  722,  772
 400,  451,  415,  409,  447,  775,  739,  733,  771
 401,  456,  406,  380,  452,  780,  730,  704,  776
 402,  455,  416,  415,  451,  779,  740,  739,  775
 403,  484,  444,  439,  480,  808,  768,  763,  804
 404,  545,  555,  564,  619,  869,  879,  888,  943
 405,  485,  443,  440,  482,  809,  767,  764,  806
 406,  493,  451,  447,  489,  817,  775,  771,  813
 407,  457,  382,  416,  455,  781,  706,  740,  779
 408,  458,  397,  406,  456,  782,  721,  730,  780
 409,  576,  476,  607,  472,  900,  800,  931,  796
 410,  609,  473,  615,  503,  933,  797,  939,  827
 411,  462,  407,  397,  458,  786,  731,  721,  782
 412,  461,  417,  382,  457,  785,  741,  706,  781
 413,  450,  395,  408,  454,  774,  719,  732,  778
 414,  542,  613,  547,  617,  866,  937,  871,  941
 415,  485,  482,  511,  621,  809,  806,  835,  945
 416,  381,  459,  453,  418,  705,  783,  777,  742
 417,  445,  483,  479,  441,  769,  807,  803,  765
 418,  396,  460,  454,  408,  720,  784,  778,  732
 419,  478,  438,  442,  481,  802,  762,  766,  805
 420,  518,  491,  487,  515,  842,  815,  811,  839
 421,  488,  449,  453,  492,  812,  773,  777,  816
 422,  486,  450,  454,  490,  810,  774,  778,  814
 423,  616,  481,  442,  446,  940,  805,  766,  770
 424,  459,  381,  417,  461,  783,  705,  741,  785
 425,  546,  554,  641,  637,  870,  878,  965,  961
 426,  460,  396,  407,  462,  784,  720,  731,  786
 427,  508,  478,  481,  616,  832,  802,  805,  940
 428,  483,  445,  449,  488,  807,  769,  773,  812
 429,  616,  446,  450,  486,  940,  770,  774,  810
 430,  567,  471,  598,  605,  891,  795,  922,  929
 431,  472,  429,  599,  606,  796,  753,  923,  930
 432,  376,  353,  400,  467,  700,  677,  724,  791
 433,  564,  560,  604,  550,  888,  884,  928,  874
 434,  560,  468,  597,  604,  884,  792,  921,  928
 435,  430,  609,  469,  427,  754,  933,  793,  751
 436,  602,  527,  612,  541,  926,  851,  936,  865
 437,  474,  432,  428,  470,  798,  756,  752,  794
 438,  474,  475,  434,  432,  798,  799,  758,  756
 439,  464,  599,  429,  466,  788,  923,  753,  790
 440,  569,  472,  606,  567,  893,  796,  930,  891
 441,  608,  433,  431,  476,  932,  757,  755,  800
 442,  489,  447,  444,  484,  813,  771,  768,  808
 443,  495,  455,  451,  493,  819,  779,  775,  817
 444,  491,  452,  448,  487,  815,  776,  772,  811
 445,  477,  437,  441,  479,  801,  761,  765,  803
 446,  603,  435,  437,  477,  927,  759,  761,  801
 447,  503,  614,  469,  609,  827,  938,  793,  933
 448,  476,  505,  620,  608,  800,  829,  944,  932
 449,  499,  457,  455,  495,  823,  781,  779,  819
 450,  473,  478,  508,  615,  797,  802,  832,  939
 451,  511,  482,  608,  620,  835,  806,  932,  944
 452,  500,  458,  456,  497,  824,  782,  780,  821
 453,  475,  504,  507,  480,  799,  828,  831,  804
 454,  520,  493,  489,  514,  844,  817,  813,  838
 455,  498,  461,  457,  499,  822,  785,  781,  823
 456,  501,  462,  458,  500,  825,  786,  782,  824
 457,  525,  500,  497,  521,  849,  824,  821,  845
 458,  460,  496,  490,  454,  784,  820,  814,  778
 459,  535,  525,  521,  632,  859,  849,  845,  956
 460,  459,  494,  492,  453,  783,  818,  816,  777
 461,  506,  479,  483,  618,  830,  803,  807,  942
 462,  480,  507,  510,  484,  804,  831,  834,  808
 463,  633,  510,  507,  529,  957,  834,  831,  853
 464,  546,  509,  513,  531,  870,  833,  837,  855
 465,  618,  483,  488,  509,  942,  807,  812,  833
 466,  461,  498,  494,  459,  785,  822,  818,  783
 467,  492,  513,  509,  488,  816,  837,  833,  812
 468,  498,  524,  517,  494,  822,  848,  841,  818
 469,  462,  501,  496,  460,  786,  825,  820,  784
 470,  490,  516,  512,  486,  814,  840,  836,  810
 471,  494,  517,  513,  492,  818,  841,  837,  816
 472,  514,  533,  625,  520,  838,  857,  949,  844
 473,  496,  519,  516,  490,  820,  843,  840,  814
 474,  544,  503,  615,  508,  868,  827,  939,  832
 475,  514,  489,  484,  510,  838,  813,  808,  834
 476,  540,  543,  603,  477,  864,  867,  927,  801
 477,  540,  477,  479,  506,  864,  801,  803,  830
 478,  523,  495,  493,  520,  847,  819,  817,  844
 479,  504,  565,  529,  507,  828,  889,  853,  831
 480,  508,  616,  486,  512,  832,  940,  810,  836
 481,  562,  624,  622,  623,  886,  948,  946,  947
 482,  628,  532,  511,  582,  952,  856,  835,  906
 483,  526,  499,  495,  523,  850,  823,  819,  847
 484,  582,  511,  620,  505,  906,  835,  944,  829
 485,  521,  497,  491,  518,  845,  821,  815,  842
 486,  634,  562,  552,  570,  958,  886,  876,  894
 487,  594,  647,  638,  589,  918,  971,  962,  913
 488,  579,  627,  536,  581,  903,  951,  860,  905
 489,  532,  515,  621,  511,  856,  839,  945,  835
 490,  522,  501,  500,  525,  846,  825,  824,  849
 491,  534,  530,  512,  516,  858,  854,  836,  840
 492,  627,  517,  524,  536,  951,  841,  848,  860
 493,  517,  627,  531,  513,  841,  951,  855,  837
 494,  588,  625,  533,  633,  912,  949,  857,  957
 495,  501,  522,  519,  496,  825,  846,  843,  820
 496,  519,  522,  537,  631,  843,  846,  861,  955
 497,  519,  631,  534,  516,  843,  955,  858,  840
 498,  524,  498,  499,  526,  848,  822,  823,  850
 499,  574,  563,  639,  572,  898,  887,  963,  896
 500,  549,  551,  601,  424,  873,  875,  925,  748
 501,  426,  390,  527,  602,  750,  714,  851,  926
 502,  565,  553,  566,  583,  889,  877,  890,  907
 503,  533,  514,  510,  633,  857,  838,  834,  957
 504,  530,  544,  508,  512,  854,  868,  832,  836
 505,  546,  637,  618,  509,  870,  961,  942,  833
 506,  532,  629,  518,  515,  856,  953,  842,  839
 507,  626,  526,  523,  538,  950,  850,  847,  862
 508,  643,  594,  585,  645,  967,  918,  909,  969
 509,  580,  534,  631,  592,  904,  858,  955,  916
 510,  522,  525,  535,  537,  846,  849,  859,  861
 511,  526,  626,  536,  524,  850,  950,  860,  848
 512,  579,  646,  639,  640,  903,  970,  963,  964
 513,  593,  538,  625,  588,  917,  862,  949,  912
 514,  612,  549,  617,  547,  936,  873,  941,  871
 515,  611,  557,  553,  548,  935,  881,  877,  872
 516,  563,  561,  641,  554,  887,  885,  965,  878
 517,  503,  622,  542,  614,  827,  946,  866,  938
 518,  558,  624,  562,  566,  882,  948,  886,  890
 519,  575,  568,  561,  571,  899,  892,  885,  895
 520,  630,  543,  540,  506,  954,  867,  864,  830
 521,  623,  622,  503,  544,  947,  946,  827,  868
 522,  604,  597,  423,  550,  928,  921,  747,  874
 523,  619,  564,  550,  559,  943,  888,  874,  883
 524,  549,  610,  539,  617,  873,  934,  863,  941
 525,  611,  548,  474,  470,  935,  872,  798,  794
 526,  565,  504,  548,  553,  889,  828,  872,  877
 527,  613,  541,  612,  547,  937,  865,  936,  871
 528,  560,  605,  598,  468,  884,  929,  922,  792
 529,  605,  560,  569,  567,  929,  884,  893,  891
 530,  534,  552,  635,  530,  858,  876,  959,  854
 531,  628,  574,  572,  578,  952,  898,  896,  902
 532,  640,  554,  546,  531,  964,  878,  870,  855
 533,  568,  575,  576,  573,  892,  899,  900,  897
 534,  557,  611,  541,  613,  881,  935,  865,  937
 535,  552,  562,  623,  635,  876,  886,  947,  959
 536,  553,  557,  558,  566,  877,  881,  882,  890
 537,  550,  423,  502,  559,  874,  747,  826,  883
 538,  472,  569,  573,  576,  796,  893,  897,  900
 539,  561,  568,  555,  636,  885,  892,  879,  960
 540,  505,  575,  571,  582,  829,  899,  895,  906
 541,  588,  633,  529,  577,  912,  957,  853,  901
 542,  637,  641,  561,  636,  961,  965,  885,  960
 543,  528,  545,  619,  559,  852,  869,  943,  883
 544,  577,  529,  565,  583,  901,  853,  889,  907
 545,  567,  606,  599,  471,  891,  930,  923,  795
 546,  568,  573,  564,  555,  892,  897,  888,  879
 547,  573,  569,  560,  564,  897,  893,  884,  888
 548,  577,  570,  580,  584,  901,  894,  904,  908
 549,  534,  580,  570,  552,  858,  904,  894,  876
 550,  628,  582,  571,  574,  952,  906,  895,  898
 551,  574,  571,  561,  563,  898,  895,  885,  887
 552,  645,  585,  578,  572,  969,  909,  902,  896
 553,  581,  645,  646,  579,  905,  969,  970,  903
 554,  583,  566,  562,  634,  907,  890,  886,  958
 555,  591,  588,  577,  584,  915,  912,  901,  908
 556,  632,  629,  578,  589,  956,  953,  902,  913
 557,  648,  647,  587,  586,  972,  971,  911,  910
 558,  593,  642,  581,  644,  917,  966,  905,  968
 559,  589,  578,  585,  594,  913,  902,  909,  918
 560,  583,  634,  570,  577,  907,  958,  894,  901
 561,  586,  587,  591,  584,  910,  911,  915,  908
 562,  647,  648,  590,  638,  971,  972,  914,  962
 563,  592,  586,  584,  580,  916,  910,  908,  904
 564,  588,  591,  642,  593,  912,  915,  966,  917
 565,  591,  587,  643,  642,  915,  911,  967,  966
 566,  532,  628,  578,  629,  856,  952,  902,  953
 567,  638,  590,  537,  535,  962,  914,  861,  859
 568,  592,  631,  537,  590,  916,  955,  861,  914
 569,  644,  626,  538,  593,  968,  950,  862,  917
 570,  643,  587,  647,  594,  967,  911,  971,  918
 571,  343,  342,  596,  595,  667,  666,  920,  919
 572,  471,  463,  465,  598,  795,  787,  789,  922
 573,  431,  403,  401,  600,  755,  727,  725,  924
 574,  611,  470,  602,  541,  935,  794,  926,  865
 575,  545,  528,  603,  543,  869,  852,  927,  867
 576,  482,  440,  433,  608,  806,  764,  757,  932
 577,  469,  614,  539,  610,  793,  938,  863,  934
 578,  549,  424,  425,  610,  873,  748,  749,  934
 579,  542,  617,  539,  614,  866,  941,  863,  938
 580,  630,  506,  618,  637,  954,  830,  942,  961
 581,  515,  487,  485,  621,  839,  811,  809,  945
 582,  624,  558,  542,  622,  948,  882,  866,  946
 583,  538,  523,  520,  625,  862,  847,  844,  949
 584,  581,  536,  626,  644,  905,  860,  950,  968
 585,  579,  640,  531,  627,  903,  964,  855,  951
 586,  629,  632,  521,  518,  953,  956,  845,  842
 587,  637,  636,  543,  630,  961,  960,  867,  954
 588,  543,  636,  555,  545,  867,  960,  879,  869
 589,  623,  544,  530,  635,  947,  868,  854,  959
 590,  638,  535,  632,  589,  962,  859,  956,  913
 591,  640,  639,  563,  554,  964,  963,  887,  878
 592,  645,  572,  639,  646,  969,  896,  963,  970
 593,  645,  581,  642,  643,  969,  905,  966,  967
 594,  586,  592,  590,  648,  910,  916,  914,  972
 595,  789,  787,  649,  664, 1113, 1111,  973,  988
 596,  701,  789,  664,  680, 1025, 1113,  988, 1004
 597,  650,  649,  787,  788,  974,  973, 1111, 1112
 598,  790,  725,  681,  651, 1114, 1049, 1005,  975
 599,  792,  701,  726,  921, 1116, 1025, 1050, 1245
 600,  883,  826,  880,  852, 1207, 1150, 1204, 1176
 601,  772,  722,  728,  767, 1096, 1046, 1052, 1091
 602,  730,  721,  685,  655, 1054, 1045, 1009,  979
 603,  762,  718,  734,  766, 1086, 1042, 1058, 1090
 604,  673,  695,  706,  741,  997, 1019, 1030, 1065
 605,  769,  743,  729,  773, 1093, 1067, 1053, 1097
 606,  750,  926,  794,  752, 1074, 1250, 1118, 1076
 607,  662,  661,  736,  711,  986,  985, 1060, 1035
 608,  710,  737,  669,  691, 1034, 1061,  993, 1015
 609,  663,  662,  711,  712,  987,  986, 1035, 1036
 610,  666,  665,  713,  920,  990,  989, 1037, 1244
 611,  875,  713,  712,  925, 1199, 1037, 1036, 1249
 612,  713,  875,  851,  714, 1037, 1199, 1175, 1038
 613,  715,  710,  691,  668, 1039, 1034, 1015,  992
 614,  692,  670,  717,  708, 1016,  994, 1041, 1032
 615,  793,  934,  749,  751, 1117, 1258, 1073, 1075
 616,  797,  760,  762,  802, 1121, 1084, 1086, 1126
 617,  732,  719,  687,  657, 1056, 1043, 1011,  981
 618,  811,  772,  767,  809, 1135, 1096, 1091, 1133
 619,  722,  704,  684,  683, 1046, 1028, 1008, 1007
 620,  724,  880,  826,  791, 1048, 1204, 1150, 1115
 621,  652,  681,  725,  727,  976, 1005, 1049, 1051
 622,  726,  701,  680,  679, 1050, 1025, 1004, 1003
 623,  727,  702,  653,  652, 1051, 1026,  977,  976
 624,  703,  745,  676,  699, 1027, 1069, 1000, 1023
 625,  765,  744,  743,  769, 1089, 1068, 1067, 1093
 626,  686,  656,  731,  720, 1010,  980, 1055, 1044
 627,  688,  687,  719,  707, 1012, 1011, 1043, 1031
 628,  804,  763,  758,  799, 1128, 1087, 1082, 1123
 629,  660,  659,  735,  709,  984,  983, 1059, 1033
 630,  663,  712,  713,  665,  987, 1036, 1037,  989
 631,  715,  750,  752,  710, 1039, 1074, 1076, 1034
 632,  738,  733,  693,  671, 1062, 1057, 1017,  995
 633,  695,  672,  740,  706, 1019,  996, 1064, 1030
 634,  696,  673,  741,  705, 1020,  997, 1065, 1029
 635,  742,  729,  697,  674, 1066, 1053, 1021,  998
 636,  698,  697,  729,  743, 1022, 1021, 1053, 1067
 637,  880,  724,  745,  759, 1204, 1048, 1069, 1083
 638,  745,  724,  677,  676, 1069, 1048, 1001, 1000
 639,  746,  726,  679,  678, 1070, 1050, 1003, 1002
 640,  702,  723,  682,  653, 1026, 1047, 1006,  977
 641,  683,  654,  728,  722, 1007,  978, 1052, 1046
 642,  699,  675,  744,  703, 1023,  999, 1068, 1027
 643,  759,  745,  703,  761, 1083, 1069, 1027, 1085
 644,  704,  730,  655,  684, 1028, 1054,  979, 1008
 645,  705,  742,  674,  696, 1029, 1066,  998, 1020
 646,  659,  689,  718,  735,  983, 1013, 1042, 1059
 647,  694,  693,  733,  739, 1018, 1017, 1057, 1063
 648,  707,  734,  658,  688, 1031, 1058,  982, 1012
 649,  708,  738,  671,  692, 1032, 1062,  995, 1016
 650,  709,  716,  690,  660, 1033, 1040, 1014,  984
 651,  750,  715,  919,  714, 1074, 1039, 1243, 1038
 652,  716,  751,  749,  736, 1040, 1075, 1073, 1060
 653,  736,  749,  748,  711, 1060, 1073, 1072, 1035
 654,  713,  714,  919,  920, 1037, 1038, 1243, 1244
 655,  873,  936,  851,  875, 1197, 1260, 1175, 1199
 656,  919,  715,  668,  667, 1243, 1039,  992,  991
 657,  661,  690,  716,  736,  985, 1014, 1040, 1060
 658,  737,  717,  670,  669, 1061, 1041,  994,  993
 659,  710,  752,  756,  737, 1034, 1076, 1080, 1061
 660,  754,  709,  735,  760, 1078, 1033, 1059, 1084
 661,  734,  718,  689,  658, 1058, 1042, 1013,  982
 662,  770,  707,  719,  774, 1094, 1031, 1043, 1098
 663,  657,  686,  720,  732,  981, 1010, 1044, 1056
 664,  899,  829,  800,  900, 1223, 1153, 1124, 1224
 665,  656,  685,  721,  731,  980, 1009, 1045, 1055
 666,  796,  931,  924,  753, 1120, 1255, 1248, 1077
 667,  654,  682,  723,  728,  978, 1006, 1047, 1052
 668,  678,  700,  791,  746, 1002, 1024, 1115, 1070
 669,  921,  726,  746,  747, 1245, 1050, 1070, 1071
 670,  787,  795,  923,  788, 1111, 1119, 1247, 1112
 671,  651,  650,  788,  790,  975,  974, 1112, 1114
 672,  701,  792,  922,  789, 1025, 1116, 1246, 1113
 673,  767,  728,  723,  764, 1091, 1052, 1047, 1088
 674,  800,  755,  924,  931, 1124, 1079, 1248, 1255
 675,  761,  703,  744,  765, 1085, 1027, 1068, 1089
 676,  821,  780,  776,  815, 1145, 1104, 1100, 1139
 677,  766,  734,  707,  770, 1090, 1058, 1031, 1094
 678,  933,  754,  760,  797, 1257, 1078, 1084, 1121
 679,  937,  866,  882,  881, 1261, 1190, 1206, 1205
 680,  748,  925,  712,  711, 1072, 1249, 1036, 1035
 681,  672,  694,  739,  740,  996, 1018, 1063, 1064
 682,  828,  799,  798,  872, 1152, 1123, 1122, 1196
 683,  773,  729,  742,  777, 1097, 1053, 1066, 1101
 684,  675,  698,  743,  744,  999, 1022, 1067, 1068
 685,  759,  927,  852,  880, 1083, 1251, 1176, 1204
 686,  747,  746,  791,  826, 1071, 1070, 1115, 1150
 687,  790,  753,  924,  725, 1114, 1077, 1248, 1049
 688,  709,  754,  751,  716, 1033, 1078, 1075, 1040
 689,  758,  717,  737,  756, 1082, 1041, 1061, 1080
 690,  763,  708,  717,  758, 1087, 1032, 1041, 1082
 691,  768,  738,  708,  763, 1092, 1062, 1032, 1087
 692,  771,  733,  738,  768, 1095, 1057, 1062, 1092
 693,  757,  702,  727,  755, 1081, 1026, 1051, 1079
 694,  764,  723,  702,  757, 1088, 1047, 1026, 1081
 695,  760,  735,  718,  762, 1084, 1059, 1042, 1086
 696,  776,  704,  722,  772, 1100, 1028, 1046, 1096
 697,  775,  739,  733,  771, 1099, 1063, 1057, 1095
 698,  780,  730,  704,  776, 1104, 1054, 1028, 1100
 699,  779,  740,  739,  775, 1103, 1064, 1063, 1099
 700,  808,  768,  763,  804, 1132, 1092, 1087, 1128
 701,  869,  879,  888,  943, 1193, 1203, 1212, 1267
 702,  809,  767,  764,  806, 1133, 1091, 1088, 1130
 703,  817,  775,  771,  813, 1141, 1099, 1095, 1137
 704,  781,  706,  740,  779, 1105, 1030, 1064, 1103
 705,  782,  721,  730,  780, 1106, 1045, 1054, 1104
 706,  900,  800,  931,  796, 1224, 1124, 1255, 1120
 707,  933,  797,  939,  827, 1257, 1121, 1263, 1151
 708,  786,  731,  721,  782, 1110, 1055, 1045, 1106
 709,  785,  741,  706,  781, 1109, 1065, 1030, 1105
 710,  774,  719,  732,  778, 1098, 1043, 1056, 1102
 711,  866,  937,  871,  941, 1190, 1261, 1195, 1265
 712,  809,  806,  835,  945, 1133, 1130, 1159, 1269
 713,  705,  783,  777,  742, 1029, 1107, 1101, 1066
 714,  769,  807,  803,  765, 1093, 1131, 1127, 1089
 715,  720,  784,  778,  732, 1044, 1108, 1102, 1056
 716,  802,  762,  766,  805, 1126, 1086, 1090, 1129
 717,  842,  815,  811,  839, 1166, 1139, 1135, 1163
 718,  812,  773,  777,  816, 1136, 1097, 1101, 1140
 719,  810,  774,  778,  814, 1134, 1098, 1102, 1138
 720,  940,  805,  766,  770, 1264, 1129, 1090, 1094
 721,  783,  705,  741,  785, 1107, 1029, 1065, 1109
 722,  870,  878,  965,  961, 1194, 1202, 1289, 1285
 723,  784,  720,  731,  786, 1108, 1044, 1055, 1110
 724,  832,  802,  805,  940, 1156, 1126, 1129, 1264
 725,  807,  769,  773,  812, 1131, 1093, 1097, 1136
 726,  940,  770,  774,  810, 1264, 1094, 1098, 1134
 727,  891,  795,  922,  929, 1215, 1119, 1246, 1253
 728,  796,  753,  923,  930, 1120, 1077, 1247, 1254
 729,  700,  677,  724,  791, 1024, 1001, 1048, 1115
 730,  888,  884,  928,  874, 1212, 1208, 1252, 1198
 731,  884,  792,  921,  928, 1208, 1116, 1245, 1252
 732,  754,  933,  793,  751, 1078, 1257, 1117, 1075
 733,  926,  851,  936,  865, 1250, 1175, 1260, 1189
 734,  798,  756,  752,  794, 1122, 1080, 1076, 1118
 735,  798,  799,  758,  756, 1122, 1123, 1082, 1080
 736,  788,  923,  753,  790, 1112, 1247, 1077, 1114
 737,  893,  796,  930,  891, 1217, 1120, 1254, 1215
 738,  932,  757,  755,  800, 1256, 1081, 1079, 1124
 739,  813,  771,  768,  808, 1137, 1095, 1092, 1132
 740,  819,  779,  775,  817, 1143, 1103, 1099, 1141
 741,  815,  776,  772,  811, 1139, 1100, 1096, 1135
 742,  801,  761,  765,  803, 1125, 1085, 1089, 1127
 743,  927,  759,  761,  801, 1251, 1083, 1085, 1125
 744,  827,  938,  793,  933, 1151, 1262, 1117, 1257
 745,  800,  829,  944,  932, 1124, 1153, 1268, 1256
 746,  823,  781,  779,  819, 1147, 1105, 1103, 1143
 747,  797,  802,  832,  939, 1121, 1126, 1156, 1263
 748,  835,  806,  932,  944, 1159, 1130, 1256, 1268
 749,  824,  782,  780,  821, 1148, 1106, 1104, 1145
 750,  799,  828,  831,  804, 1123, 1152, 1155, 1128
 751,  844,  817,  813,  838, 1168, 1141, 1137, 1162
 752,  822,  785,  781,  823, 1146, 1109, 1105, 1147
 753,  825,  786,  782,  824, 1149, 1110, 1106, 1148
 754,  849,  824,  821,  845, 1173, 1148, 1145, 1169
 755,  784,  820,  814,  778, 1108, 1144, 1138, 1102
 756,  859,  849,  845,  956, 1183, 1173, 1169, 1280
 757,  783,  818,  816,  777, 1107, 1142, 1140, 1101
 758,  830,  803,  807,  942, 1154, 1127, 1131, 1266
 759,  804,  831,  834,  808, 1128, 1155, 1158, 1132
 760,  957,  834,  831,  853, 1281, 1158, 1155, 1177
 761,  870,  833,  837,  855, 1194, 1157, 1161, 1179
 762,  942,  807,  812,  833, 1266, 1131, 1136, 1157
 763,  785,  822,  818,  783, 1109, 1146, 1142, 1107
 764,  816,  837,  833,  812, 1140, 1161, 1157, 1136
 765,  822,  848,  841,  818, 1146, 1172, 1165, 1142
 766,  786,  825,  820,  784, 1110, 1149, 1144, 1108
 767,  814,  840,  836,  810, 1138, 1164, 1160, 1134
 768,  818,  841,  837,  816, 1142, 1165, 1161, 1140
 769,  838,  857,  949,  844, 1162, 1181, 1273, 1168
 770,  820,  843,  840,  814, 1144, 1167, 1164, 1138
 771,  868,  827,  939,  832, 1192, 1151, 1263, 1156
 772,  838,  813,  808,  834, 1162, 1137, 1132, 1158
 773,  864,  867,  927,  801, 1188, 1191, 1251, 1125
 774,  864,  801,  803,  830, 1188, 1125, 1127, 1154
 775,  847,  819,  817,  844, 1171, 1143, 1141, 1168
 776,  828,  889,  853,  831, 1152, 1213, 1177, 1155
 777,  832,  940,  810,  836, 1156, 1264, 1134, 1160
 778,  886,  948,  946,  947, 1210, 1272, 1270, 1271
 779,  952,  856,  835,  906, 1276, 1180, 1159, 1230
 780,  850,  823,  819,  847, 1174, 1147, 1143, 1171
 781,  906,  835,  944,  829, 1230, 1159, 1268, 1153
 782,  845,  821,  815,  842, 1169, 1145, 1139, 1166
 783,  958,  886,  876,  894, 1282, 1210, 1200, 1218
 784,  918,  971,  962,  913, 1242, 1295, 1286, 1237
 785,  903,  951,  860,  905, 1227, 1275, 1184, 1229
 786,  856,  839,  945,  835, 1180, 1163, 1269, 1159
 787,  846,  825,  824,  849, 1170, 1149, 1148, 1173
 788,  858,  854,  836,  840, 1182, 1178, 1160, 1164
 789,  951,  841,  848,  860, 1275, 1165, 1172, 1184
 790,  841,  951,  855,  837, 1165, 1275, 1179, 1161
 791,  912,  949,  857,  957, 1236, 1273, 1181, 1281
 792,  825,  846,  843,  820, 1149, 1170, 1167, 1144
 793,  843,  846,  861,  955, 1167, 1170, 1185, 1279
 794,  843,  955,  858,  840, 1167, 1279, 1182, 1164
 795,  848,  822,  823,  850, 1172, 1146, 1147, 1174
 796,  898,  887,  963,  896, 1222, 1211, 1287, 1220
 797,  873,  875,  925,  748, 1197, 1199, 1249, 1072
 798,  750,  714,  851,  926, 1074, 1038, 1175, 1250
 799,  889,  877,  890,  907, 1213, 1201, 1214, 1231
 800,  857,  838,  834,  957, 1181, 1162, 1158, 1281
 801,  854,  868,  832,  836, 1178, 1192, 1156, 1160
 802,  870,  961,  942,  833, 1194, 1285, 1266, 1157
 803,  856,  953,  842,  839, 1180, 1277, 1166, 1163
 804,  950,  850,  847,  862, 1274, 1174, 1171, 1186
 805,  967,  918,  909,  969, 1291, 1242, 1233, 1293
 806,  904,  858,  955,  916, 1228, 1182, 1279, 1240
 807,  846,  849,  859,  861, 1170, 1173, 1183, 1185
 808,  850,  950,  860,  848, 1174, 1274, 1184, 1172
 809,  903,  970,  963,  964, 1227, 1294, 1287, 1288
 810,  917,  862,  949,  912, 1241, 1186, 1273, 1236
 811,  936,  873,  941,  871, 1260, 1197, 1265, 1195
 812,  935,  881,  877,  872, 1259, 1205, 1201, 1196
 813,  887,  885,  965,  878, 1211, 1209, 1289, 1202
 814,  827,  946,  866,  938, 1151, 1270, 1190, 1262
 815,  882,  948,  886,  890, 1206, 1272, 1210, 1214
 816,  899,  892,  885,  895, 1223, 1216, 1209, 1219
 817,  954,  867,  864,  830, 1278, 1191, 1188, 1154
 818,  947,  946,  827,  868, 1271, 1270, 1151, 1192
 819,  928,  921,  747,  874, 1252, 1245, 1071, 1198
 820,  943,  888,  874,  883, 1267, 1212, 1198, 1207
 821,  873,  934,  863,  941, 1197, 1258, 1187, 1265
 822,  935,  872,  798,  794, 1259, 1196, 1122, 1118
 823,  889,  828,  872,  877, 1213, 1152, 1196, 1201
 824,  937,  865,  936,  871, 1261, 1189, 1260, 1195
 825,  884,  929,  922,  792, 1208, 1253, 1246, 1116
 826,  929,  884,  893,  891, 1253, 1208, 1217, 1215
 827,  858,  876,  959,  854, 1182, 1200, 1283, 1178
 828,  952,  898,  896,  902, 1276, 1222, 1220, 1226
 829,  964,  878,  870,  855, 1288, 1202, 1194, 1179
 830,  892,  899,  900,  897, 1216, 1223, 1224, 1221
 831,  881,  935,  865,  937, 1205, 1259, 1189, 1261
 832,  876,  886,  947,  959, 1200, 1210, 1271, 1283
 833,  877,  881,  882,  890, 1201, 1205, 1206, 1214
 834,  874,  747,  826,  883, 1198, 1071, 1150, 1207
 835,  796,  893,  897,  900, 1120, 1217, 1221, 1224
 836,  885,  892,  879,  960, 1209, 1216, 1203, 1284
 837,  829,  899,  895,  906, 1153, 1223, 1219, 1230
 838,  912,  957,  853,  901, 1236, 1281, 1177, 1225
 839,  961,  965,  885,  960, 1285, 1289, 1209, 1284
 840,  852,  869,  943,  883, 1176, 1193, 1267, 1207
 841,  901,  853,  889,  907, 1225, 1177, 1213, 1231
 842,  891,  930,  923,  795, 1215, 1254, 1247, 1119
 843,  892,  897,  888,  879, 1216, 1221, 1212, 1203
 844,  897,  893,  884,  888, 1221, 1217, 1208, 1212
 845,  901,  894,  904,  908, 1225, 1218, 1228, 1232
 846,  858,  904,  894,  876, 1182, 1228, 1218, 1200
 847,  952,  906,  895,  898, 1276, 1230, 1219, 1222
 848,  898,  895,  885,  887, 1222, 1219, 1209, 1211
 849,  969,  909,  902,  896, 1293, 1233, 1226, 1220
 850,  905,  969,  970,  903, 1229, 1293, 1294, 1227
 851,  907,  890,  886,  958, 1231, 1214, 1210, 1282
 852,  915,  912,  901,  908, 1239, 1236, 1225, 1232
 853,  956,  953,  902,  913, 1280, 1277, 1226, 1237
 854,  972,  971,  911,  910, 1296, 1295, 1235, 1234
 855,  917,  966,  905,  968, 1241, 1290, 1229, 1292
 856,  913,  902,  909,  918, 1237, 1226, 1233, 1242
 857,  907,  958,  894,  901, 1231, 1282, 1218, 1225
 858,  910,  911,  915,  908, 1234, 1235, 1239, 1232
 859,  971,  972,  914,  962, 1295, 1296, 1238, 1286
 860,  916,  910,  908,  904, 1240, 1234, 1232, 1228
 861,  912,  915,  966,  917, 1236, 1239, 1290, 1241
 862,  915,  911,  967,  966, 1239, 1235, 1291, 1290
 863,  856,  952,  902,  953, 1180, 1276, 1226, 1277
 864,  962,  914,  861,  859, 1286, 1238, 1185, 1183
 865,  916,  955,  861,  914, 1240, 1279, 1185, 1238
 866,  968,  950,  862,  917, 1292, 1274, 1186, 1241
 867,  967,  911,  971,  918, 1291, 1235, 1295, 1242
 868,  667,  666,  920,  919,  991,  990, 1244, 1243
 869,  795,  787,  789,  922, 1119, 1111, 1113, 1246
 870,  755,  727,  725,  924, 1079, 1051, 1049, 1248
 871,  935,  794,  926,  865, 1259, 1118, 1250, 1189
 872,  869,  852,  927,  867, 1193, 1176, 1251, 1191
 873,  806,  764,  757,  932, 1130, 1088, 1081, 1256
 874,  793,  938,  863,  934, 1117, 1262, 1187, 1258
 875,  873,  748,  749,  934, 1197, 1072, 1073, 1258
 876,  866,  941,  863,  938, 1190, 1265, 1187, 1262
 877,  954,  830,  942,  961, 1278, 1154, 1266, 1285
 878,  839,  811,  809,  945, 1163, 1135, 1133, 1269
 879,  948,  882,  866,  946, 1272, 1206, 1190, 1270
 880,  862,  847,  844,  949, 1186, 1171, 1168, 1273
 881,  905,  860,  950,  968, 1229, 1184, 1274, 1292
 882,  903,  964,  855,  951, 1227, 1288, 1179, 1275
 883,  953,  956,  845,  842, 1277, 1280, 1169, 1166
 884,  961,  960,  867,  954, 1285, 1284, 1191, 1278
 885,  867,  960,  879,  869, 1191, 1284, 1203, 1193
 886,  947,  868,  854,  959, 1271, 1192, 1178, 1283
 887,  962,  859,  956,  913, 1286, 1183, 1280, 1237
 888,  964,  963,  887,  878, 1288, 1287, 1211, 1202
 889,  969,  896,  963,  970, 1293, 1220, 1287, 1294
 890,  969,  905,  966,  967, 1293, 1229, 1290, 1291
 891,  910,  916,  914,  972, 1234, 1240, 1238, 1296
 892, 1113, 1111,  973,  988, 1437, 1435, 1297, 1312
 893, 1025, 1113,  988, 1004, 1349, 1437, 1312, 1328
 894,  974,  973, 1111, 1112, 1298, 1297, 1435, 1436
 895, 1114, 1049, 1005,  975, 1438, 1373, 1329, 1299
 896, 1116, 1025, 1050, 1245, 1440, 1349, 1374, 1569
 897, 1207, 1150, 1204, 1176, 1531, 1474, 1528, 1500
 898, 1096, 1046, 1052, 1091, 1420, 1370, 1376, 1415
 899, 1054, 1045, 1009,  979, 1378, 1369, 1333, 1303
 900, 1086, 1042, 1058, 1090, 1410, 1366, 1382, 1414
 901,  997, 1019, 1030, 1065, 1321, 1343, 1354, 1389
 902, 1093, 1067, 1053, 1097, 1417, 1391, 1377, 1421
 903, 1074, 1250, 1118, 1076, 1398, 1574, 1442, 1400
 904,  986,  985, 1060, 1035, 1310, 1309, 1384, 1359
 905, 1034, 1061,  993, 1015, 1358, 1385, 1317, 1339
 906,  987,  986, 1035, 1036, 1311, 1310, 1359, 1360
 907,  990,  989, 1037, 1244, 1314, 1313, 1361, 1568
 908, 1199, 1037, 1036, 1249, 1523, 1361, 1360, 1573
 909, 1037, 1199, 1175, 1038, 1361, 1523, 1499, 1362
 910, 1039, 1034, 1015,  992, 1363, 1358, 1339, 1316
 911, 1016,  994, 1041, 1032, 1340, 1318, 1365, 1356
 912, 1117, 1258, 1073, 1075, 1441, 1582, 1397, 1399
 913, 1121, 1084, 1086, 1126, 1445, 1408, 1410, 1450
 914, 1056, 1043, 1011,  981, 1380, 1367, 1335, 1305
 915, 1135, 1096, 1091, 1133, 1459, 1420, 1415, 1457
 916, 1046, 1028, 1008, 1007, 1370, 1352, 1332, 1331
 917, 1048, 1204, 1150, 1115, 1372, 1528, 1474, 1439
 918,  976, 1005, 1049, 1051, 1300, 1329, 1373, 1375
 919, 1050, 1025, 1004, 1003, 1374, 1349, 1328, 1327
 920, 1051, 1026,  977,  976, 1375, 1350, 1301, 1300
 921, 1027, 1069, 1000, 1023, 1351, 1393, 1324, 1347
 922, 1089, 1068, 1067, 1093, 1413, 1392, 1391, 1417
 923, 1010,  980, 1055, 1044, 1334, 1304, 1379, 1368
 924, 1012, 1011, 1043, 1031, 1336, 1335, 1367, 1355
 925, 1128, 1087, 1082, 1123, 1452, 1411, 1406, 1447
 926,  984,  983, 1059, 1033, 1308, 1307, 1383, 1357
 927,  987, 1036, 1037,  989, 1311, 1360, 1361, 1313
 928, 1039, 1074, 1076, 1034, 1363, 1398, 1400, 1358
 929, 1062, 1057, 1017,  995, 1386, 1381, 1341, 1319
 930, 1019,  996, 1064, 1030, 1343, 1320, 1388, 1354
 931, 1020,  997, 1065, 1029, 1344, 1321, 1389, 1353
 932, 1066, 1053, 1021,  998, 1390, 1377, 1345, 1322
 933, 1022, 1021, 1053, 1067, 1346, 1345, 1377, 1391
 934, 1204, 1048, 1069, 1083, 1528, 1372, 1393, 1407
 935, 1069, 1048, 1001, 1000, 1393, 1372, 1325, 1324
 936, 1070, 1050, 1003, 1002, 1394, 1374, 1327, 1326
 937, 1026, 1047, 1006,  977, 1350, 1371, 1330, 1301
 938, 1007,  978, 1052, 1046, 1331, 1302, 1376, 1370
 939, 1023,  999, 1068, 1027, 1347, 1323, 1392, 1351
 940, 1083, 1069, 1027, 1085, 1407, 1393, 1351, 1409
 941, 1028, 1054,  979, 1008, 1352, 1378, 1303, 1332
 942, 1029, 1066,  998, 1020, 1353, 1390, 1322, 1344
 943,  983, 1013, 1042, 1059, 1307, 1337, 1366, 1383
 944, 1018, 1017, 1057, 1063, 1342, 1341, 1381, 1387
 945, 1031, 1058,  982, 1012, 1355, 1382, 1306, 1336
 946, 1032, 1062,  995, 1016, 1356, 1386, 1319, 1340
 947, 1033, 1040, 1014,  984, 1357, 1364, 1338, 1308
 948, 1074, 1039, 1243, 1038, 1398, 1363, 1567, 1362
 949, 1040, 1075, 1073, 1060, 1364, 1399, 1397, 1384
 950, 1060, 1073, 1072, 1035, 1384, 1397, 1396, 1359
 951, 1037, 1038, 1243, 1244, 1361, 1362, 1567, 1568
 952, 1197, 1260, 1175, 1199, 1521, 1584, 1499, 1523
 953, 1243, 1039,  992,  991, 1567, 1363, 1316, 1315
 954,  985, 1014, 1040, 1060, 1309, 1338, 1364, 1384
 955, 1061, 1041,  994,  993, 1385, 1365, 1318, 1317
 956, 1034, 1076, 1080, 1061, 1358, 1400, 1404, 1385
 957, 1078, 1033, 1059, 1084, 1402, 1357, 1383, 1408
 958, 1058, 1042, 1013,  982, 1382, 1366, 1337, 1306
 959, 1094, 1031, 1043, 1098, 1418, 1355, 1367, 1422
 960,  981, 1010, 1044, 1056, 1305, 1334, 1368, 1380
 961, 1223, 1153, 1124, 1224, 1547, 1477, 1448, 1548
 962,  980, 1009, 1045, 1055, 1304, 1333, 1369, 1379
 963, 1120, 1255, 1248, 1077, 1444, 1579, 1572, 1401
 964,  978, 1006, 1047, 1052, 1302, 1330, 1371, 1376
 965, 1002, 1024, 1115, 1070, 1326, 1348, 1439, 1394
 966, 1245, 1050, 1070, 1071, 1569, 1374, 1394, 1395
 967, 1111, 1119, 1247, 1112, 1435, 1443, 1571, 1436
 968,  975,  974, 1112, 1114, 1299, 1298, 1436, 1438
 969, 1025, 1116, 1246, 1113, 1349, 1440, 1570, 1437
 970, 1091, 1052, 1047, 1088, 1415, 1376, 1371, 1412
 971, 1124, 1079, 1248, 1255, 1448, 1403, 1572, 1579
 972, 1085, 1027, 1068, 1089, 1409, 1351, 1392, 1413
 973, 1145, 1104, 1100, 1139, 1469, 1428, 1424, 1463
 974, 1090, 1058, 1031, 1094, 1414, 1382, 1355, 1418
 975, 1257, 1078, 1084, 1121, 1581, 1402, 1408, 1445
 976, 1261, 1190, 1206, 1205, 1585, 1514, 1530, 1529
 977, 1072, 1249, 1036, 1035, 1396, 1573, 1360, 1359
 978,  996, 1018, 1063, 1064, 1320, 1342, 1387, 1388
 979, 1152, 1123, 1122, 1196, 1476, 1447, 1446, 1520
 980, 1097, 1053, 1066, 1101, 1421, 1377, 1390, 1425
 981,  999, 1022, 1067, 1068, 1323, 1346, 1391, 1392
 982, 1083, 1251, 1176, 1204, 1407, 1575, 1500, 1528
 983, 1071, 1070, 1115, 1150, 1395, 1394, 1439, 1474
 984, 1114, 1077, 1248, 1049, 1438, 1401, 1572, 1373
 985, 1033, 1078, 1075, 1040, 1357, 1402, 1399, 1364
 986, 1082, 1041, 1061, 1080, 1406, 1365, 1385, 1404
 987, 1087, 1032, 1041, 1082, 1411, 1356, 1365, 1406
 988, 1092, 1062, 1032, 1087, 1416, 1386, 1356, 1411
 989, 1095, 1057, 1062, 1092, 1419, 1381, 1386, 1416
 990, 1081, 1026, 1051, 1079, 1405, 1350, 1375, 1403
 991, 1088, 1047, 1026, 1081, 1412, 1371, 1350, 1405
 992, 1084, 1059, 1042, 1086, 1408, 1383, 1366, 1410
 993, 1100, 1028, 1046, 1096, 1424, 1352, 1370, 1420
 994, 1099, 1063, 1057, 1095, 1423, 1387, 1381, 1419
 995, 1104, 1054, 1028, 1100, 1428, 1378, 1352, 1424
 996, 1103, 1064, 1063, 1099, 1427, 1388, 1387, 1423
 997, 1132, 1092, 1087, 1128, 1456, 1416, 1411, 1452
 998, 1193, 1203, 1212, 1267, 1517, 1527, 1536, 1591
 999, 1133, 1091, 1088, 1130, 1457, 1415, 1412, 1454
1000, 1141, 1099, 1095, 1137, 1465, 1423, 1419, 1461
1001, 1105, 1030, 1064, 1103, 1429, 1354, 1388, 1427
1002, 1106, 1045, 1054, 1104, 1430, 1369, 1378, 1428
1003, 1224, 1124, 1255, 1120, 1548, 1448, 1579, 1444
1004, 1257, 1121, 1263, 1151, 1581, 1445, 1587, 1475
1005, 1110, 1055, 1045, 1106, 1434, 1379, 1369, 1430
1006, 1109, 1065, 1030, 1105, 1433, 1389, 1354, 1429
1007, 1098, 1043, 1056, 1102, 1422, 1367, 1380, 1426
1008, 1190, 1261, 1195, 1265, 1514, 1585, 1519, 1589
1009, 1133, 1130, 1159, 1269, 1457, 1454, 1483, 1593
1010, 1029, 1107, 1101, 1066, 1353, 1431, 1425, 1390
1011, 1093, 1131, 1127, 1089, 1417, 1455, 1451, 1413
1012, 1044, 1108, 1102, 1056, 1368, 1432, 1426, 1380
1013, 1126, 1086, 1090, 1129, 1450, 1410, 1414, 1453
1014, 1166, 1139, 1135, 1163, 1490, 1463, 1459, 1487
1015, 1136, 1097, 1101, 1140, 1460, 1421, 1425, 1464
1016, 1134, 1098, 1102, 1138, 1458, 1422, 1426, 1462
1017, 1264, 1129, 1090, 1094, 1588, 1453, 1414, 1418
1018, 1107, 1029, 1065, 1109, 1431, 1353, 1389, 1433
1019, 1194, 1202, 1289, 1285, 1518, 1526, 1613, 1609
1020, 1108, 1044, 1055, 1110, 1432, 1368, 1379, 1434
1021, 1156, 1126, 1129, 1264, 1480, 1450, 1453, 1588
1022, 1131, 1093, 1097, 1136, 1455, 1417, 1421, 1460
1023, 1264, 1094, 1098, 1134, 1588, 1418, 1422, 1458
1024, 1215, 1119, 1246, 1253, 1539, 1443, 1570, 1577
1025, 1120, 1077, 1247, 1254, 1444, 1401, 1571, 1578
1026, 1024, 1001, 1048, 1115, 1348, 1325, 1372, 1439
1027, 1212, 1208, 1252, 1198, 1536, 1532, 1576, 1522
1028, 1208, 1116, 1245, 1252, 1532, 1440, 1569, 1576
1029, 1078, 1257, 1117, 1075, 1402, 1581, 1441, 1399
1030, 1250, 1175, 1260, 1189, 1574, 1499, 1584, 1513
1031, 1122, 1080, 1076, 1118, 1446, 1404, 1400, 1442
1032, 1122, 1123, 1082, 1080, 1446, 1447, 1406, 1404
1033, 1112, 1247, 1077, 1114, 1436, 1571, 1401, 1438
1034, 1217, 1120, 1254, 1215, 1541, 1444, 1578, 1539
1035, 1256, 1081, 1079, 1124, 1580, 1405, 1403, 1448
1036, 1137, 1095, 1092, 1132, 1461, 1419, 1416, 1456
1037, 1143, 1103, 1099, 1141, 1467, 1427, 1423, 1465
1038, 1139, 1100, 1096, 1135, 1463, 1424, 1420, 1459
1039, 1125, 1085, 1089, 1127, 1449, 1409, 1413, 1451
1040, 1251, 1083, 1085, 1125, 1575, 1407, 1409, 1449
1041, 1151, 1262, 1117, 1257, 1475, 1586, 1441, 1581
1042, 1124, 1153, 1268, 1256, 1448, 1477, 1592, 1580
1043, 1147, 1105, 1103, 1143, 1471, 1429, 1427, 1467
1044, 1121, 1126, 1156, 1263, 1445, 1450, 1480, 1587
1045, 1159, 1130, 1256, 1268, 1483, 1454, 1580, 1592
1046, 1148, 1106, 1104, 1145, 1472, 1430, 1428, 1469
1047, 1123, 1152, 1155, 1128, 1447, 1476, 1479, 1452
1048, 1168, 1141, 1137, 1162, 1492, 1465, 1461, 1486
1049, 1146, 1109, 1105, 1147, 1470, 1433, 1429, 1471
1050, 1149, 1110, 1106, 1148, 1473, 1434, 1430, 1472
1051, 1173, 1148, 1145, 1169, 1497, 1472, 1469, 1493
1052, 1108, 1144, 1138, 1102, 1432, 1468, 1462, 1426
1053, 1183, 1173, 1169, 1280, 1507, 1497, 1493, 1604
1054, 1107, 1142, 1140, 1101, 1431, 1466, 1464, 1425
1055, 1154, 1127, 1131, 1266, 1478, 1451, 1455, 1590
1056, 1128, 1155, 1158, 1132, 1452, 1479, 1482, 1456
1057, 1281, 1158, 1155, 1177, 1605, 1482, 1479, 1501
1058, 1194, 1157, 1161, 1179, 1518, 1481, 1485, 1503
1059, 1266, 1131, 1136, 1157, 1590, 1455, 1460, 1481
1060, 1109, 1146, 1142, 1107, 1433, 1470, 1466, 1431
1061, 1140, 1161, 1157, 1136, 1464, 1485, 1481, 1460
1062, 1146, 1172, 1165, 1142, 1470, 1496, 1489, 1466
1063, 1110, 1149, 1144, 1108, 1434, 1473, 1468, 1432
1064, 1138, 1164, 1160, 1134, 1462, 1488, 1484, 1458
1065, 1142, 1165, 1161, 1140, 1466, 1489, 1485, 1464
1066, 1162, 1181, 1273, 1168, 1486, 1505, 1597, 1492
1067, 1144, 1167, 1164, 1138, 1468, 1491, 1488, 1462
1068, 1192, 1151, 1263, 1156, 1516, 1475, 1587, 1480
1069, 1162, 1137, 1132, 1158, 1486, 1461, 1456, 1482
1070, 1188, 1191, 1251, 1125, 1512, 1515, 1575, 1449
1071, 1188, 1125, 1127, 1154, 1512, 1449, 1451, 1478
1072, 1171, 1143, 1141, 1168, 1495, 1467, 1465, 1492
1073, 1152, 1213, 1177, 1155, 1476, 1537, 1501, 1479
1074, 1156, 1264, 1134, 1160, 1480, 1588, 1458, 1484
1075, 1210, 1272, 1270, 1271, 1534, 1596, 1594, 1595
1076, 1276, 1180, 1159, 1230, 1600, 1504, 1483, 1554
1077, 1174, 1147, 1143, 1171, 1498, 1471, 1467, 1495
1078, 1230, 1159, 1268, 1153, 1554, 1483, 1592, 1477
1079, 1169, 1145, 1139, 1166, 1493, 1469, 1463, 1490
1080, 1282, 1210, 1200, 1218, 1606, 1534, 1524, 1542
1081, 1242, 1295, 1286, 1237, 1566, 1619, 1610, 1561
1082, 1227, 1275, 1184, 1229, 1551, 1599, 1508, 1553
1083, 1180, 1163, 1269, 1159, 1504, 1487, 1593, 1483
1084, 1170, 1149, 1148, 1173, 1494, 1473, 1472, 1497
1085, 1182, 1178, 1160, 1164, 1506, 1502, 1484, 1488
1086, 1275, 1165, 1172, 1184, 1599, 1489, 1496, 1508
1087, 1165, 1275, 1179, 1161, 1489, 1599, 1503, 1485
1088, 1236, 1273, 1181, 1281, 1560, 1597, 1505, 1605
1089, 1149, 1170, 1167, 1144, 1473, 1494, 1491, 1468
1090, 1167, 1170, 1185, 1279, 1491, 1494, 1509, 1603
1091, 1167, 1279, 1182, 1164, 1491, 1603, 1506, 1488
1092, 1172, 1146, 1147, 1174, 1496, 1470, 1471, 1498
1093, 1222, 1211, 1287, 1220, 1546, 1535, 1611, 1544
1094, 1197, 1199, 1249, 1072, 1521, 1523, 1573, 1396
1095, 1074, 1038, 1175, 1250, 1398, 1362, 1499, 1574
1096, 1213, 1201, 1214, 1231, 1537, 1525, 1538, 1555
1097, 1181, 1162, 1158, 1281, 1505, 1486, 1482, 1605
1098, 1178, 1192, 1156, 1160, 1502, 1516, 1480, 1484
1099, 1194, 1285, 1266, 1157, 1518, 1609, 1590, 1481
1100, 1180, 1277, 1166, 1163, 1504, 1601, 1490, 1487
1101, 1274, 1174, 1171, 1186, 1598, 1498, 1495, 1510
1102, 1291, 1242, 1233, 1293, 1615, 1566, 1557, 1617
1103, 1228, 1182, 1279, 1240, 1552, 1506, 1603, 1564
1104, 1170, 1173, 1183, 1185, 1494, 1497, 1507, 1509
1105, 1174, 1274, 1184, 1172, 1498, 1598, 1508, 1496
1106, 1227, 1294, 1287, 1288, 1551, 1618, 1611, 1612
1107, 1241, 1186, 1273, 1236, 1565, 1510, 1597, 1560
1108, 1260, 1197, 1265, 1195, 1584, 1521, 1589, 1519
1109, 1259, 1205, 1201, 1196, 1583, 1529, 1525, 1520
1110, 1211, 1209, 1289, 1202, 1535, 1533, 1613, 1526
1111, 1151, 1270, 1190, 1262, 1475, 1594, 1514, 1586
1112, 1206, 1272, 1210, 1214, 1530, 1596, 1534, 1538
1113, 1223, 1216, 1209, 1219, 1547, 1540, 1533, 1543
1114, 1278, 1191, 1188, 1154, 1602, 1515, 1512, 1478
1115, 1271, 1270, 1151, 1192, 1595, 1594, 1475, 1516
1116, 1252, 1245, 1071, 1198, 1576, 1569, 1395, 1522
1117, 1267, 1212, 1198, 1207, 1591, 1536, 1522, 1531
1118, 1197, 1258, 1187, 1265, 1521, 1582, 1511, 1589
1119, 1259, 1196, 1122, 1118, 1583, 1520, 1446, 1442
1120, 1213, 1152, 1196, 1201, 1537, 1476, 1520, 1525
1121, 1261, 1189, 1260, 1195, 1585, 1513, 1584, 1519
1122, 1208, 1253, 1246, 1116, 1532, 1577, 1570, 1440
1123, 1253, 1208, 1217, 1215, 1577, 1532, 1541, 1539
1124, 1182, 1200, 1283, 1178, 1506, 1524, 1607, 1502
1125, 1276, 1222, 1220, 1226, 1600, 1546, 1544, 1550
1126, 1288, 1202, 1194, 1179, 1612, 1526, 1518, 1503
1127, 1216, 1223, 1224, 1221, 1540, 1547, 1548, 1545
1128, 1205, 1259, 1189, 1261, 1529, 1583, 1513, 1585
1129, 1200, 1210, 1271, 1283, 1524, 1534, 1595, 1607
1130, 1201, 1205, 1206, 1214, 1525, 1529, 1530, 1538
1131, 1198, 1071, 1150, 1207, 1522, 1395, 1474, 1531
1132, 1120, 1217, 1221, 1224, 1444, 1541, 1545, 1548
1133, 1209, 1216, 1203, 1284, 1533, 1540, 1527, 1608
1134, 1153, 1223, 1219, 1230, 1477, 1547, 1543, 1554
1135, 1236, 1281, 1177, 1225, 1560, 1605, 1501, 1549
1136, 1285, 1289, 1209, 1284, 1609, 1613, 1533, 1608
1137, 1176, 1193, 1267, 1207, 1500, 1517, 1591, 1531
1138, 1225, 1177, 1213, 1231, 1549, 1501, 1537, 1555
1139, 1215, 1254, 1247, 1119, 1539, 1578, 1571, 1443
1140, 1216, 1221, 1212, 1203, 1540, 1545, 1536, 1527
1141, 1221, 1217, 1208, 1212, 1545, 1541, 1532, 1536
1142, 1225, 1218, 1228, 1232, 1549, 1542, 1552, 1556
1143, 1182, 1228, 1218, 1200, 1506, 1552, 1542, 1524
1144, 1276, 1230, 1219, 1222, 1600, 1554, 1543, 1546
1145, 1222, 1219, 1209, 1211, 1546, 1543, 1533, 1535
1146, 1293, 1233, 1226, 1220, 1617, 1557, 1550, 1544
1147, 1229, 1293, 1294, 1227, 1553, 1617, 1618, 1551
1148, 1231, 1214, 1210, 1282, 1555, 1538, 1534, 1606
1149, 1239, 1236, 1225, 1232, 1563, 1560, 1549, 1556
1150, 1280, 1277, 1226, 1237, 1604, 1601, 1550, 1561
1151, 1296, 1295, 1235, 1234, 1620, 1619, 1559, 1558
1152, 1241, 1290, 1229, 1292, 1565, 1614, 1553, 1616
1153, 1237, 1226, 1233, 1242, 1561, 1550, 1557, 1566
1154, 1231, 1282, 1218, 1225, 1555, 1606, 1542, 1549
1155, 1234, 1235, 1239, 1232, 1558, 1559, 1563, 1556
1156, 1295, 1296, 1238, 1286, 1619, 1620, 1562, 1610
1157, 1240, 1234, 1232, 1228, 1564, 1558, 1556, 1552
1158, 1236, 1239, 1290, 1241, 1560, 1563, 1614, 1565
1159, 1239, 1235, 1291, 1290, 1563, 1559, 1615, 1614
1160, 1180, 1276, 1226, 1277, 1504, 1600, 1550, 1601
1161, 1286, 1238, 1185, 1183, 1610, 1562, 1509, 1507
1162, 1240, 1279, 1185, 1238, 1564, 1603, 1509, 1562
1163, 1292, 1274, 1186, 1241, 1616, 1598, 1510, 1565
1164, 1291, 1235, 1295, 1242, 1615, 1559, 1619, 1566
1165,  991,  990, 1244, 1243, 1315, 1314, 1568, 1567
1166, 1119, 1111, 1113, 1246, 1443, 1435, 1437, 1570
1167, 1079, 1051, 1049, 1248, 1403, 1375, 1373, 1572
1168, 1259, 1118, 1250, 1189, 1583, 1442, 1574, 1513
1169, 1193, 1176, 1251, 1191, 1517, 1500, 1575, 1515
1170, 1130, 1088, 1081, 1256, 1454, 1412, 1405, 1580
1171, 1117, 1262, 1187, 1258, 1441, 1586, 1511, 1582
1172, 1197, 1072, 1073, 1258, 1521, 1396, 1397, 1582
1173, 1190, 1265, 1187, 1262, 1514, 1589, 1511, 1586
1174, 1278, 1154, 1266, 1285, 1602, 1478, 1590, 1609
1175, 1163, 1135, 1133, 1269, 1487, 1459, 1457, 1593
1176, 1272, 1206, 1190, 1270, 1596, 1530, 1514, 1594
1177, 1186, 1171, 1168, 1273, 1510, 1495, 1492, 1597
1178, 1229, 1184, 1274, 1292, 1553, 1508, 1598, 1616
1179, 1227, 1288, 1179, 1275, 1551, 1612, 1503, 1599
1180, 1277, 1280, 1169, 1166, 1601, 1604, 1493, 1490
1181, 1285, 1284, 1191, 1278, 1609, 1608, 1515, 1602
1182, 1191, 1284, 1203, 1193, 1515, 1608, 1527, 1517
1183, 1271, 1192, 1178, 1283, 1595, 1516, 1502, 1607
1184, 1286, 1183, 1280, 1237, 1610, 1507, 1604, 1561
1185, 1288, 1287, 1211, 1202, 1612, 1611, 1535, 1526
1186, 1293, 1220, 1287, 1294, 1617, 1544, 1611, 1618
1187, 1293, 1229, 1290, 1291, 1617, 1553, 1614, 1615
1188, 1234, 1240, 1238, 1296, 1558, 1564, 1562, 1620
1189, 1437, 1435, 1297, 1312, 1761, 1759, 1621, 1636
1190, 1349, 1437, 1312, 1328, 1673, 1761, 1636, 1652
1191, 1298, 1297, 1435, 1436, 1622, 1621, 1759, 1760
1192, 1438, 1373, 1329, 1299, 1762, 1697, 1653, 1623
1193, 1440, 1349, 1374, 1569, 1764, 1673, 1698, 1893
1194, 1531, 1474, 1528, 1500, 1855, 1798, 1852, 1824
1195, 1420, 1370, 1376, 1415, 1744, 1694, 1700, 1739
1196, 1378, 1369, 1333, 1303, 1702, 1693, 1657, 1627
1197, 1410, 1366, 1382, 1414, 1734, 1690, 1706, 1738
1198, 1321, 1343, 1354, 1389, 1645, 1667, 1678, 1713
1199, 1417, 1391, 1377, 1421, 1741, 1715, 1701, 1745
1200, 1398, 1574, 1442, 1400, 1722, 1898, 1766, 1724
1201, 1310, 1309, 1384, 1359, 1634, 1633, 1708, 1683
1202, 1358, 1385, 1317, 1339, 1682, 1709, 1641, 1663
1203, 1311, 1310, 1359, 1360, 1635, 1634, 1683, 1684
1204, 1314, 1313, 1361, 1568, 1638, 1637, 1685, 1892
1205, 1523, 1361, 1360, 1573, 1847, 1685, 1684, 1897
1206, 1361, 1523, 1499, 1362, 1685, 1847, 1823, 1686
1207, 1363, 1358, 1339, 1316, 1687, 1682, 1663, 1640
1208, 1340, 1318, 1365, 1356, 1664, 1642, 1689, 1680
1209, 1441, 1582, 1397, 1399, 1765, 1906, 1721, 1723
1210, 1445, 1408, 1410, 1450, 1769, 1732, 1734, 1774
1211, 1380, 1367, 1335, 1305, 1704, 1691, 1659, 1629
1212, 1459, 1420, 1415, 1457, 1783, 1744, 1739, 1781
1213, 1370, 1352, 1332, 1331, 1694, 1676, 1656, 1655
1214, 1372, 1528, 1474, 1439, 1696, 1852, 1798, 1763
1215, 1300, 1329, 1373, 1375, 1624, 1653, 1697, 1699
1216, 1374, 1349, 1328, 1327, 1698, 1673, 1652, 1651
1217, 1375, 1350, 1301, 1300, 1699, 1674, 1625, 1624
1218, 1351, 1393, 1324, 1347, 1675, 1717, 1648, 1671
1219, 1413, 1392, 1391, 1417, 1737, 1716, 1715, 1741
1220, 1334, 1304, 1379, 1368, 1658, 1628, 1703, 1692
1221, 1336, 1335, 1367, 1355, 1660, 1659, 1691, 1679
1222, 1452, 1411, 1406, 1447, 1776, 1735, 1730, 1771
1223, 1308, 1307, 1383, 1357, 1632, 1631, 1707, 1681
1224, 1311, 1360, 1361, 1313, 1635, 1684, 1685, 1637
1225, 1363, 1398, 1400, 1358, 1687, 1722, 1724, 1682
1226, 1386, 1381, 1341, 1319, 1710, 1705, 1665, 1643
1227, 1343, 1320, 1388, 1354, 1667, 1644, 1712, 1678
1228, 1344, 1321, 1389, 1353, 1668, 1645, 1713, 1677
1229, 1390, 1377, 1345, 1322, 1714, 1701, 1669, 1646
1230, 1346, 1345, 1377, 1391, 1670, 1669, 1701, 1715
1231, 1528, 1372, 1393, 1407, 1852, 1696, 1717, 1731
1232, 1393, 1372, 1325, 1324, 1717, 1696, 1649, 1648
1233, 1394, 1374, 1327, 1326, 1718, 1698, 1651, 1650
1234, 1350, 1371, 1330, 1301, 1674, 1695, 1654, 1625
1235, 1331, 1302, 1376, 1370, 1655, 1626, 1700, 1694
1236, 1347, 1323, 1392, 1351, 1671, 1647, 1716, 1675
1237, 1407, 1393, 1351, 1409, 1731, 1717, 1675, 1733
1238, 1352, 1378, 1303, 1332, 1676, 1702, 1627, 1656
1239, 1353, 1390, 1322, 1344, 1677, 1714, 1646, 1668
1240, 1307, 1337, 1366, 1383, 1631, 1661, 1690, 1707
1241, 1342, 1341, 1381, 1387, 1666, 1665, 1705, 1711
1242, 1355, 1382, 1306, 1336, 1679, 1706, 1630, 1660
1243, 1356, 1386, 1319, 1340, 1680, 1710, 1643, 1664
1244, 1357, 1364, 1338, 1308, 1681, 1688, 1662, 1632
1245, 1398, 1363, 1567, 1362, 1722, 1687, 1891, 1686
1246, 1364, 1399, 1397, 1384, 1688, 1723, 1721, 1708
1247, 1384, 1397, 1396, 1359, 1708, 1721, 1720, 1683
1248, 1361, 1362, 1567, 1568, 1685, 1686, 1891, 1892
1249, 1521, 1584, 1499, 1523, 1845, 1908, 1823, 1847
1250, 1567, 1363, 1316, 1315, 1891, 1687, 1640, 1639
1251, 1309, 1338, 1364, 1384, 1633, 1662, 1688, 1708
1252, 1385, 1365, 1318, 1317, 1709, 1689, 1642, 1641
1253, 1358, 1400, 1404, 1385, 1682, 1724, 1728, 1709
1254, 1402, 1357, 1383, 1408, 1726, 1681, 1707, 1732
1255, 1382, 1366, 1337, 1306, 1706, 1690, 1661, 1630
1256, 1418, 1355, 1367, 1422, 1742, 1679, 1691, 1746
1257, 1305, 1334, 1368, 1380, 1629, 1658, 1692, 1704
1258, 1547, 1477, 1448, 1548, 1871, 1801, 1772, 1872
1259, 1304, 1333, 1369, 1379, 1628, 1657, 1693, 1703
1260, 1444, 1579, 1572, 1401, 1768, 1903, 1896, 1725
1261, 1302, 1330, 1371, 1376, 1626, 1654, 1695, 1700
1262, 1326, 1348, 1439, 1394, 1650, 1672, 1763, 1718
1263, 1569, 1374, 1394, 1395, 1893, 1698, 1718, 1719
1264, 1435, 1443, 1571, 1436, 1759, 1767, 1895, 1760
1265, 1299, 1298, 1436, 1438, 1623, 1622, 1760, 1762
1266, 1349, 1440, 1570, 1437, 1673, 1764, 1894, 1761
1267, 1415, 1376, 1371, 1412, 1739, 1700, 1695, 1736
1268, 1448, 1403, 1572, 1579, 1772, 1727, 1896, 1903
1269, 1409, 1351, 1392, 1413, 1733, 1675, 1716, 1737
1270, 1469, 1428, 1424, 1463, 1793, 1752, 1748, 1787
1271, 1414, 1382, 1355, 1418, 1738, 1706, 1679, 1742
1272, 1581, 1402, 1408, 1445, 1905, 1726, 1732, 1769
1273, 1585, 1514, 1530, 1529, 1909, 1838, 1854, 1853
1274, 1396, 1573, 1360, 1359, 1720, 1897, 1684, 1683
1275, 1320, 1342, 1387, 1388, 1644, 1666, 1711, 1712
1276, 1476, 1447, 1446, 1520, 1800, 1771, 1770, 1844
1277, 1421, 1377, 1390, 1425, 1745, 1701, 1714, 1749
1278, 1323, 1346, 1391, 1392, 1647, 1670, 1715, 1716
1279, 1407, 1575, 1500, 1528, 1731, 1899, 1824, 1852
1280, 1395, 1394, 1439, 1474, 1719, 1718, 1763, 1798
1281, 1438, 1401, 1572, 1373, 1762, 1725, 1896, 1697
1282, 1357, 1402, 1399, 1364, 1681, 1726, 1723, 1688
1283, 1406, 1365, 1385, 1404, 1730, 1689, 1709, 1728
1284, 1411, 1356, 1365, 1406, 1735, 1680, 1689, 1730
1285, 1416, 1386, 1356, 1411, 1740, 1710, 1680, 1735
1286, 1419, 1381, 1386, 1416, 1743, 1705, 1710, 1740
1287, 1405, 1350, 1375, 1403, 1729, 1674, 1699, 1727
1288, 1412, 1371, 1350, 1405, 1736, 1695, 1674, 1729
1289, 1408, 1383, 1366, 1410, 1732, 1707, 1690, 1734
1290, 1424, 1352, 1370, 1420, 1748, 1676, 1694, 1744
1291, 1423, 1387, 1381, 1419, 1747, 1711, 1705, 1743
1292, 1428, 1378, 1352, 1424, 1752, 1702, 1676, 1748
1293, 1427, 1388, 1387, 1423, 1751, 1712, 1711, 1747
1294, 1456, 1416, 1411, 1452, 1780, 1740, 1735, 1776
1295, 1517, 1527, 1536, 1591, 1841, 1851, 1860, 1915
1296, 1457, 1415, 1412, 1454, 1781, 1739, 1736, 1778
1297, 1465, 1423, 1419, 1461, 1789, 1747, 1743, 1785
1298, 1429, 1354, 1388, 1427, 1753, 1678, 1712, 1751
1299, 1430, 1369, 1378, 1428, 1754, 1693, 1702, 1752
1300, 1548, 1448, 1579, 1444, 1872, 1772, 1903, 1768
1301, 1581, 1445, 1587, 1475, 1905, 1769, 1911, 1799
1302, 1434, 1379, 1369, 1430, 1758, 1703, 1693, 1754
1303, 1433, 1389, 1354, 1429, 1757, 1713, 1678, 1753
1304, 1422, 1367, 1380, 1426, 1746, 1691, 1704, 1750
1305, 1514, 1585, 1519, 1589, 1838, 1909, 1843, 1913
1306, 1457, 1454, 1483, 1593, 1781, 1778, 1807, 1917
1307, 1353, 1431, 1425, 1390, 1677, 1755, 1749, 1714
1308, 1417, 1455, 1451, 1413, 1741, 1779, 1775, 1737
1309, 1368, 1432, 1426, 1380, 1692, 1756, 1750, 1704
1310, 1450, 1410, 1414, 1453, 1774, 1734, 1738, 1777
1311, 1490, 1463, 1459, 1487, 1814, 1787, 1783, 1811
1312, 1460, 1421, 1425, 1464, 1784, 1745, 1749, 1788
1313, 1458, 1422, 1426, 1462, 1782, 1746, 1750, 1786
1314, 1588, 1453, 1414, 1418, 1912, 1777, 1738, 1742
1315, 1431, 1353, 1389, 1433, 1755, 1677, 1713, 1757
1316, 1518, 1526, 1613, 1609, 1842, 1850, 1937, 1933
1317, 1432, 1368, 1379, 1434, 1756, 1692, 1703, 1758
1318, 1480, 1450, 1453, 1588, 1804, 1774, 1777, 1912
1319, 1455, 1417, 1421, 1460, 1779, 1741, 1745, 1784
1320, 1588, 1418, 1422, 1458, 1912, 1742, 1746, 1782
1321, 1539, 1443, 1570, 1577, 1863, 1767, 1894, 1901
1322, 1444, 1401, 1571, 1578, 1768, 1725, 1895, 1902
1323, 1348, 1325, 1372, 1439, 1672, 1649, 1696, 1763
1324, 1536, 1532, 1576, 1522, 1860, 1856, 1900, 1846
1325, 1532, 1440, 1569, 1576, 1856, 1764, 1893, 1900
1326, 1402, 1581, 1441, 1399, 1726, 1905, 1765, 1723
1327, 1574, 1499, 1584, 1513, 1898, 1823, 1908, 1837
1328, 1446, 1404, 1400, 1442, 1770, 1728, 1724, 1766
1329, 1446, 1447, 1406, 1404, 1770, 1771, 1730, 1728
1330, 1436, 1571, 1401, 1438, 1760, 1895, 1725, 1762
1331, 1541, 1444, 1578, 1539, 1865, 1768, 1902, 1863
1332, 1580, 1405, 1403, 1448, 1904, 1729, 1727, 1772
1333, 1461, 1419, 1416, 1456, 1785, 1743, 1740, 1780
1334, 1467, 1427, 1423, 1465, 1791, 1751, 1747, 1789
1335, 1463, 1424, 1420, 1459, 1787, 1748, 1744, 1783
1336, 1449, 1409, 1413, 1451, 1773, 1733, 1737, 1775
1337, 1575, 1407, 1409, 1449, 1899, 1731, 1733, 1773
1338, 1475, 1586, 1441, 1581, 1799, 1910, 1765, 1905
1339, 1448, 1477, 1592, 1580, 1772, 1801, 1916, 1904
1340, 1471, 1429, 1427, 1467, 1795, 1753, 1751, 1791
1341, 1445, 1450, 1480, 1587, 1769, 1774, 1804, 1911
1342, 1483, 1454, 1580, 1592, 1807, 1778, 1904, 1916
1343, 1472, 1430, 1428, 1469, 1796, 1754, 1752, 1793
1344, 1447, 1476, 1479, 1452, 1771, 1800, 1803, 1776
1345, 1492, 1465, 1461, 1486, 1816, 1789, 1785, 1810
1346, 1470, 1433, 1429, 1471, 1794, 1757, 1753, 1795
1347, 1473, 1434, 1430, 1472, 1797, 1758, 1754, 1796
1348, 1497, 1472, 1469, 1493, 1821, 1796, 1793, 1817
1349, 1432, 1468, 1462, 1426, 1756, 1792, 1786, 1750
1350, 1507, 1497, 1493, 1604, 1831, 1821, 1817, 1928
1351, 1431, 1466, 1464, 1425, 1755, 1790, 1788, 1749
1352, 1478, 1451, 1455, 1590, 1802, 1775, 1779, 1914
1353, 1452, 1479, 1482, 1456, 1776, 1803, 1806, 1780
1354, 1605, 1482, 1479, 1501, 1929, 1806, 1803, 1825
1355, 1518, 1481, 1485, 1503, 1842, 1805, 1809, 1827
1356, 1590, 1455, 1460, 1481, 1914, 1779, 1784, 1805
1357, 1433, 1470, 1466, 1431, 1757, 1794, 1790, 1755
1358, 1464, 1485, 1481, 1460, 1788, 1809, 1805, 1784
1359, 1470, 1496, 1489, 1466, 1794, 1820, 1813, 1790
1360, 1434, 1473, 1468, 1432, 1758, 1797, 1792, 1756
1361, 1462, 1488, 1484, 1458, 1786, 1812, 1808, 1782
1362, 1466, 1489, 1485, 1464, 1790, 1813, 1809, 1788
1363, 1486, 1505, 1597, 1492, 1810, 1829, 1921, 1816
1364, 1468, 1491, 1488, 1462, 1792, 1815, 1812, 1786
1365, 1516, 1475, 1587, 1480, 1840, 1799, 1911, 1804
1366, 1486, 1461, 1456, 1482, 1810, 1785, 1780, 1806
1367, 1512, 1515, 1575, 1449, 1836, 1839, 1899, 1773
1368, 1512, 1449, 1451, 1478, 1836, 1773, 1775, 1802
1369, 1495, 1467, 1465, 1492, 1819, 1791, 1789, 1816
1370, 1476, 1537, 1501, 1479, 1800, 1861, 1825, 1803
1371, 1480, 1588, 1458, 1484, 1804, 1912, 1782, 1808
1372, 1534, 1596, 1594, 1595, 1858, 1920, 1918, 1919
1373, 1600, 1504, 1483, 1554, 1924, 1828, 1807, 1878
1374, 1498, 1471, 1467, 1495, 1822, 1795, 1791, 1819
1375, 1554, 1483, 1592, 1477, 1878, 1807, 1916, 1801
1376, 1493, 1469, 1463, 1490, 1817, 1793, 1787, 1814
1377, 1606, 1534, 1524, 1542, 1930, 1858, 1848, 1866
1378, 1566, 1619, 1610, 1561, 1890, 1943, 1934, 1885
1379, 1551, 1599, 1508, 1553, 1875, 1923, 1832, 1877
1380, 1504, 1487, 1593, 1483, 1828, 1811, 1917, 1807
1381, 1494, 1473, 1472, 1497, 1818, 1797, 1796, 1821
1382, 1506, 1502, 1484, 1488, 1830, 1826, 1808, 1812
1383, 1599, 1489, 1496, 1508, 1923, 1813, 1820, 1832
1384, 1489, 1599, 1503, 1485, 1813, 1923, 1827, 1809
1385, 1560, 1597, 1505, 1605, 1884, 1921, 1829, 1929
1386, 1473, 1494, 1491, 1468, 1797, 1818, 1815, 1792
1387, 1491, 1494, 1509, 1603, 1815, 1818, 1833, 1927
1388, 1491, 1603, 1506, 1488, 1815, 1927, 1830, 1812
1389, 1496, 1470, 1471, 1498, 1820, 1794, 1795, 1822
1390, 1546, 1535, 1611, 1544, 1870, 1859, 1935, 1868
1391, 1521, 1523, 1573, 1396, 1845, 1847, 1897, 1720
1392, 1398, 1362, 1499, 1574, 1722, 1686, 1823, 1898
1393, 1537, 1525, 1538, 1555, 1861, 1849, 1862, 1879
1394, 1505, 1486, 1482, 1605, 1829, 1810, 1806, 1929
1395, 1502, 1516, 1480, 1484, 1826, 1840, 1804, 1808
1396, 1518, 1609, 1590, 1481, 1842, 1933, 1914, 1805
1397, 1504, 1601, 1490, 1487, 1828, 1925, 1814, 1811
1398, 1598, 1498, 1495, 1510, 1922, 1822, 1819, 1834
1399, 1615, 1566, 1557, 1617, 1939, 1890, 1881, 1941
1400, 1552, 1506, 1603, 1564, 1876, 1830, 1927, 1888
1401, 1494, 1497, 1507, 1509, 1818, 1821, 1831, 1833
1402, 1498, 1598, 1508, 1496, 1822, 1922, 1832, 1820
1403, 1551, 1618, 1611, 1612, 1875, 1942, 1935, 1936
1404, 1565, 1510, 1597, 1560, 1889, 1834, 1921, 1884
1405, 1584, 1521, 1589, 1519, 1908, 1845, 1913, 1843
1406, 1583, 1529, 1525, 1520, 1907, 1853, 1849, 1844
1407, 1535, 1533, 1613, 1526, 1859, 1857, 1937, 1850
1408, 1475, 1594, 1514, 1586, 1799, 1918, 1838, 1910
1409, 1530, 1596, 1534, 1538, 1854, 1920, 1858, 1862
1410, 1547, 1540, 1533, 1543, 1871, 1864, 1857, 1867
1411, 1602, 1515, 1512, 1478, 1926, 1839, 1836, 1802
1412, 1595, 1594, 1475, 1516, 1919, 1918, 1799, 1840
1413, 1576, 1569, 1395, 1522, 1900, 1893, 1719, 1846
1414, 1591, 1536, 1522, 1531, 1915, 1860, 1846, 1855
1415, 1521, 1582, 1511, 1589, 1845, 1906, 1835, 1913
1416, 1583, 1520, 1446, 1442, 1907, 1844, 1770, 1766
1417, 1537, 1476, 1520, 1525, 1861, 1800, 1844, 1849
1418, 1585, 1513, 1584, 1519, 1909, 1837, 1908, 1843
1419, 1532, 1577, 1570, 1440, 1856, 1901, 1894, 1764
1420, 1577, 1532, 1541, 1539, 1901, 1856, 1865, 1863
1421, 1506, 1524, 1607, 1502, 1830, 1848, 1931, 1826
1422, 1600, 1546, 1544, 1550, 1924, 1870, 1868, 1874
1423, 1612, 1526, 1518, 1503, 1936, 1850, 1842, 1827
1424, 1540, 1547, 1548, 1545, 1864, 1871, 1872, 1869
1425, 1529, 1583, 1513, 1585, 1853, 1907, 1837, 1909
1426, 1524, 1534, 1595, 1607, 1848, 1858, 1919, 1931
1427, 1525, 1529, 1530, 1538, 1849, 1853, 1854, 1862
1428, 1522, 1395, 1474, 1531, 1846, 1719, 1798, 1855
1429, 1444, 1541, 1545, 1548, 1768, 1865, 1869, 1872
1430, 1533, 1540, 1527, 1608, 1857, 1864, 1851, 1932
1431, 1477, 1547, 1543, 1554, 1801, 1871, 1867, 1878
1432, 1560, 1605, 1501, 1549, 1884, 1929, 1825, 1873
1433, 1609, 1613, 1533, 1608, 1933, 1937, 1857, 1932
1434, 1500, 1517, 1591, 1531, 1824, 1841, 1915, 1855
1435, 1549, 1501, 1537, 1555, 1873, 1825, 1861, 1879
1436, 1539, 1578, 1571, 1443, 1863, 1902, 1895, 1767
1437, 1540, 1545, 1536, 1527, 1864, 1869, 1860, 1851
1438, 1545, 1541, 1532, 1536, 1869, 1865, 1856, 1860
1439, 1549, 1542, 1552, 1556, 1873, 1866, 1876, 1880
1440, 1506, 1552, 1542, 1524, 1830, 1876, 1866, 1848
1441, 1600, 1554, 1543, 1546, 1924, 1878, 1867, 1870
1442, 1546, 1543, 1533, 1535, 1870, 1867, 1857, 1859
1443, 1617, 1557, 1550, 1544, 1941, 1881, 1874, 1868
1444, 1553, 1617, 1618, 1551, 1877, 1941, 1942, 1875
1445, 1555, 1538, 1534, 1606, 1879, 1862, 1858, 1930
1446, 1563, 1560, 1549, 1556, 1887, 1884, 1873, 1880
1447, 1604, 1601, 1550, 1561, 1928, 1925, 1874, 1885
1448, 1620, 1619, 1559, 1558, 1944, 1943, 1883, 1882
1449, 1565, 1614, 1553, 1616, 1889, 1938, 1877, 1940
1450, 1561, 1550, 1557, 1566, 1885, 1874, 1881, 1890
1451, 1555, 1606, 1542, 1549, 1879, 1930, 1866, 1873
1452, 1558, 1559, 1563, 1556, 1882, 1883, 1887, 1880
1453, 1619, 1620, 1562, 1610, 1943, 1944, 1886, 1934
1454, 1564, 1558, 1556, 1552, 1888, 1882, 1880, 1876
1455, 1560, 1563, 1614, 1565, 1884, 1887, 1938, 1889
1456, 1563, 1559, 1615, 1614, 1887, 1883, 1939, 1938
1457, 1504, 1600, 1550, 1601, 1828, 1924, 1874, 1925
1458, 1610, 1562, 1509, 1507, 1934, 1886, 1833, 1831
1459, 1564, 1603, 1509, 1562, 1888, 1927, 1833, 1886
1460, 1616, 1598, 1510, 1565, 1940, 1922, 1834, 1889
1461, 1615, 1559, 1619, 1566, 1939, 1883, 1943, 1890
1462, 1315, 1314, 1568, 1567, 1639, 1638, 1892, 1891
1463, 1443, 1435, 1437, 1570, 1767, 1759, 1761, 1894
1464, 1403, 1375, 1373, 1572, 1727, 1699, 1697, 1896
1465, 1583, 1442, 1574, 1513, 1907, 1766, 1898, 1837
1466, 1517, 1500, 1575, 1515, 1841, 1824, 1899, 1839
1467, 1454, 1412, 1405, 1580, 1778, 1736, 1729, 1904
1468, 1441, 1586, 1511, 1582, 1765, 1910, 1835, 1906
1469, 1521, 1396, 1397, 1582, 1845, 1720, 1721, 1906
1470, 1514, 1589, 1511, 1586, 1838, 1913, 1835, 1910
1471, 1602, 1478, 1590, 1609, 1926, 1802, 1914, 1933
1472, 1487, 1459, 1457, 1593, 1811, 1783, 1781, 1917
1473, 1596, 1530, 1514, 1594, 1920, 1854, 1838, 1918
1474, 1510, 1495, 1492, 1597, 1834, 1819, 1816, 1921
1475, 1553, 1508, 1598, 1616, 1877, 1832, 1922, 1940
1476, 1551, 1612, 1503, 1599, 1875, 1936, 1827, 1923
1477, 1601, 1604, 1493, 1490, 1925, 1928, 1817, 1814
1478, 1609, 1608, 1515, 1602, 1933, 1932, 1839, 1926
1479, 1515, 1608, 1527, 1517, 1839, 1932, 1851, 1841
1480, 1595, 1516, 1502, 1607, 1919, 1840, 1826, 1931
1481, 1610, 1507, 1604, 1561, 1934, 1831, 1928, 1885
1482, 1612, 1611, 1535, 1526, 1936, 1935, 1859, 1850
1483, 1617, 1544, 1611, 1618, 1941, 1868, 1935, 1942
1484, 1617, 1553, 1614, 1615, 1941, 1877, 1938, 1939
1485, 1558, 1564, 1562, 1620, 1882, 1888, 1886, 1944
1486, 1761, 1759, 1621, 1636, 2085, 2083, 1945, 1960
1487, 1673, 1761, 1636, 1652, 1997, 2085, 1960, 1976
1488, 1622, 1621, 1759, 1760, 1946, 1945, 2083, 2084
1489, 1762, 1697, 1653, 1623, 2086, 2021, 1977, 1947
1490, 1764, 1673, 1698, 1893, 2088, 1997, 2022, 2217
1491, 1855, 1798, 1852, 1824, 2179, 2122, 2176, 2148
1492, 1744, 1694, 1700, 1739, 2068, 2018, 2024, 2063
1493, 1702, 1693, 1657, 1627, 2026, 2017, 1981, 1951
1494, 1734, 1690, 1706, 1738, 2058, 2014, 2030, 2062
1495, 1645, 1667, 1678, 1713, 1969, 1991, 2002, 2037
1496, 1741, 1715, 1701, 1745, 2065, 2039, 2025, 2069
1497, 1722, 1898, 1766, 1724, 2046, 2222, 2090, 2048
1498, 1634, 1633, 1708, 1683, 1958, 1957, 2032, 2007
1499, 1682, 1709, 1641, 1663, 2006, 2033, 1965, 1987
1500, 1635, 1634, 1683, 1684, 1959, 1958, 2007, 2008
1501, 1638, 1637, 1685, 1892, 1962, 1961, 2009, 2216
1502, 1847, 1685, 1684, 1897, 2171, 2009, 2008, 2221
1503, 1685, 1847, 1823, 1686, 2009, 2171, 2147, 2010
1504, 1687, 1682, 1663, 1640, 2011, 2006, 1987, 1964
1505, 1664, 1642, 1689, 1680, 1988, 1966, 2013, 2004
1506, 1765, 1906, 1721, 1723, 2089, 2230, 2045, 2047
1507, 1769, 1732, 1734, 1774, 2093, 2056, 2058, 2098
1508, 1704, 1691, 1659, 1629, 2028, 2015, 1983, 1953
1509, 1783, 1744, 1739, 1781, 2107, 2068, 2063, 2105
1510, 1694, 1676, 1656, 1655, 2018, 2000, 1980, 1979
1511, 1696, 1852, 1798, 1763, 2020, 2176, 2122, 2087
1512, 1624, 1653, 1697, 1699, 1948, 1977, 2021, 2023
1513, 1698, 1673, 1652, 1651, 2022, 1997, 1976, 1975
1514, 1699, 1674, 1625, 1624, 2023, 1998, 1949, 1948
1515, 1675, 1717, 1648, 1671, 1999, 2041, 1972, 1995
1516, 1737, 1716, 1715, 1741, 2061, 2040, 2039, 2065
1517, 1658, 1628, 1703, 1692, 1982, 1952, 2027, 2016
1518, 1660, 1659, 1691, 1679, 1984, 1983, 2015, 2003
1519, 1776, 1735, 1730, 1771, 2100, 2059, 2054, 2095
1520, 1632, 1631, 1707, 1681, 1956, 1955, 2031, 2005
1521, 1635, 1684, 1685, 1637, 1959, 2008, 2009, 1961
1522, 1687, 1722, 1724, 1682, 2011, 2046, 2048, 2006
1523, 1710, 1705, 1665, 1643, 2034, 2029, 1989, 1967
1524, 1667, 1644, 1712, 1678, 1991, 1968, 2036, 2002
1525, 1668, 1645, 1713, 1677, 1992, 1969, 2037, 2001
1526, 1714, 1701, 1669, 1646, 2038, 2025, 1993, 1970
1527, 1670, 1669, 1701, 1715, 1994, 1993, 2025, 2039
1528, 1852, 1696, 1717, 1731, 2176, 2020, 2041, 2055
1529, 1717, 1696, 1649, 1648, 2041, 2020, 1973, 1972
1530, 1718, 1698, 1651, 1650, 2042, 2022, 1975, 1974
1531, 1674, 1695, 1654, 1625, 1998, 2019, 1978, 1949
1532, 1655, 1626, 1700, 1694, 1979, 1950, 2024, 2018
1533, 1671, 1647, 1716, 1675, 1995, 1971, 2040, 1999
1534, 1731, 1717, 1675, 1733, 2055, 2041, 1999, 2057
1535, 1676, 1702, 1627, 1656, 2000, 2026, 1951, 1980
1536, 1677, 1714, 1646, 1668, 2001, 2038, 1970, 1992
1537, 1631, 1661, 1690, 1707, 1955, 1985, 2014, 2031
1538, 1666, 1665, 1705, 1711, 1990, 1989, 2029, 2035
1539, 1679, 1706, 1630, 1660, 2003, 2030, 1954, 1984
1540, 1680, 1710, 1643, 1664, 2004, 2034, 1967, 1988
1541, 1681, 1688, 1662, 1632, 2005, 2012, 1986, 1956
1542, 1722, 1687, 1891, 1686, 2046, 2011, 2215, 2010
1543, 1688, 1723, 1721, 1708, 2012, 2047, 2045, 2032
1544, 1708, 1721, 1720, 1683, 2032, 2045, 2044, 2007
1545, 1685, 1686, 1891, 1892, 2009, 2010, 2215, 2216
1546, 1845, 1908, 1823, 1847, 2169, 2232, 2147, 2171
1547, 1891, 1687, 1640, 1639, 2215, 2011, 1964, 1963
1548, 1633, 1662, 1688, 1708, 1957, 1986, 2012, 2032
1549, 1709, 1689, 1642, 1641, 2033, 2013, 1966, 1965
1550, 1682, 1724, 1728, 1709, 2006, 2048, 2052, 2033
1551, 1726, 1681, 1707, 1732, 2050, 2005, 2031, 2056
1552, 1706, 1690, 1661, 1630, 2030, 2014, 1985, 1954
1553, 1742, 1679, 1691, 1746, 2066, 2003, 2015, 2070
1554, 1629, 1658, 1692, 1704, 1953, 1982, 2016, 2028
1555, 1871, 1801, 1772, 1872, 2195, 2125, 2096, 2196
1556, 1628, 1657, 1693, 1703, 1952, 1981, 2017, 2027
1557, 1768, 1903, 1896, 1725, 2092, 2227, 2220, 2049
1558, 1626, 1654, 1695, 1700, 1950, 1978, 2019, 2024
1559, 1650, 1672, 1763, 1718, 1974, 1996, 2087, 2042
1560, 1893, 1698, 1718, 1719, 2217, 2022, 2042, 2043
1561, 1759, 1767, 1895, 1760, 2083, 2091, 2219, 2084
1562, 1623, 1622, 1760, 1762, 1947, 1946, 2084, 2086
1563, 1673, 1764, 1894, 1761, 1997, 2088, 2218, 2085
1564, 1739, 1700, 1695, 1736, 2063, 2024, 2019, 2060
1565, 1772, 1727, 1896, 1903, 2096, 2051, 2220, 2227
1566, 1733, 1675, 1716, 1737, 2057, 1999, 2040, 2061
1567, 1793, 1752, 1748, 1787, 2117, 2076, 2072, 2111
1568, 1738, 1706, 1679, 1742, 2062, 2030, 2003, 2066
1569, 1905, 1726, 1732, 1769, 2229, 2050, 2056, 2093
1570, 1909, 1838, 1854, 1853, 2233, 2162, 2178, 2177
1571, 1720, 1897, 1684, 1683, 2044, 2221, 2008, 2007
1572, 1644, 1666, 1711, 1712, 1968, 1990, 2035, 2036
1573, 1800, 1771, 1770, 1844, 2124, 2095, 2094, 2168
1574, 1745, 1701, 1714, 1749, 2069, 2025, 2038, 2073
1575, 1647, 1670, 1715, 1716, 1971, 1994, 2039, 2040
1576, 1731, 1899, 1824, 1852, 2055, 2223, 2148, 2176
1577, 1719, 1718, 1763, 1798, 2043, 2042, 2087, 2122
1578, 1762, 1725, 1896, 1697, 2086, 2049, 2220, 2021
1579, 1681, 1726, 1723, 1688, 2005, 2050, 2047, 2012
1580, 1730, 1689, 1709, 1728, 2054, 2013, 2033, 2052
1581, 1735, 1680, 1689, 1730, 2059, 2004, 2013, 2054
1582, 1740, 1710, 1680, 1735, 2064, 2034, 2004, 2059
1583, 1743, 1705, 1710, 1740, 2067, 2029, 2034, 2064
1584, 1729, 1674, 1699, 1727, 2053, 1998, 2023, 2051
1585, 1736, 1695, 1674, 1729, 2060, 2019, 1998, 2053
1586, 1732, 1707, 1690, 1734, 2056, 2031, 2014, 2058
1587, 1748, 1676, 1694, 1744, 2072, 2000, 2018, 2068
1588, 1747, 1711, 1705, 1743, 2071, 2035, 2029, 2067
1589, 1752, 1702, 1676, 1748, 2076, 2026, 2000, 2072
1590, 1751, 1712, 1711, 1747, 2075, 2036, 2035, 2071
1591, 1780, 1740, 1735, 1776, 2104, 2064, 2059, 2100
1592, 1841, 1851, 1860, 1915, 2165, 2175, 2184, 2239
1593, 1781, 1739, 1736, 1778, 2105, 2063, 2060, 2102
1594, 1789, 1747, 1743, 1785, 2113, 2071, 2067, 2109
1595, 1753, 1678, 1712, 1751, 2077, 2002, 2036, 2075
1596, 1754, 1693, 1702, 1752, 2078, 2017, 2026, 2076
1597, 1872, 1772, 1903, 1768, 2196, 2096, 2227, 2092
1598, 1905, 1769, 1911, 1799, 2229, 2093, 2235, 2123
1599, 1758, 1703, 1693, 1754, 2082, 2027, 2017, 2078
1600, 1757, 1713, 1678, 1753, 2081, 2037, 2002, 2077
1601, 1746, 1691, 1704, 1750, 2070, 2015, 2028, 2074
1602, 1838, 1909, 1843, 1913, 2162, 2233, 2167, 2237
1603, 1781, 1778, 1807, 1917, 2105, 2102, 2131, 2241
1604, 1677, 1755, 1749, 1714, 2001, 2079, 2073, 2038
1605, 1741, 1779, 1775, 1737, 2065, 2103, 2099, 2061
1606, 1692, 1756, 1750, 1704, 2016, 2080, 2074, 2028
1607, 1774, 1734, 1738, 1777, 2098, 2058, 2062, 2101
1608, 1814, 1787, 1783, 1811, 2138, 2111, 2107, 2135
1609, 1784, 1745, 1749, 1788, 2108, 2069, 2073, 2112
1610, 1782, 1746, 1750, 1786, 2106, 2070, 2074, 2110
1611, 1912, 1777, 1738, 1742, 2236, 2101, 2062, 2066
1612, 1755, 1677, 1713, 1757, 2079, 2001, 2037, 2081
1613, 1842, 1850, 1937, 1933, 2166, 2174, 2261, 2257
1614, 1756, 1692, 1703, 1758, 2080, 2016, 2027, 2082
1615, 1804, 1774, 1777, 1912, 2128, 2098, 2101, 2236
1616, 1779, 1741, 1745, 1784, 2103, 2065, 2069, 2108
1617, 1912, 1742, 1746, 1782, 2236, 2066, 2070, 2106
1618, 1863, 1767, 1894, 1901, 2187, 2091, 2218, 2225
1619, 1768, 1725, 1895, 1902, 2092, 2049, 2219, 2226
1620, 1672, 1649, 1696, 1763, 1996, 1973, 2020, 2087
1621, 1860, 1856, 1900, 1846, 2184, 2180, 2224, 2170
1622, 1856, 1764, 1893, 1900, 2180, 2088, 2217, 2224
1623, 1726, 1905, 1765, 1723, 2050, 2229, 2089, 2047
1624, 1898, 1823, 1908, 1837, 2222, 2147, 2232, 2161
1625, 1770, 1728, 1724, 1766, 2094, 2052, 2048, 2090
1626, 1770, 1771, 1730, 1728, 2094, 2095, 2054, 2052
1627, 1760, 1895, 1725, 1762, 2084, 2219, 2049, 2086
1628, 1865, 1768, 1902, 1863, 2189, 2092, 2226, 2187
1629, 1904, 1729, 1727, 1772, 2228, 2053, 2051, 2096
1630, 1785, 1743, 1740, 1780, 2109, 2067, 2064, 2104
1631, 1791, 1751, 1747, 1789, 2115, 2075, 2071, 2113
1632, 1787, 1748, 1744, 1783, 2111, 2072, 2068, 2107
1633, 1773, 1733, 1737, 1775, 2097, 2057, 2061, 2099
1634, 1899, 1731, 1733, 1773, 2223, 2055, 2057, 2097
1635, 1799, 1910, 1765, 1905, 2123, 2234, 2089, 2229
1636, 1772, 1801, 1916, 1904, 2096, 2125, 2240, 2228
1637, 1795, 1753, 1751, 1791, 2119, 2077, 2075, 2115
1638, 1769, 1774, 1804, 1911, 2093, 2098, 2128, 2235
1639, 1807, 1778, 1904, 1916, 2131, 2102, 2228, 2240
1640, 1796, 1754, 1752, 1793, 2120, 2078, 2076, 2117
1641, 1771, 1800, 1803, 1776, 2095, 2124, 2127, 2100
1642, 1816, 1789, 1785, 1810, 2140, 2113, 2109, 2134
1643, 1794, 1757, 1753, 1795, 2118, 2081, 2077, 2119
1644, 1797, 1758, 1754, 1796, 2121, 2082, 2078, 2120
1645, 1821, 1796, 1793, 1817, 2145, 2120, 2117, 2141
1646, 1756, 1792, 1786, 1750, 2080, 2116, 2110, 2074
1647, 1831, 1821, 1817, 1928, 2155, 2145, 2141, 2252
1648, 1755, 1790, 1788, 1749, 2079, 2114, 2112, 2073
1649, 1802, 1775, 1779, 1914, 2126, 2099, 2103, 2238
1650, 1776, 1803, 1806, 1780, 2100, 2127, 2130, 2104
1651, 1929, 1806, 1803, 1825, 2253, 2130, 2127, 2149
1652, 1842, 1805, 1809, 1827, 2166, 2129, 2133, 2151
1653, 1914, 1779, 1784, 1805, 2238, 2103, 2108, 2129
1654, 1757, 1794, 1790, 1755, 2081, 2118, 2114, 2079
1655, 1788, 1809, 1805, 1784, 2112, 2133, 2129, 2108
1656, 1794, 1820, 1813, 1790, 2118, 2144, 2137, 2114
1657, 1758, 1797, 1792, 1756, 2082, 2121, 2116, 2080
1658, 1786, 1812, 1808, 1782, 2110, 2136, 2132, 2106
1659, 1790, 1813, 1809, 1788, 2114, 2137, 2133, 2112
1660, 1810, 1829, 1921, 1816, 2134, 2153, 2245, 2140
1661, 1792, 1815, 1812, 1786, 2116, 2139, 2136, 2110
1662, 1840, 1799, 1911, 1804, 2164, 2123, 2235, 2128
1663, 1810, 1785, 1780, 1806, 2134, 2109, 2104, 2130
1664, 1836, 1839, 1899, 1773, 2160, 2163, 2223, 2097
1665, 1836, 1773, 1775, 1802, 2160, 2097, 2099, 2126
1666, 1819, 1791, 1789, 1816, 2143, 2115, 2113, 2140
1667, 1800, 1861, 1825, 1803, 2124, 2185, 2149, 2127
1668, 1804, 1912, 1782, 1808, 2128, 2236, 2106, 2132
1669, 1858, 1920, 1918, 1919, 2182, 2244, 2242, 2243
1670, 1924, 1828, 1807, 1878, 2248, 2152, 2131, 2202
1671, 1822, 1795, 1791, 1819, 2146, 2119, 2115, 2143
1672, 1878, 1807, 1916, 1801, 2202, 2131, 2240, 2125
1673, 1817, 1793, 1787, 1814, 2141, 2117, 2111, 2138
1674, 1930, 1858, 1848, 1866, 2254, 2182, 2172, 2190
1675, 1890, 1943, 1934, 1885, 2214, 2267, 2258, 2209
1676, 1875, 1923, 1832, 1877, 2199, 2247, 2156, 2201
1677, 1828, 1811, 1917, 1807, 2152, 2135, 2241, 2131
1678, 1818, 1797, 1796, 1821, 2142, 2121, 2120, 2145
1679, 1830, 1826, 1808, 1812, 2154, 2150, 2132, 2136
1680, 1923, 1813, 1820, 1832, 2247, 2137, 2144, 2156
1681, 1813, 1923, 1827, 1809, 2137, 2247, 2151, 2133
1682, 1884, 1921, 1829, 1929, 2208, 2245, 2153, 2253
1683, 1797, 1818, 1815, 1792, 2121, 2142, 2139, 2116
1684, 1815, 1818, 1833, 1927, 2139, 2142, 2157, 2251
1685, 1815, 1927, 1830, 1812, 2139, 2251, 2154, 2136
1686, 1820, 1794, 1795, 1822, 2144, 2118, 2119, 2146
1687, 1870, 1859, 1935, 1868, 2194, 2183, 2259, 2192
1688, 1845, 1847, 1897, 1720, 2169, 2171, 2221, 2044
1689, 1722, 1686, 1823, 1898, 2046, 2010, 2147, 2222
1690, 1861, 1849, 1862, 1879, 2185, 2173, 2186, 2203
1691, 1829, 1810, 1806, 1929, 2153, 2134, 2130, 2253
1692, 1826, 1840, 1804, 1808, 2150, 2164, 2128, 2132
1693, 1842, 1933, 1914, 1805, 2166, 2257, 2238, 2129
1694, 1828, 1925, 1814, 1811, 2152, 2249, 2138, 2135
1695, 1922, 1822, 1819, 1834, 2246, 2146, 2143, 2158
1696, 1939, 1890, 1881, 1941, 2263, 2214, 2205, 2265
1697, 1876, 1830, 1927, 1888, 2200, 2154, 2251, 2212
1698, 1818, 1821, 1831, 1833, 2142, 2145, 2155, 2157
1699, 1822, 1922, 1832, 1820, 2146, 2246, 2156, 2144
1700, 1875, 1942, 1935, 1936, 2199, 2266, 2259, 2260
1701, 1889, 1834, 1921, 1884, 2213, 2158, 2245, 2208
1702, 1908, 1845, 1913, 1843, 2232, 2169, 2237, 2167
1703, 1907, 1853, 1849, 1844, 2231, 2177, 2173, 2168
1704, 1859, 1857, 1937, 1850, 2183, 2181, 2261, 2174
1705, 1799, 1918, 1838, 1910, 2123, 2242, 2162, 2234
1706, 1854, 1920, 1858, 1862, 2178, 2244, 2182, 2186
1707, 1871, 1864, 1857, 1867, 2195, 2188, 2181, 2191
1708, 1926, 1839, 1836, 1802, 2250, 2163, 2160, 2126
1709, 1919, 1918, 1799, 1840, 2243, 2242, 2123, 2164
1710, 1900, 1893, 1719, 1846, 2224, 2217, 2043, 2170
1711, 1915, 1860, 1846, 1855, 2239, 2184, 2170, 2179
1712, 1845, 1906, 1835, 1913, 2169, 2230, 2159, 2237
1713, 1907, 1844, 1770, 1766, 2231, 2168, 2094, 2090
1714, 1861, 1800, 1844, 1849, 2185, 2124, 2168, 2173
1715, 1909, 1837, 1908, 1843, 2233, 2161, 2232, 2167
1716, 1856, 1901, 1894, 1764, 2180, 2225, 2218, 2088
1717, 1901, 1856, 1865, 1863, 2225, 2180, 2189, 2187
1718, 1830, 1848, 1931, 1826, 2154, 2172, 2255, 2150
1719, 1924, 1870, 1868, 1874, 2248, 2194, 2192, 2198
1720, 1936, 1850, 1842, 1827, 2260, 2174, 2166, 2151
1721, 1864, 1871, 1872, 1869, 2188, 2195, 2196, 2193
1722, 1853, 1907, 1837, 1909, 2177, 2231, 2161, 2233
1723, 1848, 1858, 1919, 1931, 2172, 2182, 2243, 2255
1724, 1849, 1853, 1854, 1862, 2173, 2177, 2178, 2186
1725, 1846, 1719, 1798, 1855, 2170, 2043, 2122, 2179
1726, 1768, 1865, 1869, 1872, 2092, 2189, 2193, 2196
1727, 1857, 1864, 1851, 1932, 2181, 2188, 2175, 2256
1728, 1801, 1871, 1867, 1878, 2125, 2195, 2191, 2202
1729, 1884, 1929, 1825, 1873, 2208, 2253, 2149, 2197
1730, 1933, 1937, 1857, 1932, 2257, 2261, 2181, 2256
1731, 1824, 1841, 1915, 1855, 2148, 2165, 2239, 2179
1732, 1873, 1825, 1861, 1879, 2197, 2149, 2185, 2203
1733, 1863, 1902, 1895, 1767, 2187, 2226, 2219, 2091
1734, 1864, 1869, 1860, 1851, 2188, 2193, 2184, 2175
1735, 1869, 1865, 1856, 1860, 2193, 2189, 2180, 2184
1736, 1873, 1866, 1876, 1880, 2197, 2190, 2200, 2204
1737, 1830, 1876, 1866, 1848, 2154, 2200, 2190, 2172
1738, 1924, 1878, 1867, 1870, 2248, 2202, 2191, 2194
1739, 1870, 1867, 1857, 1859, 2194, 2191, 2181, 2183
1740, 1941, 1881, 1874, 1868, 2265, 2205, 2198, 2192
1741, 1877, 1941, 1942, 1875, 2201, 2265, 2266, 2199
1742, 1879, 1862, 1858, 1930, 2203, 2186, 2182, 2254
1743, 1887, 1884, 1873, 1880, 2211, 2208, 2197, 2204
1744, 1928, 1925, 1874, 1885, 2252, 2249, 2198, 2209
1745, 1944, 1943, 1883, 1882, 2268, 2267, 2207, 2206
1746, 1889, 1938, 1877, 1940, 2213, 2262, 2201, 2264
1747, 1885, 1874, 1881, 1890, 2209, 2198, 2205, 2214
1748, 1879, 1930, 1866, 1873, 2203, 2254, 2190, 2197
1749, 1882, 1883, 1887, 1880, 2206, 2207, 2211, 2204
1750, 1943, 1944, 1886, 1934, 2267, 2268, 2210, 2258
1751, 1888, 1882, 1880, 1876, 2212, 2206, 2204, 2200
1752, 1884, 1887, 1938, 1889, 2208, 2211, 2262, 2213
1753, 1887, 1883, 1939, 1938, 2211, 2207, 2263, 2262
1754, 1828, 1924, 1874, 1925, 2152, 2248, 2198, 2249
1755, 1934, 1886, 1833, 1831, 2258, 2210, 2157, 2155
1756, 1888, 1927, 1833, 1886, 2212, 2251, 2157, 2210
1757, 1940, 1922, 1834, 1889, 2264, 2246, 2158, 2213
1758, 1939, 1883, 1943, 1890, 2263, 2207, 2267, 2214
1759, 1639, 1638, 1892, 1891, 1963, 1962, 2216, 2215
1760, 1767, 1759, 1761, 1894, 2091, 2083, 2085, 2218
1761, 1727, 1699, 1697, 1896, 2051, 2023, 2021, 2220
1762, 1907, 1766, 1898, 1837, 2231, 2090, 2222, 2161
1763, 1841, 1824, 1899, 1839, 2165, 2148, 2223, 2163
1764, 1778, 1736, 1729, 1904, 2102, 2060, 2053, 2228
1765, 1765, 1910, 1835, 1906, 2089, 2234, 2159, 2230
1766, 1845, 1720, 1721, 1906, 2169, 2044, 2045, 2230
1767, 1838, 1913, 1835, 1910, 2162, 2237, 2159, 2234
1768, 1926, 1802, 1914, 1933, 2250, 2126, 2238, 2257
1769, 1811, 1783, 1781, 1917, 2135, 2107, 2105, 2241
1770, 1920, 1854, 1838, 1918, 2244, 2178, 2162, 2242
1771, 1834, 1819, 1816, 1921, 2158, 2143, 2140, 2245
1772, 1877, 1832, 1922, 1940, 2201, 2156, 2246, 2264
1773, 1875, 1936, 1827, 1923, 2199, 2260, 2151, 2247
1774, 1925, 1928, 1817, 1814, 2249, 2252, 2141, 2138
1775, 1933, 1932, 1839, 1926, 2257, 2256, 2163, 2250
1776, 1839, 1932, 1851, 1841, 2163, 2256, 2175, 2165
1777, 1919, 1840, 1826, 1931, 2243, 2164, 2150, 2255
1778, 1934, 1831, 1928, 1885, 2258, 2155, 2252, 2209
1779, 1936, 1935, 1859, 1850, 2260, 2259, 2183, 2174
1780, 1941, 1868, 1935, 1942, 2265, 2192, 2259, 2266
1781, 1941, 1877, 1938, 1939, 2265, 2201, 2262, 2263
1782, 1882, 1888, 1886, 1944, 2206, 2212, 2210, 2268
1783, 2085, 2083, 1945, 1960, 2409, 2407, 2269, 2284
1784, 1997, 2085, 1960, 1976, 2321, 2409, 2284, 2300
1785, 1946, 1945, 2083, 2084, 2270, 2269, 2407, 2408
1786, 2086, 2021, 1977, 1947, 2410, 2345, 2301, 2271
1787, 2088, 1997, 2022, 2217, 2412, 2321, 2346, 2541
1788, 2179, 2122, 2176, 2148, 2503, 2446, 2500, 2472
1789, 2068, 2018, 2024, 2063, 2392, 2342, 2348, 2387
1790, 2026, 2017, 1981, 1951, 2350, 2341, 2305, 2275
1791, 2058, 2014, 2030, 2062, 2382, 2338, 2354, 2386
1792, 1969, 1991, 2002, 2037, 2293, 2315, 2326, 2361
1793, 2065, 2039, 2025, 2069, 2389, 2363, 2349, 2393
1794, 2046, 2222, 2090, 2048, 2370, 2546, 2414, 2372
1795, 1958, 1957, 2032, 2007, 2282, 2281, 2356, 2331
1796, 2006, 2033, 1965, 1987, 2330, 2357, 2289, 2311
1797, 1959, 1958, 2007, 2008, 2283, 2282, 2331, 2332
1798, 1962, 1961, 2009, 2216, 2286, 2285, 2333, 2540
1799, 2171, 2009, 2008, 2221, 2495, 2333, 2332, 2545
1800, 2009, 2171, 2147, 2010, 2333, 2495, 2471, 2334
1801, 2011, 2006, 1987, 1964, 2335, 2330, 2311, 2288
1802, 1988, 1966, 2013, 2004, 2312, 2290, 2337, 2328
1803, 2089, 2230, 2045, 2047, 2413, 2554, 2369, 2371
1804, 2093, 2056, 2058, 2098, 2417, 2380, 2382, 2422
1805, 2028, 2015, 1983, 1953, 2352, 2339, 2307, 2277
1806, 2107, 2068, 2063, 2105, 2431, 2392, 2387, 2429
1807, 2018, 2000, 1980, 1979, 2342, 2324, 2304, 2303
1808, 2020, 2176, 2122, 2087, 2344, 2500, 2446, 2411
1809, 1948, 1977, 2021, 2023, 2272, 2301, 2345, 2347
1810, 2022, 1997, 1976, 1975, 2346, 2321, 2300, 2299
1811, 2023, 1998, 1949, 1948, 2347, 2322, 2273, 2272
1812, 1999, 2041, 1972, 1995, 2323, 2365, 2296, 2319
1813, 2061, 2040, 2039, 2065, 2385, 2364, 2363, 2389
1814, 1982, 1952, 2027, 2016, 2306, 2276, 2351, 2340
1815, 1984, 1983, 2015, 2003, 2308, 2307, 2339, 2327
1816, 2100, 2059, 2054, 2095, 2424, 2383, 2378, 2419
1817, 1956, 1955, 2031, 2005, 2280, 2279, 2355, 2329
1818, 1959, 2008, 2009, 1961, 2283, 2332, 2333, 2285
1819, 2011, 2046, 2048, 2006, 2335, 2370, 2372, 2330
1820, 2034, 2029, 1989, 1967, 2358, 2353, 2313, 2291
1821, 1991, 1968, 2036, 2002, 2315, 2292, 2360, 2326
1822, 1992, 1969, 2037, 2001, 2316, 2293, 2361, 2325
1823, 2038, 2025, 1993, 1970, 2362, 2349, 2317, 2294
1824, 1994, 1993, 2025, 2039, 2318, 2317, 2349, 2363
1825, 2176, 2020, 2041, 2055, 2500, 2344, 2365, 2379
1826, 2041, 2020, 1973, 1972, 2365, 2344, 2297, 2296
1827, 2042, 2022, 1975, 1974, 2366, 2346, 2299, 2298
1828, 1998, 2019, 1978, 1949, 2322, 2343, 2302, 2273
1829, 1979, 1950, 2024, 2018, 2303, 2274, 2348, 2342
1830, 1995, 1971, 2040, 1999, 2319, 2295, 2364, 2323
1831, 2055, 2041, 1999, 2057, 2379, 2365, 2323, 2381
1832, 2000, 2026, 1951, 1980, 2324, 2350, 2275, 2304
1833, 2001, 2038, 1970, 1992, 2325, 2362, 2294, 2316
1834, 1955, 1985, 2014, 2031, 2279, 2309, 2338, 2355
1835, 1990, 1989, 2029, 2035, 2314, 2313, 2353, 2359
1836, 2003, 2030, 1954, 1984, 2327, 2354, 2278, 2308
1837, 2004, 2034, 1967, 1988, 2328, 2358, 2291, 2312
1838, 2005, 2012, 1986, 1956, 2329, 2336, 2310, 2280
1839, 2046, 2011, 2215, 2010, 2370, 2335, 2539, 2334
1840, 2012, 2047, 2045, 2032, 2336, 2371, 2369, 2356
1841, 2032, 2045, 2044, 2007, 2356, 2369, 2368, 2331
1842, 2009, 2010, 2215, 2216, 2333, 2334, 2539, 2540
1843, 2169, 2232, 2147, 2171, 2493, 2556, 2471, 2495
1844, 2215, 2011, 1964, 1963, 2539, 2335, 2288, 2287
1845, 1957, 1986, 2012, 2032, 2281, 2310, 2336, 2356
1846, 2033, 2013, 1966, 1965, 2357, 2337, 2290, 2289
1847, 2006, 2048, 2052, 2033, 2330, 2372, 2376, 2357
1848, 2050, 2005, 2031, 2056, 2374, 2329, 2355, 2380
1849, 2030, 2014, 1985, 1954, 2354, 2338, 2309, 2278
1850, 2066, 2003, 2015, 2070, 2390, 2327, 2339, 2394
1851, 1953, 1982, 2016, 2028, 2277, 2306, 2340, 2352
1852, 2195, 2125, 2096, 2196, 2519, 2449, 2420, 2520
1853, 1952, 1981, 2017, 2027, 2276, 2305, 2341, 2351
1854, 2092, 2227, 2220, 2049, 2416, 2551, 2544, 2373
1855, 1950, 1978, 2019, 2024, 2274, 2302, 2343, 2348
1856, 1974, 1996, 2087, 2042, 2298, 2320, 2411, 2366
1857, 2217, 2022, 2042, 2043, 2541, 2346, 2366, 2367
1858, 2083, 2091, 2219, 2084, 2407, 2415, 2543, 2408
1859, 1947, 1946, 2084, 2086, 2271, 2270, 2408, 2410
1860, 1997, 2088, 2218, 2085, 2321, 2412, 2542, 2409
1861, 2063, 2024, 2019, 2060, 2387, 2348, 2343, 2384
1862, 2096, 2051, 2220, 2227, 2420, 2375, 2544, 2551
1863, 2057, 1999, 2040, 2061, 2381, 2323, 2364, 2385
1864, 2117, 2076, 2072, 2111, 2441, 2400, 2396, 2435
1865, 2062, 2030, 2003, 2066, 2386, 2354, 2327, 2390
1866, 2229, 2050, 2056, 2093, 2553, 2374, 2380, 2417
1867, 2233, 2162, 2178, 2177, 2557, 2486, 2502, 2501
1868, 2044, 2221, 2008, 2007, 2368, 2545, 2332, 2331
1869, 1968, 1990, 2035, 2036, 2292, 2314, 2359, 2360
1870, 2124, 2095, 2094, 2168, 2448, 2419, 2418, 2492
1871, 2069, 2025, 2038, 2073, 2393, 2349, 2362, 2397
1872, 1971, 1994, 2039, 2040, 2295, 2318, 2363, 2364
1873, 2055, 2223, 2148, 2176, 2379, 2547, 2472, 2500
1874, 2043, 2042, 2087, 2122, 2367, 2366, 2411, 2446
1875, 2086, 2049, 2220, 2021, 2410, 2373, 2544, 2345
1876, 2005, 2050, 2047, 2012, 2329, 2374, 2371, 2336
1877, 2054, 2013, 2033, 2052, 2378, 2337, 2357, 2376
1878, 2059, 2004, 2013, 2054, 2383, 2328, 2337, 2378
1879, 2064, 2034, 2004, 2059, 2388, 2358, 2328, 2383
1880, 2067, 2029, 2034, 2064, 2391, 2353, 2358, 2388
1881, 2053, 1998, 2023, 2051, 2377, 2322, 2347, 2375
1882, 2060, 2019, 1998, 2053, 2384, 2343, 2322, 2377
1883, 2056, 2031, 2014, 2058, 2380, 2355, 2338, 2382
1884, 2072, 2000, 2018, 2068, 2396, 2324, 2342, 2392
1885, 2071, 2035, 2029, 2067, 2395, 2359, 2353, 2391
1886, 2076, 2026, 2000, 2072, 2400, 2350, 2324, 2396
1887, 2075, 2036, 2035, 2071, 2399, 2360, 2359, 2395
1888, 2104, 2064, 2059, 2100, 2428, 2388, 2383, 2424
1889, 2165, 2175, 2184, 2239, 2489, 2499, 2508, 2563
1890, 2105, 2063, 2060, 2102, 2429, 2387, 2384, 2426
1891, 2113, 2071, 2067, 2109, 2437, 2395, 2391, 2433
1892, 2077, 2002, 2036, 2075, 2401, 2326, 2360, 2399
1893, 2078, 2017, 2026, 2076, 2402, 2341, 2350, 2400
1894, 2196, 2096, 2227, 2092, 2520, 2420, 2551, 2416
1895, 2229, 2093, 2235, 2123, 2553, 2417, 2559, 2447
1896, 2082, 2027, 2017, 2078, 2406, 2351, 2341, 2402
1897, 2081, 2037, 2002, 2077, 2405, 2361, 2326, 2401
1898, 2070, 2015, 2028, 2074, 2394, 2339, 2352, 2398
1899, 2162, 2233, 2167, 2237, 2486, 2557, 2491, 2561
1900, 2105, 2102, 2131, 2241, 2429, 2426, 2455, 2565
1901, 2001, 2079, 2073, 2038, 2325, 2403, 2397, 2362
1902, 2065, 2103, 2099, 2061, 2389, 2427, 2423, 2385
1903, 2016, 2080, 2074, 2028, 2340, 2404, 2398, 2352
1904, 2098, 2058, 2062, 2101, 2422, 2382, 2386, 2425
1905, 2138, 2111, 2107, 2135, 2462, 2435, 2431, 2459
1906, 2108, 2069, 2073, 2112, 2432, 2393, 2397, 2436
1907, 2106, 2070, 2074, 2110, 2430, 2394, 2398, 2434
1908, 2236, 2101, 2062, 2066, 2560, 2425, 2386, 2390
1909, 2079, 2001, 2037, 2081, 2403, 2325, 2361, 2405
1910, 2166, 2174, 2261, 2257, 2490, 2498, 2585, 2581
1911, 2080, 2016, 2027, 2082, 2404, 2340, 2351, 2406
1912, 2128, 2098, 2101, 2236, 2452, 2422, 2425, 2560
1913, 2103, 2065, 2069, 2108, 2427, 2389, 2393, 2432
1914, 2236, 2066, 2070, 2106, 2560, 2390, 2394, 2430
1915, 2187, 2091, 2218, 2225, 2511, 2415, 2542, 2549
1916, 2092, 2049, 2219, 2226, 2416, 2373, 2543, 2550
1917, 1996, 1973, 2020, 2087, 2320, 2297, 2344, 2411
1918, 2184, 2180, 2224, 2170, 2508, 2504, 2548, 2494
1919, 2180, 2088, 2217, 2224, 2504, 2412, 2541, 2548
1920, 2050, 2229, 2089, 2047, 2374, 2553, 2413, 2371
1921, 2222, 2147, 2232, 2161, 2546, 2471, 2556, 2485
1922, 2094, 2052, 2048, 2090, 2418, 2376, 2372, 2414
1923, 2094, 2095, 2054, 2052, 2418, 2419, 2378, 2376
1924, 2084, 2219, 2049, 2086, 2408, 2543, 2373, 2410
1925, 2189, 2092, 2226, 2187, 2513, 2416, 2550, 2511
1926, 2228, 2053, 2051, 2096, 2552, 2377, 2375, 2420
1927, 2109, 2067, 2064, 2104, 2433, 2391, 2388, 2428
1928, 2115, 2075, 2071, 2113, 2439, 2399, 2395, 2437
1929, 2111, 2072, 2068, 2107, 2435, 2396, 2392, 2431
1930, 2097, 2057, 2061, 2099, 2421, 2381, 2385, 2423
1931, 2223, 2055, 2057, 2097, 2547, 2379, 2381, 2421
1932, 2123, 2234, 2089, 2229, 2447, 2558, 2413, 2553
1933, 2096, 2125, 2240, 2228, 2420, 2449, 2564, 2552
1934, 2119, 2077, 2075, 2115, 2443, 2401, 2399, 2439
1935, 2093, 2098, 2128, 2235, 2417, 2422, 2452, 2559
1936, 2131, 2102, 2228, 2240, 2455, 2426, 2552, 2564
1937, 2120, 2078, 2076, 2117, 2444, 2402, 2400, 2441
1938, 2095, 2124, 2127, 2100, 2419, 2448, 2451, 2424
1939, 2140, 2113, 2109, 2134, 2464, 2437, 2433, 2458
1940, 2118, 2081, 2077, 2119, 2442, 2405, 2401, 2443
1941, 2121, 2082, 2078, 2120, 2445, 2406, 2402, 2444
1942, 2145, 2120, 2117, 2141, 2469, 2444, 2441, 2465
1943, 2080, 2116, 2110, 2074, 2404, 2440, 2434, 2398
1944, 2155, 2145, 2141, 2252, 2479, 2469, 2465, 2576
1945, 2079, 2114, 2112, 2073, 2403, 2438, 2436, 2397
1946, 2126, 2099, 2103, 2238, 2450, 2423, 2427, 2562
1947, 2100, 2127, 2130, 2104, 2424, 2451, 2454, 2428
1948, 2253, 2130, 2127, 2149, 2577, 2454, 2451, 2473
1949, 2166, 2129, 2133, 2151, 2490, 2453, 2457, 2475
1950, 2238, 2103, 2108, 2129, 2562, 2427, 2432, 2453
1951, 2081, 2118, 2114, 2079, 2405, 2442, 2438, 2403
1952, 2112, 2133, 2129, 2108, 2436, 2457, 2453, 2432
1953, 2118, 2144, 2137, 2114, 2442, 2468, 2461, 2438
1954, 2082, 2121, 2116, 2080, 2406, 2445, 2440, 2404
1955, 2110, 2136, 2132, 2106, 2434, 2460, 2456, 2430
1956, 2114, 2137, 2133, 2112, 2438, 2461, 2457, 2436
1957, 2134, 2153, 2245, 2140, 2458, 2477, 2569, 2464
1958, 2116, 2139, 2136, 2110, 2440, 2463, 2460, 2434
1959, 2164, 2123, 2235, 2128, 2488, 2447, 2559, 2452
1960, 2134, 2109, 2104, 2130, 2458, 2433, 2428, 2454
1961, 2160, 2163, 2223, 2097, 2484, 2487, 2547, 2421
1962, 2160, 2097, 2099, 2126, 2484, 2421, 2423, 2450
1963, 2143, 2115, 2113, 2140, 2467, 2439, 2437, 2464
1964, 2124, 2185, 2149, 2127, 2448, 2509, 2473, 2451
1965, 2128, 2236, 2106, 2132, 2452, 2560, 2430, 2456
1966, 2182, 2244, 2242, 2243, 2506, 2568, 2566, 2567
1967, 2248, 2152, 2131, 2202, 2572, 2476, 2455, 2526
1968, 2146, 2119, 2115, 2143, 2470, 2443, 2439, 2467
1969, 2202, 2131, 2240, 2125, 2526, 2455, 2564, 2449
1970, 2141, 2117, 2111, 2138, 2465, 2441, 2435, 2462
1971, 2254, 2182, 2172, 2190, 2578, 2506, 2496, 2514
1972, 2214, 2267, 2258, 2209, 2538, 2591, 2582, 2533
1973, 2199, 2247, 2156, 2201, 2523, 2571, 2480, 2525
1974, 2152, 2135, 2241, 2131, 2476, 2459, 2565, 2455
1975, 2142, 2121, 2120, 2145, 2466, 2445, 2444, 2469
1976, 2154, 2150, 2132, 2136, 2478, 2474, 2456, 2460
1977, 2247, 2137, 2144, 2156, 2571, 2461, 2468, 2480
1978, 2137, 2247, 2151, 2133, 2461, 2571, 2475, 2457
1979, 2208, 2245, 2153, 2253, 2532, 2569, 2477, 2577
1980, 2121, 2142, 2139, 2116, 2445, 2466, 2463, 2440
1981, 2139, 2142, 2157, 2251, 2463, 2466, 2481, 2575
1982, 2139, 2251, 2154, 2136, 2463, 2575, 2478, 2460
1983, 2144, 2118, 2119, 2146, 2468, 2442, 2443, 2470
1984, 2194, 2183, 2259, 2192, 2518, 2507, 2583, 2516
1985, 2169, 2171, 2221, 2044, 2493, 2495, 2545, 2368
1986, 2046, 2010, 2147, 2222, 2370, 2334, 2471, 2546
1987, 2185, 2173, 2186, 2203, 2509, 2497, 2510, 2527
1988, 2153, 2134, 2130, 2253, 2477, 2458, 2454, 2577
1989, 2150, 2164, 2128, 2132, 2474, 2488, 2452, 2456
1990, 2166, 2257, 2238, 2129, 2490, 2581, 2562, 2453
1991, 2152, 2249, 2138, 2135, 2476, 2573, 2462, 2459
1992, 2246, 2146, 2143, 2158, 2570, 2470, 2467, 2482
1993, 2263, 2214, 2205, 2265, 2587, 2538, 2529, 2589
1994, 2200, 2154, 2251, 2212, 2524, 2478, 2575, 2536
1995, 2142, 2145, 2155, 2157, 2466, 2469, 2479, 2481
1996, 2146, 2246, 2156, 2144, 2470, 2570, 2480, 2468
1997, 2199, 2266, 2259, 2260, 2523, 2590, 2583, 2584
1998, 2213, 2158, 2245, 2208, 2537, 2482, 2569, 2532
1999, 2232, 2169, 2237, 2167, 2556, 2493, 2561, 2491
2000, 2231, 2177, 2173, 2168, 2555, 2501, 2497, 2492
2001, 2183, 2181, 2261, 2174, 2507, 2505, 2585, 2498
2002, 2123, 2242, 2162, 2234, 2447, 2566, 2486, 2558
2003, 2178, 2244, 2182, 2186, 2502, 2568, 2506, 2510
2004, 2195, 2188, 2181, 2191, 2519, 2512, 2505, 2515
2005, 2250, 2163, 2160, 2126, 2574, 2487, 2484, 2450
2006, 2243, 2242, 2123, 2164, 2567, 2566, 2447, 2488
2007, 2224, 2217, 2043, 2170, 2548, 2541, 2367, 2494
2008, 2239, 2184, 2170, 2179, 2563, 2508, 2494, 2503
2009, 2169, 2230, 2159, 2237, 2493, 2554, 2483, 2561
2010, 2231, 2168, 2094, 2090, 2555, 2492, 2418, 2414
2011, 2185, 2124, 2168, 2173, 2509, 2448, 2492, 2497
2012, 2233, 2161, 2232, 2167, 2557, 2485, 2556, 2491
2013, 2180, 2225, 2218, 2088, 2504, 2549, 2542, 2412
2014, 2225, 2180, 2189, 2187, 2549, 2504, 2513, 2511
2015, 2154, 2172, 2255, 2150, 2478, 2496, 2579, 2474
2016, 2248, 2194, 2192, 2198, 2572, 2518, 2516, 2522
2017, 2260, 2174, 2166, 2151, 2584, 2498, 2490, 2475
2018, 2188, 2195, 2196, 2193, 2512, 2519, 2520, 2517
2019, 2177, 2231, 2161, 2233, 2501, 2555, 2485, 2557
2020, 2172, 2182, 2243, 2255, 2496, 2506, 2567, 2579
2021, 2173, 2177, 2178, 2186, 2497, 2501, 2502, 2510
2022, 2170, 2043, 2122, 2179, 2494, 2367, 2446, 2503
2023, 2092, 2189, 2193, 2196, 2416, 2513, 2517, 2520
2024, 2181, 2188, 2175, 2256, 2505, 2512, 2499, 2580
2025, 2125, 2195, 2191, 2202, 2449, 2519, 2515, 2526
2026, 2208, 2253, 2149, 2197, 2532, 2577, 2473, 2521
2027, 2257, 2261, 2181, 2256, 2581, 2585, 2505, 2580
2028, 2148, 2165, 2239, 2179, 2472, 2489, 2563, 2503
2029, 2197, 2149, 2185, 2203, 2521, 2473, 2509, 2527
2030, 2187, 2226, 2219, 2091, 2511, 2550, 2543, 2415
2031, 2188, 2193, 2184, 2175, 2512, 2517, 2508, 2499
2032, 2193, 2189, 2180, 2184, 2517, 2513, 2504, 2508
2033, 2197, 2190, 2200, 2204, 2521, 2514, 2524, 2528
2034, 2154, 2200, 2190, 2172, 2478, 2524, 2514, 2496
2035, 2248, 2202, 2191, 2194, 2572, 2526, 2515, 2518
2036, 2194, 2191, 2181, 2183, 2518, 2515, 2505, 2507
2037, 2265, 2205, 2198, 2192, 2589, 2529, 2522, 2516
2038, 2201, 2265, 2266, 2199, 2525, 2589, 2590, 2523
2039, 2203, 2186, 2182, 2254, 2527, 2510, 2506, 2578
2040, 2211, 2208, 2197, 2204, 2535, 2532, 2521, 2528
2041, 2252, 2249, 2198, 2209, 2576, 2573, 2522, 2533
2042, 2268, 2267, 2207, 2206, 2592, 2591, 2531, 2530
2043, 2213, 2262, 2201, 2264, 2537, 2586, 2525, 2588
2044, 2209, 2198, 2205, 2214, 2533, 2522, 2529, 2538
2045, 2203, 2254, 2190, 2197, 2527, 2578, 2514, 2521
2046, 2206, 2207, 2211, 2204, 2530, 2531, 2535, 2528
2047, 2267, 2268, 2210, 2258, 2591, 2592, 2534, 2582
2048, 2212, 2206, 2204, 2200, 2536, 2530, 2528, 2524
2049, 2208, 2211, 2262, 2213, 2532, 2535, 2586, 2537
2050, 2211, 2207, 2263, 2262, 2535, 2531, 2587, 2586
2051, 2152, 2248, 2198, 2249, 2476, 2572, 2522, 2573
2052, 2258, 2210, 2157, 2155, 2582, 2534, 2481, 2479
2053, 2212, 2251, 2157, 2210, 2536, 2575, 2481, 2534
2054, 2264, 2246, 2158, 2213, 2588, 2570, 2482, 2537
2055, 2263, 2207, 2267, 2214, 2587, 2531, 2591, 2538
2056, 1963, 1962, 2216, 2215, 2287, 2286, 2540, 2539
2057, 2091, 2083, 2085, 2218, 2415, 2407, 2409, 2542
2058, 2051, 2023, 2021, 2220, 2375, 2347, 2345, 2544
2059, 2231, 2090, 2222, 2161, 2555, 2414, 2546, 2485
2060, 2165, 2148, 2223, 2163, 2489, 2472, 2547, 2487
2061, 2102, 2060, 2053, 2228, 2426, 2384, 2377, 2552
2062, 2089, 2234, 2159, 2230, 2413, 2558, 2483, 2554
2063, 2169, 2044, 2045, 2230, 2493, 2368, 2369, 2554
2064, 2162, 2237, 2159, 2234, 2486, 2561, 2483, 2558
2065, 2250, 2126, 2238, 2257, 2574, 2450, 2562, 2581
2066, 2135, 2107, 2105, 2241, 2459, 2431, 2429, 2565
2067, 2244, 2178, 2162, 2242, 2568, 2502, 2486, 2566
2068, 2158, 2143, 2140, 2245, 2482, 2467, 2464, 2569
2069, 2201, 2156, 2246, 2264, 2525, 2480, 2570, 2588
2070, 2199, 2260, 2151, 2247, 2523, 2584, 2475, 2571
2071, 2249, 2252, 2141, 2138, 2573, 2576, 2465, 2462
2072, 2257, 2256, 2163, 2250, 2581, 2580, 2487, 2574
2073, 2163, 2256, 2175, 2165, 2487, 2580, 2499, 2489
2074, 2243, 2164, 2150, 2255, 2567, 2488, 2474, 2579
2075, 2258, 2155, 2252, 2209, 2582, 2479, 2576, 2533
2076, 2260, 2259, 2183, 2174, 2584, 2583, 2507, 2498
2077, 2265, 2192, 2259, 2266, 2589, 2516, 2583, 2590
2078, 2265, 2201, 2262, 2263, 2589, 2525, 2586, 2587
2079, 2206, 2212, 2210, 2268, 2530, 2536, 2534, 2592
2080, 2409, 2407, 2269, 2284, 2733, 2731, 2593, 2608
2081, 2321, 2409, 2284, 2300, 2645, 2733, 2608, 2624
2082, 2270, 2269, 2407, 2408, 2594, 2593, 2731, 2732
2083, 2410, 2345, 2301, 2271, 2734, 2669, 2625, 2595
2084, 2412, 2321, 2346, 2541, 2736, 2645, 2670, 2865
2085, 2503, 2446, 2500, 2472, 2827, 2770, 2824, 2796
2086, 2392, 2342, 2348, 2387, 2716, 2666, 2672, 2711
2087, 2350, 2341, 2305, 2275, 2674, 2665, 2629, 2599
2088, 2382, 2338, 2354, 2386, 2706, 2662, 2678, 2710
2089, 2293, 2315, 2326, 2361, 2617, 2639, 2650, 2685
2090, 2389, 2363, 2349, 2393, 2713, 2687, 2673, 2717
2091, 2370, 2546, 2414, 2372, 2694, 2870, 2738, 2696
2092, 2282, 2281, 2356, 2331, 2606, 2605, 2680, 2655
2093, 2330, 2357, 2289, 2311, 2654, 2681, 2613, 2635
2094, 2283, 2282, 2331, 2332, 2607, 2606, 2655, 2656
2095, 2286, 2285, 2333, 2540, 2610, 2609, 2657, 2864
2096, 2495, 2333, 2332, 2545, 2819, 2657, 2656, 2869
2097, 2333, 2495, 2471, 2334, 2657, 2819, 2795, 2658
2098, 2335, 2330, 2311, 2288, 2659, 2654, 2635, 2612
2099, 2312, 2290, 2337, 2328, 2636, 2614, 2661, 2652
2100, 2413, 2554, 2369, 2371, 2737, 2878, 2693, 2695
2101, 2417, 2380, 2382, 2422, 2741, 2704, 2706, 2746
2102, 2352, 2339, 2307, 2277, 2676, 2663, 2631, 2601
2103, 2431, 2392, 2387, 2429, 2755, 2716, 2711, 2753
2104, 2342, 2324, 2304, 2303, 2666, 2648, 2628, 2627
2105, 2344, 2500, 2446, 2411, 2668, 2824, 2770, 2735
2106, 2272, 2301, 2345, 2347, 2596, 2625, 2669, 2671
2107, 2346, 2321, 2300, 2299, 2670, 2645, 2624, 2623
2108, 2347, 2322, 2273, 2272, 2671, 2646, 2597, 2596
2109, 2323, 2365, 2296, 2319, 2647, 2689, 2620, 2643
2110, 2385, 2364, 2363, 2389, 2709, 2688, 2687, 2713
2111, 2306, 2276, 2351, 2340, 2630, 2600, 2675, 2664
2112, 2308, 2307, 2339, 2327, 2632, 2631, 2663, 2651
2113, 2424, 2383, 2378, 2419, 2748, 2707, 2702, 2743
2114, 2280, 2279, 2355, 2329, 2604, 2603, 2679, 2653
2115, 2283, 2332, 2333, 2285, 2607, 2656, 2657, 2609
2116, 2335, 2370, 2372, 2330, 2659, 2694, 2696, 2654
2117, 2358, 2353, 2313, 2291, 2682, 2677, 2637, 2615
2118, 2315, 2292, 2360, 2326, 2639, 2616, 2684, 2650
2119, 2316, 2293, 2361, 2325, 2640, 2617, 2685, 2649
2120, 2362, 2349, 2317, 2294, 2686, 2673, 2641, 2618
2121, 2318, 2317, 2349, 2363, 2642, 2641, 2673, 2687
2122, 2500, 2344, 2365, 2379, 2824, 2668, 2689, 2703
2123, 2365, 2344, 2297, 2296, 2689, 2668, 2621, 2620
2124, 2366, 2346, 2299, 2298, 2690, 2670, 2623, 2622
2125, 2322, 2343, 2302, 2273, 2646, 2667, 2626, 2597
2126, 2303, 2274, 2348, 2342, 2627, 2598, 2672, 2666
2127, 2319, 2295, 2364, 2323, 2643, 2619, 2688, 2647
2128, 2379, 2365, 2323, 2381, 2703, 2689, 2647, 2705
2129, 2324, 2350, 2275, 2304, 2648, 2674, 2599, 2628
2130, 2325, 2362, 2294, 2316, 2649, 2686, 2618, 2640
2131, 2279, 2309, 2338, 2355, 2603, 2633, 2662, 2679
2132, 2314, 2313, 2353, 2359, 2638, 2637, 2677, 2683
2133, 2327, 2354, 2278, 2308, 2651, 2678, 2602, 2632
2134, 2328, 2358, 2291, 2312, 2652, 2682, 2615, 2636
2135, 2329, 2336, 2310, 2280, 2653, 2660, 2634, 2604
2136, 2370, 2335, 2539, 2334, 2694, 2659, 2863, 2658
2137, 2336, 2371, 2369, 2356, 2660, 2695, 2693, 2680
2138, 2356, 2369, 2368, 2331, 2680, 2693, 2692, 2655
2139, 2333, 2334, 2539, 2540, 2657, 2658, 2863, 2864
2140, 2493, 2556, 2471, 2495, 2817, 2880, 2795, 2819
2141, 2539, 2335, 2288, 2287, 2863, 2659, 2612, 2611
2142, 2281, 2310, 2336, 2356, 2605, 2634, 2660, 2680
2143, 2357, 2337, 2290, 2289, 2681, 2661, 2614, 2613
2144, 2330, 2372, 2376, 2357, 2654, 2696, 2700, 2681
2145, 2374, 2329, 2355, 2380, 2698, 2653, 2679, 2704
2146, 2354, 2338, 2309, 2278, 2678, 2662, 2633, 2602
2147, 2390, 2327, 2339, 2394, 2714, 2651, 2663, 2718
2148, 2277, 2306, 2340, 2352, 2601, 2630, 2664, 2676
2149, 2519, 2449, 2420, 2520, 2843, 2773, 2744, 2844
2150, 2276, 2305, 2341, 2351, 2600, 2629, 2665, 2675
2151, 2416, 2551, 2544, 2373, 2740, 2875, 2868, 2697
2152, 2274, 2302, 2343, 2348, 2598, 2626, 2667, 2672
2153, 2298, 2320, 2411, 2366, 2622, 2644, 2735, 2690
2154, 2541, 2346, 2366, 2367, 2865, 2670, 2690, 2691
2155, 2407, 2415, 2543, 2408, 2731, 2739, 2867, 2732
2156, 2271, 2270, 2408, 2410, 2595, 2594, 2732, 2734
2157, 2321, 2412, 2542, 2409, 2645, 2736, 2866, 2733
2158, 2387, 2348, 2343, 2384, 2711, 2672, 2667, 2708
2159, 2420, 2375, 2544, 2551, 2744, 2699, 2868, 2875
2160, 2381, 2323, 2364, 2385, 2705, 2647, 2688, 2709
2161, 2441, 2400, 2396, 2435, 2765, 2724, 2720, 2759
2162, 2386, 2354, 2327, 2390, 2710, 2678, 2651, 2714
2163, 2553, 2374, 2380, 2417, 2877, 2698, 2704, 2741
2164, 2557, 2486, 2502, 2501, 2881, 2810, 2826, 2825
2165, 2368, 2545, 2332, 2331, 2692, 2869, 2656, 2655
2166, 2292, 2314, 2359, 2360, 2616, 2638, 2683, 2684
2167, 2448, 2419, 2418, 2492, 2772, 2743, 2742, 2816
2168, 2393, 2349, 2362, 2397, 2717, 2673, 2686, 2721
2169, 2295, 2318, 2363, 2364, 2619, 2642, 2687, 2688
2170, 2379, 2547, 2472, 2500, 2703, 2871, 2796, 2824
2171, 2367, 2366, 2411, 2446, 2691, 2690, 2735, 2770
2172, 2410, 2373, 2544, 2345, 2734, 2697, 2868, 2669
2173, 2329, 2374, 2371, 2336, 2653, 2698, 2695, 2660
2174, 2378, 2337, 2357, 2376, 2702, 2661, 2681, 2700
2175, 2383, 2328, 2337, 2378, 2707, 2652, 2661, 2702
2176, 2388, 2358, 2328, 2383, 2712, 2682, 2652, 2707
2177, 2391, 2353, 2358, 2388, 2715, 2677, 2682, 2712
2178, 2377, 2322, 2347, 2375, 2701, 2646, 2671, 2699
2179, 2384, 2343, 2322, 2377, 2708, 2667, 2646, 2701
2180, 2380, 2355, 2338, 2382, 2704, 2679, 2662, 2706
2181, 2396, 2324, 2342, 2392, 2720, 2648, 2666, 2716
2182, 2395, 2359, 2353, 2391, 2719, 2683, 2677, 2715
2183, 2400, 2350, 2324, 2396, 2724, 2674, 2648, 2720
2184, 2399, 2360, 2359, 2395, 2723, 2684, 2683, 2719
2185, 2428, 2388, 2383, 2424, 2752, 2712, 2707, 2748
2186, 2489, 2499, 2508, 2563, 2813, 2823, 2832, 2887
2187, 2429, 2387, 2384, 2426, 2753, 2711, 2708, 2750
2188, 2437, 2395, 2391, 2433, 2761, 2719, 2715, 2757
2189, 2401, 2326, 2360, 2399, 2725, 2650, 2684, 2723
2190, 2402, 2341, 2350, 2400, 2726, 2665, 2674, 2724
2191, 2520, 2420, 2551, 2416, 2844, 2744, 2875, 2740
2192, 2553, 2417, 2559, 2447, 2877, 2741, 2883, 2771
2193, 2406, 2351, 2341, 2402, 2730, 2675, 2665, 2726
2194, 2405, 2361, 2326, 2401, 2729, 2685, 2650, 2725
2195, 2394, 2339, 2352, 2398, 2718, 2663, 2676, 2722
2196, 2486, 2557, 2491, 2561, 2810, 2881, 2815, 2885
2197, 2429, 2426, 2455, 2565, 2753, 2750, 2779, 2889
2198, 2325, 2403, 2397, 2362, 2649, 2727, 2721, 2686
2199, 2389, 2427, 2423, 2385, 2713, 2751, 2747, 2709
2200, 2340, 2404, 2398, 2352, 2664, 2728, 2722, 2676
2201, 2422, 2382, 2386, 2425, 2746, 2706, 2710, 2749
2202, 2462, 2435, 2431, 2459, 2786, 2759, 2755, 2783
2203, 2432, 2393, 2397, 2436, 2756, 2717, 2721, 2760
2204, 2430, 2394, 2398, 2434, 2754, 2718, 2722, 2758
2205, 2560, 2425, 2386, 2390, 2884, 2749, 2710, 2714
2206, 2403, 2325, 2361, 2405, 2727, 2649, 2685, 2729
2207, 2490, 2498, 2585, 2581, 2814, 2822, 2909, 2905
2208, 2404, 2340, 2351, 2406, 2728, 2664, 2675, 2730
2209, 2452, 2422, 2425, 2560, 2776, 2746, 2749, 2884
2210, 2427, 2389, 2393, 2432, 2751, 2713, 2717, 2756
2211, 2560, 2390, 2394, 2430, 2884, 2714, 2718, 2754
2212, 2511, 2415, 2542, 2549, 2835, 2739, 2866, 2873
2213, 2416, 2373, 2543, 2550, 2740, 2697, 2867, 2874
2214, 2320, 2297, 2344, 2411, 2644, 2621, 2668, 2735
2215, 2508, 2504, 2548, 2494, 2832, 2828, 2872, 2818
2216, 2504, 2412, 2541, 2548, 2828, 2736, 2865, 2872
2217, 2374, 2553, 2413, 2371, 2698, 2877, 2737, 2695
2218, 2546, 2471, 2556, 2485, 2870, 2795, 2880, 2809
2219, 2418, 2376, 2372, 2414, 2742, 2700, 2696, 2738
2220, 2418, 2419, 2378, 2376, 2742, 2743, 2702, 2700
2221, 2408, 2543, 2373, 2410, 2732, 2867, 2697, 2734
2222, 2513, 2416, 2550, 2511, 2837, 2740, 2874, 2835
2223, 2552, 2377, 2375, 2420, 2876, 2701, 2699, 2744
2224, 2433, 2391, 2388, 2428, 2757, 2715, 2712, 2752
2225, 2439, 2399, 2395, 2437, 2763, 2723, 2719, 2761
2226, 2435, 2396, 2392, 2431, 2759, 2720, 2716, 2755
2227, 2421, 2381, 2385, 2423, 2745, 2705, 2709, 2747
2228, 2547, 2379, 2381, 2421, 2871, 2703, 2705, 2745
2229, 2447, 2558, 2413, 2553, 2771, 2882, 2737, 2877
2230, 2420, 2449, 2564, 2552, 2744, 2773, 2888, 2876
2231, 2443, 2401, 2399, 2439, 2767, 2725, 2723, 2763
2232, 2417, 2422, 2452, 2559, 2741, 2746, 2776, 2883
2233, 2455, 2426, 2552, 2564, 2779, 2750, 2876, 2888
2234, 2444, 2402, 2400, 2441, 2768, 2726, 2724, 2765
2235, 2419, 2448, 2451, 2424, 2743, 2772, 2775, 2748
2236, 2464, 2437, 2433, 2458, 2788, 2761, 2757, 2782
2237, 2442, 2405, 2401, 2443, 2766, 2729, 2725, 2767
2238, 2445, 2406, 2402, 2444, 2769, 2730, 2726, 2768
2239, 2469, 2444, 2441, 2465, 2793, 2768, 2765, 2789
2240, 2404, 2440, 2434, 2398, 2728, 2764, 2758, 2722
2241, 2479, 2469, 2465, 2576, 2803, 2793, 2789, 2900
2242, 2403, 2438, 2436, 2397, 2727, 2762, 2760, 2721
2243, 2450, 2423, 2427, 2562, 2774, 2747, 2751, 2886
2244, 2424, 2451, 2454, 2428, 2748, 2775, 2778, 2752
2245, 2577, 2454, 2451, 2473, 2901, 2778, 2775, 2797
2246, 2490, 2453, 2457, 2475, 2814, 2777, 2781, 2799
2247, 2562, 2427, 2432, 2453, 2886, 2751, 2756, 2777
2248, 2405, 2442, 2438, 2403, 2729, 2766, 2762, 2727
2249, 2436, 2457, 2453, 2432, 2760, 2781, 2777, 2756
2250, 2442, 2468, 2461, 2438, 2766, 2792, 2785, 2762
2251, 2406, 2445, 2440, 2404, 2730, 2769, 2764, 2728
2252, 2434, 2460, 2456, 2430, 2758, 2784, 2780, 2754
2253, 2438, 2461, 2457, 2436, 2762, 2785, 2781, 2760
2254, 2458, 2477, 2569, 2464, 2782, 2801, 2893, 2788
2255, 2440, 2463, 2460, 2434, 2764, 2787, 2784, 2758
2256, 2488, 2447, 2559, 2452, 2812, 2771, 2883, 2776
2257, 2458, 2433, 2428, 2454, 2782, 2757, 2752, 2778
2258, 2484, 2487, 2547, 2421, 2808, 2811, 2871, 2745
2259, 2484, 2421, 2423, 2450, 2808, 2745, 2747, 2774
2260, 2467, 2439, 2437, 2464, 2791, 2763, 2761, 2788
2261, 2448, 2509, 2473, 2451, 2772, 2833, 2797, 2775
2262, 2452, 2560, 2430, 2456, 2776, 2884, 2754, 2780
2263, 2506, 2568, 2566, 2567, 2830, 2892, 2890, 2891
2264, 2572, 2476, 2455, 2526, 2896, 2800, 2779, 2850
2265, 2470, 2443, 2439, 2467, 2794, 2767, 2763, 2791
2266, 2526, 2455, 2564, 2449, 2850, 2779, 2888, 2773
2267, 2465, 2441, 2435, 2462, 2789, 2765, 2759, 2786
2268, 2578, 2506, 2496, 2514, 2902, 2830, 2820, 2838
2269, 2538, 2591, 2582, 2533, 2862, 2915, 2906, 2857
2270, 2523, 2571, 2480, 2525, 2847, 2895, 2804, 2849
2271, 2476, 2459, 2565, 2455, 2800, 2783, 2889, 2779
2272, 2466, 2445, 2444, 2469, 2790, 2769, 2768, 2793
2273, 2478, 2474, 2456, 2460, 2802, 2798, 2780, 2784
2274, 2571, 2461, 2468, 2480, 2895, 2785, 2792, 2804
2275, 2461, 2571, 2475, 2457, 2785, 2895, 2799, 2781
2276, 2532, 2569, 2477, 2577, 2856, 2893, 2801, 2901
2277, 2445, 2466, 2463, 2440, 2769, 2790, 2787, 2764
2278, 2463, 2466, 2481, 2575, 2787, 2790, 2805, 2899
2279, 2463, 2575, 2478, 2460, 2787, 2899, 2802, 2784
2280, 2468, 2442, 2443, 2470, 2792, 2766, 2767, 2794
2281, 2518, 2507, 2583, 2516, 2842, 2831, 2907, 2840
2282, 2493, 2495, 2545, 2368, 2817, 2819, 2869, 2692
2283, 2370, 2334, 2471, 2546, 2694, 2658, 2795, 2870
2284, 2509, 2497, 2510, 2527, 2833, 2821, 2834, 2851
2285, 2477, 2458, 2454, 2577, 2801, 2782, 2778, 2901
2286, 2474, 2488, 2452, 2456, 2798, 2812, 2776, 2780
2287, 2490, 2581, 2562, 2453, 2814, 2905, 2886, 2777
2288, 2476, 2573, 2462, 2459, 2800, 2897, 2786, 2783
2289, 2570, 2470, 2467, 2482, 2894, 2794, 2791, 2806
2290, 2587, 2538, 2529, 2589, 2911, 2862, 2853, 2913
2291, 2524, 2478, 2575, 2536, 2848, 2802, 2899, 2860
2292, 2466, 2469, 2479, 2481, 2790, 2793, 2803, 2805
2293, 2470, 2570, 2480, 2468, 2794, 2894, 2804, 2792
2294, 2523, 2590, 2583, 2584, 2847, 2914, 2907, 2908
2295, 2537, 2482, 2569, 2532, 2861, 2806, 2893, 2856
2296, 2556, 2493, 2561, 2491, 2880, 2817, 2885, 2815
2297, 2555, 2501, 2497, 2492, 2879, 2825, 2821, 2816
2298, 2507, 2505, 2585, 2498, 2831, 2829, 2909, 2822
2299, 2447, 2566, 2486, 2558, 2771, 2890, 2810, 2882
2300, 2502, 2568, 2506, 2510, 2826, 2892, 2830, 2834
2301, 2519, 2512, 2505, 2515, 2843, 2836, 2829, 2839
2302, 2574, 2487, 2484, 2450, 2898, 2811, 2808, 2774
2303, 2567, 2566, 2447, 2488, 2891, 2890, 2771, 2812
2304, 2548, 2541, 2367, 2494, 2872, 2865, 2691, 2818
2305, 2563, 2508, 2494, 2503, 2887, 2832, 2818, 2827
2306, 2493, 2554, 2483, 2561, 2817, 2878, 2807, 2885
2307, 2555, 2492, 2418, 2414, 2879, 2816, 2742, 2738
2308, 2509, 2448, 2492, 2497, 2833, 2772, 2816, 2821
2309, 2557, 2485, 2556, 2491, 2881, 2809, 2880, 2815
2310, 2504, 2549, 2542, 2412, 2828, 2873, 2866, 2736
2311, 2549, 2504, 2513, 2511, 2873, 2828, 2837, 2835
2312, 2478, 2496, 2579, 2474, 2802, 2820, 2903, 2798
2313, 2572, 2518, 2516, 2522, 2896, 2842, 2840, 2846
2314, 2584, 2498, 2490, 2475, 2908, 2822, 2814, 2799
2315, 2512, 2519, 2520, 2517, 2836, 2843, 2844, 2841
2316, 2501, 2555, 2485, 2557, 2825, 2879, 2809, 2881
2317, 2496, 2506, 2567, 2579, 2820, 2830, 2891, 2903
2318, 2497, 2501, 2502, 2510, 2821, 2825, 2826, 2834
2319, 2494, 2367, 2446, 2503, 2818, 2691, 2770, 2827
2320, 2416, 2513, 2517, 2520, 2740, 2837, 2841, 2844
2321, 2505, 2512, 2499, 2580, 2829, 2836, 2823, 2904
2322, 2449, 2519, 2515, 2526, 2773, 2843, 2839, 2850
2323, 2532, 2577, 2473, 2521, 2856, 2901, 2797, 2845
2324, 2581, 2585, 2505, 2580, 2905, 2909, 2829, 2904
2325, 2472, 2489, 2563, 2503, 2796, 2813, 2887, 2827
2326, 2521, 2473, 2509, 2527, 2845, 2797, 2833, 2851
2327, 2511, 2550, 2543, 2415, 2835, 2874, 2867, 2739
2328, 2512, 2517, 2508, 2499, 2836, 2841, 2832, 2823
2329, 2517, 2513, 2504, 2508, 2841, 2837, 2828, 2832
2330, 2521, 2514, 2524, 2528, 2845, 2838, 2848, 2852
2331, 2478, 2524, 2514, 2496, 2802, 2848, 2838, 2820
2332, 2572, 2526, 2515, 2518, 2896, 2850, 2839, 2842
2333, 2518, 2515, 2505, 2507, 2842, 2839, 2829, 2831
2334, 2589, 2529, 2522, 2516, 2913, 2853, 2846, 2840
2335, 2525, 2589, 2590, 2523, 2849, 2913, 2914, 2847
2336, 2527, 2510, 2506, 2578, 2851, 2834, 2830, 2902
2337, 2535, 2532, 2521, 2528, 2859, 2856, 2845, 2852
2338, 2576, 2573, 2522, 2533, 2900, 2897, 2846, 2857
2339, 2592, 2591, 2531, 2530, 2916, 2915, 2855, 2854
2340, 2537, 2586, 2525, 2588, 2861, 2910, 2849, 2912
2341, 2533, 2522, 2529, 2538, 2857, 2846, 2853, 2862
2342, 2527, 2578, 2514, 2521, 2851, 2902, 2838, 2845
2343, 2530, 2531, 2535, 2528, 2854, 2855, 2859, 2852
2344, 2591, 2592, 2534, 2582, 2915, 2916, 2858, 2906
2345, 2536, 2530, 2528, 2524, 2860, 2854, 2852, 2848
2346, 2532, 2535, 2586, 2537, 2856, 2859, 2910, 2861
2347, 2535, 2531, 2587, 2586, 2859, 2855, 2911, 2910
2348, 2476, 2572, 2522, 2573, 2800, 2896, 2846, 2897
2349, 2582, 2534, 2481, 2479, 2906, 2858, 2805, 2803
2350, 2536, 2575, 2481, 2534, 2860, 2899, 2805, 2858
2351, 2588, 2570, 2482, 2537, 2912, 2894, 2806, 2861
2352, 2587, 2531, 2591, 2538, 2911, 2855, 2915, 2862
2353, 2287, 2286, 2540, 2539, 2611, 2610, 2864, 2863
2354, 2415, 2407, 2409, 2542, 2739, 2731, 2733, 2866
2355, 2375, 2347, 2345, 2544, 2699, 2671, 2669, 2868
2356, 2555, 2414, 2546, 2485, 2879, 2738, 2870, 2809
2357, 2489, 2472, 2547, 2487, 2813, 2796, 2871, 2811
2358, 2426, 2384, 2377, 2552, 2750, 2708, 2701, 2876
2359, 2413, 2558, 2483, 2554, 2737, 2882, 2807, 2878
2360, 2493, 2368, 2369, 2554, 2817, 2692, 2693, 2878
2361, 2486, 2561, 2483, 2558, 2810, 2885, 2807, 2882
2362, 2574, 2450, 2562, 2581, 2898, 2774, 2886, 2905
2363, 2459, 2431, 2429, 2565, 2783, 2755, 2753, 2889
2364, 2568, 2502, 2486, 2566, 2892, 2826, 2810, 2890
2365, 2482, 2467, 2464, 2569, 2806, 2791, 2788, 2893
2366, 2525, 2480, 2570, 2588, 2849, 2804, 2894, 2912
2367, 2523, 2584, 2475, 2571, 2847, 2908, 2799, 2895
2368, 2573, 2576, 2465, 2462, 2897, 2900, 2789, 2786
2369, 2581, 2580, 2487, 2574, 2905, 2904, 2811, 2898
2370, 2487, 2580, 2499, 2489, 2811, 2904, 2823, 2813
2371, 2567, 2488, 2474, 2579, 2891, 2812, 2798, 2903
2372, 2582, 2479, 2576, 2533, 2906, 2803, 2900, 2857
2373, 2584, 2583, 2507, 2498, 2908, 2907, 2831, 2822
2374, 2589, 2516, 2583, 2590, 2913, 2840, 2907, 2914
2375, 2589, 2525, 2586, 2587, 2913, 2849, 2910, 2911
2376, 2530, 2536, 2534, 2592, 2854, 2860, 2858, 2916
2377, 2733, 2731, 2593, 2608, 3057, 3055, 2917, 2932
2378, 2645, 2733, 2608, 2624, 2969, 3057, 2932, 2948
2379, 2594, 2593, 2731, 2732, 2918, 2917, 3055, 3056
2380, 2734, 2669, 2625, 2595, 3058, 2993, 2949, 2919
2381, 2736, 2645, 2670, 2865, 3060, 2969, 2994, 3189
2382, 2827, 2770, 2824, 2796, 3151, 3094, 3148, 3120
2383, 2716, 2666, 2672, 2711, 3040, 2990, 2996, 3035
2384, 2674, 2665, 2629, 2599, 2998, 2989, 2953, 2923
2385, 2706, 2662, 2678, 2710, 3030, 2986, 3002, 3034
2386, 2617, 2639, 2650, 2685, 2941, 2963, 2974, 3009
2387, 2713, 2687, 2673, 2717, 3037, 3011, 2997, 3041
2388, 2694, 2870, 2738, 2696, 3018, 3194, 3062, 3020
2389, 2606, 2605, 2680, 2655, 2930, 2929, 3004, 2979
2390, 2654, 2681, 2613, 2635, 2978, 3005, 2937, 2959
2391, 2607, 2606, 2655, 2656, 2931, 2930, 2979, 2980
2392, 2610, 2609, 2657, 2864, 2934, 2933, 2981, 3188
2393, 2819, 2657, 2656, 2869, 3143, 2981, 2980, 3193
2394, 2657, 2819, 2795, 2658, 2981, 3143, 3119, 2982
2395, 2659, 2654, 2635, 2612, 2983, 2978, 2959, 2936
2396, 2636, 2614, 2661, 2652, 2960, 2938, 2985, 2976
2397, 2737, 2878, 2693, 2695, 3061, 3202, 3017, 3019
2398, 2741, 2704, 2706, 2746, 3065, 3028, 3030, 3070
2399, 2676, 2663, 2631, 2601, 3000, 2987, 2955, 2925
2400, 2755, 2716, 2711, 2753, 3079, 3040, 3035, 3077
2401, 2666, 2648, 2628, 2627, 2990, 2972, 2952, 2951
2402, 2668, 2824, 2770, 2735, 2992, 3148, 3094, 3059
2403, 2596, 2625, 2669, 2671, 2920, 2949, 2993, 2995
2404, 2670, 2645, 2624, 2623, 2994, 2969, 2948, 2947
2405, 2671, 2646, 2597, 2596, 2995, 2970, 2921, 2920
2406, 2647, 2689, 2620, 2643, 2971, 3013, 2944, 2967
2407, 2709, 2688, 2687, 2713, 3033, 3012, 3011, 3037
2408, 2630, 2600, 2675, 2664, 2954, 2924, 2999, 2988
2409, 2632, 2631, 2663, 2651, 2956, 2955, 2987, 2975
2410, 2748, 2707, 2702, 2743, 3072, 3031, 3026, 3067
2411, 2604, 2603, 2679, 2653, 2928, 2927, 3003, 2977
2412, 2607, 2656, 2657, 2609, 2931, 2980, 2981, 2933
2413, 2659, 2694, 2696, 2654, 2983, 3018, 3020, 2978
2414, 2682, 2677, 2637, 2615, 3006, 3001, 2961, 2939
2415, 2639, 2616, 2684, 2650, 2963, 2940, 3008, 2974
2416, 2640, 2617, 2685, 2649, 2964, 2941, 3009, 2973
2417, 2686, 2673, 2641, 2618, 3010, 2997, 2965, 2942
2418, 2642, 2641, 2673, 2687, 2966, 2965, 2997, 3011
2419, 2824, 2668, 2689, 2703, 3148, 2992, 3013, 3027
2420, 2689, 2668, 2621, 2620, 3013, 2992, 2945, 2944
2421, 2690, 2670, 2623, 2622, 3014, 2994, 2947, 2946
2422, 2646, 2667, 2626, 2597, 2970, 2991, 2950, 2921
2423, 2627, 2598, 2672, 2666, 2951, 2922, 2996, 2990
2424, 2643, 2619, 2688, 2647, 2967, 2943, 3012, 2971
2425, 2703, 2689, 2647, 2705, 3027, 3013, 2971, 3029
2426, 2648, 2674, 2599, 2628, 2972, 2998, 2923, 2952
2427, 2649, 2686, 2618, 2640, 2973, 3010, 2942, 2964
2428, 2603, 2633, 2662, 2679, 2927, 2957, 2986, 3003
2429, 2638, 2637, 2677, 2683, 2962, 2961, 3001, 3007
2430, 2651, 2678, 2602, 2632, 2975, 3002, 2926, 2956
2431, 2652, 2682, 2615, 2636, 2976, 3006, 2939, 2960
2432, 2653, 2660, 2634, 2604, 2977, 2984, 2958, 2928
2433, 2694, 2659, 2863, 2658, 3018, 2983, 3187, 2982
2434, 2660, 2695, 2693, 2680, 2984, 3019, 3017, 3004
2435, 2680, 2693, 2692, 2655, 3004, 3017, 3016, 2979
2436, 2657, 2658, 2863, 2864, 2981, 2982, 3187, 3188
2437, 2817, 2880, 2795, 2819, 3141, 3204, 3119, 3143
2438, 2863, 2659, 2612, 2611, 3187, 2983, 2936, 2935
2439, 2605, 2634, 2660, 2680, 2929, 2958, 2984, 3004
2440, 2681, 2661, 2614, 2613, 3005, 2985, 2938, 2937
2441, 2654, 2696, 2700, 2681, 2978, 3020, 3024, 3005
2442, 2698, 2653, 2679, 2704, 3022, 2977, 3003, 3028
2443, 2678, 2662, 2633, 2602, 3002, 2986, 2957, 2926
2444, 2714, 2651, 2663, 2718, 3038, 2975, 2987, 3042
2445, 2601, 2630, 2664, 2676, 2925, 2954, 2988, 3000
2446, 2843, 2773, 2744, 2844, 3167, 3097, 3068, 3168
2447, 2600, 2629, 2665, 2675, 2924, 2953, 2989, 2999
2448, 2740, 2875, 2868, 2697, 3064, 3199, 3192, 3021
2449, 2598, 2626, 2667, 2672, 2922, 2950, 2991, 2996
2450, 2622, 2644, 2735, 2690, 2946, 2968, 3059, 3014
2451, 2865, 2670, 2690, 2691, 3189, 2994, 3014, 3015
2452, 2731, 2739, 2867, 2732, 3055, 3063, 3191, 3056
2453, 2595, 2594, 2732, 2734, 2919, 2918, 3056, 3058
2454, 2645, 2736, 2866, 2733, 2969, 3060, 3190, 3057
2455, 2711, 2672, 2667, 2708, 3035, 2996, 2991, 3032
2456, 2744, 2699, 2868, 2875, 3068, 3023, 3192, 3199
2457, 2705, 2647, 2688, 2709, 3029, 2971, 3012, 3033
2458, 2765, 2724, 2720, 2759, 3089, 3048, 3044, 3083
2459, 2710, 2678, 2651, 2714, 3034, 3002, 2975, 3038
2460, 2877, 2698, 2704, 2741, 3201, 3022, 3028, 3065
2461, 2881, 2810, 2826, 2825, 3205, 3134, 3150, 3149
2462, 2692, 2869, 2656, 2655, 3016, 3193, 2980, 2979
2463, 2616, 2638, 2683, 2684, 2940, 2962, 3007, 3008
2464, 2772, 2743, 2742, 2816, 3096, 3067, 3066, 3140
2465, 2717, 2673, 2686, 2721, 3041, 2997, 3010, 3045
2466, 2619, 2642, 2687, 2688, 2943, 2966, 3011, 3012
2467, 2703, 2871, 2796, 2824, 3027, 3195, 3120, 3148
2468, 2691, 2690, 2735, 2770, 3015, 3014, 3059, 3094
2469, 2734, 2697, 2868, 2669, 3058, 3021, 3192, 2993
2470, 2653, 2698, 2695, 2660, 2977, 3022, 3019, 2984
2471, 2702, 2661, 2681, 2700, 3026, 2985, 3005, 3024
2472, 2707, 2652, 2661, 2702, 3031, 2976, 2985, 3026
2473, 2712, 2682, 2652, 2707, 3036, 3006, 2976, 3031
2474, 2715, 2677, 2682, 2712, 3039, 3001, 3006, 3036
2475, 2701, 2646, 2671, 2699, 3025, 2970, 2995, 3023
2476, 2708, 2667, 2646, 2701, 3032, 2991, 2970, 3025
2477, 2704, 2679, 2662, 2706, 3028, 3003, 2986, 3030
2478, 2720, 2648, 2666, 2716, 3044, 2972, 2990, 3040
2479, 2719, 2683, 2677, 2715, 3043, 3007, 3001, 3039
2480, 2724, 2674, 2648, 2720, 3048, 2998, 2972, 3044
2481, 2723, 2684, 2683, 2719, 3047, 3008, 3007, 3043
2482, 2752, 2712, 2707, 2748, 3076, 3036, 3031, 3072
2483, 2813, 2823, 2832, 2887, 3137, 3147, 3156, 3211
2484, 2753, 2711, 2708, 2750, 3077, 3035, 3032, 3074
2485, 2761, 2719, 2715, 2757, 3085, 3043, 3039, 3081
2486, 2725, 2650, 2684, 2723, 3049, 2974, 3008, 3047
2487, 2726, 2665, 2674, 2724, 3050, 2989, 2998, 3048
2488, 2844, 2744, 2875, 2740, 3168, 3068, 3199, 3064
2489, 2877, 2741, 2883, 2771, 3201, 3065, 3207, 3095
2490, 2730, 2675, 2665, 2726, 3054, 2999, 2989, 3050
2491, 2729, 2685, 2650, 2725, 3053, 3009, 2974, 3049
2492, 2718, 2663, 2676, 2722, 3042, 2987, 3000, 3046
2493, 2810, 2881, 2815, 2885, 3134, 3205, 3139, 3209
2494, 2753, 2750, 2779, 2889, 3077, 3074, 3103, 3213
2495, 2649, 2727, 2721, 2686, 2973, 3051, 3045, 3010
2496, 2713, 2751, 2747, 2709, 3037, 3075, 3071, 3033
2497, 2664, 2728, 2722, 2676, 2988, 3052, 3046, 3000
2498, 2746, 2706, 2710, 2749, 3070, 3030, 3034, 3073
2499, 2786, 2759, 2755, 2783, 3110, 3083, 3079, 3107
2500, 2756, 2717, 2721, 2760, 3080, 3041, 3045, 3084
2501, 2754, 2718, 2722, 2758, 3078, 3042, 3046, 3082
2502, 2884, 2749, 2710, 2714, 3208, 3073, 3034, 3038
2503, 2727, 2649, 2685, 2729, 3051, 2973, 3009, 3053
2504, 2814, 2822, 2909, 2905, 3138, 3146, 3233, 3229
2505, 2728, 2664, 2675, 2730, 3052, 2988, 2999, 3054
2506, 2776, 2746, 2749, 2884, 3100, 3070, 3073, 3208
2507, 2751, 2713, 2717, 2756, 3075, 3037, 3041, 3080
2508, 2884, 2714, 2718, 2754, 3208, 3038, 3042, 3078
2509, 2835, 2739, 2866, 2873, 3159, 3063, 3190, 3197
2510, 2740, 2697, 2867, 2874, 3064, 3021, 3191, 3198
2511, 2644, 2621, 2668, 2735, 2968, 2945, 2992, 3059
2512, 2832, 2828, 2872, 2818, 3156, 3152, 3196, 3142
2513, 2828, 2736, 2865, 2872, 3152, 3060, 3189, 3196
2514, 2698, 2877, 2737, 2695, 3022, 3201, 3061, 3019
2515, 2870, 2795, 2880, 2809, 3194, 3119, 3204, 3133
2516, 2742, 2700, 2696, 2738, 3066, 3024, 3020, 3062
2517, 2742, 2743, 2702, 2700, 3066, 3067, 3026, 3024
2518, 2732, 2867, 2697, 2734, 3056, 3191, 3021, 3058
2519, 2837, 2740, 2874, 2835, 3161, 3064, 3198, 3159
2520, 2876, 2701, 2699, 2744, 3200, 3025, 3023, 3068
2521, 2757, 2715, 2712, 2752, 3081, 3039, 3036, 3076
2522, 2763, 2723, 2719, 2761, 3087, 3047, 3043, 3085
2523, 2759, 2720, 2716, 2755, 3083, 3044, 3040, 3079
2524, 2745, 2705, 2709, 2747, 3069, 3029, 3033, 3071
2525, 2871, 2703, 2705, 2745, 3195, 3027, 3029, 3069
2526, 2771, 2882, 2737, 2877, 3095, 3206, 3061, 3201
2527, 2744, 2773, 2888, 2876, 3068, 3097, 3212, 3200
2528, 2767, 2725, 2723, 2763, 3091, 3049, 3047, 3087
2529, 2741, 2746, 2776, 2883, 3065, 3070, 3100, 3207
2530, 2779, 2750, 2876, 2888, 3103, 3074, 3200, 3212
2531, 2768, 2726, 2724, 2765, 3092, 3050, 3048, 3089
2532, 2743, 2772, 2775, 2748, 3067, 3096, 3099, 3072
2533, 2788, 2761, 2757, 2782, 3112, 3085, 3081, 3106
2534, 2766, 2729, 2725, 2767, 3090, 3053, 3049, 3091
2535, 2769, 2730, 2726, 2768, 3093, 3054, 3050, 3092
2536, 2793, 2768, 2765, 2789, 3117, 3092, 3089, 3113
2537, 2728, 2764, 2758, 2722, 3052, 3088, 3082, 3046
2538, 2803, 2793, 2789, 2900, 3127, 3117, 3113, 3224
2539, 2727, 2762, 2760, 2721, 3051, 3086, 3084, 3045
2540, 2774, 2747, 2751, 2886, 3098, 3071, 3075, 3210
2541, 2748, 2775, 2778, 2752, 3072, 3099, 3102, 3076
2542, 2901, 2778, 2775, 2797, 3225, 3102, 3099, 3121
2543, 2814, 2777, 2781, 2799, 3138, 3101, 3105, 3123
2544, 2886, 2751, 2756, 2777, 3210, 3075, 3080, 3101
2545, 2729, 2766, 2762, 2727, 3053, 3090, 3086, 3051
2546, 2760, 2781, 2777, 2756, 3084, 3105, 3101, 3080
2547, 2766, 2792, 2785, 2762, 3090, 3116, 3109, 3086
2548, 2730, 2769, 2764, 2728, 3054, 3093, 3088, 3052
2549, 2758, 2784, 2780, 2754, 3082, 3108, 3104, 3078
2550, 2762, 2785, 2781, 2760, 3086, 3109, 3105, 3084
2551, 2782, 2801, 2893, 2788, 3106, 3125, 3217, 3112
2552, 2764, 2787, 2784, 2758, 3088, 3111, 3108, 3082
2553, 2812, 2771, 2883, 2776, 3136, 3095, 3207, 3100
2554, 2782, 2757, 2752, 2778, 3106, 3081, 3076, 3102
2555, 2808, 2811, 2871, 2745, 3132, 3135, 3195, 3069
2556, 2808, 2745, 2747, 2774, 3132, 3069, 3071, 3098
2557, 2791, 2763, 2761, 2788, 3115, 3087, 3085, 3112
2558, 2772, 2833, 2797, 2775, 3096, 3157, 3121, 3099
2559, 2776, 2884, 2754, 2780, 3100, 3208, 3078, 3104
2560, 2830, 2892, 2890, 2891, 3154, 3216, 3214, 3215
2561, 2896, 2800, 2779, 2850, 3220, 3124, 3103, 3174
2562, 2794, 2767, 2763, 2791, 3118, 3091, 3087, 3115
2563, 2850, 2779, 2888, 2773, 3174, 3103, 3212, 3097
2564, 2789, 2765, 2759, 2786, 3113, 3089, 3083, 3110
2565, 2902, 2830, 2820, 2838, 3226, 3154, 3144, 3162
2566, 2862, 2915, 2906, 2857, 3186, 3239, 3230, 3181
2567, 2847, 2895, 2804, 2849, 3171, 3219, 3128, 3173
2568, 2800, 2783, 2889, 2779, 3124, 3107, 3213, 3103
2569, 2790, 2769, 2768, 2793, 3114, 3093, 3092, 3117
2570, 2802, 2798, 2780, 2784, 3126, 3122, 3104, 3108
2571, 2895, 2785, 2792, 2804, 3219, 3109, 3116, 3128
2572, 2785, 2895, 2799, 2781, 3109, 3219, 3123, 3105
2573, 2856, 2893, 2801, 2901, 3180, 3217, 3125, 3225
2574, 2769, 2790, 2787, 2764, 3093, 3114, 3111, 3088
2575, 2787, 2790, 2805, 2899, 3111, 3114, 3129, 3223
2576, 2787, 2899, 2802, 2784, 3111, 3223, 3126, 3108
2577, 2792, 2766, 2767, 2794, 3116, 3090, 3091, 3118
2578, 2842, 2831, 2907, 2840, 3166, 3155, 3231, 3164
2579, 2817, 2819, 2869, 2692, 3141, 3143, 3193, 3016
2580, 2694, 2658, 2795, 2870, 3018, 2982, 3119, 3194
2581, 2833, 2821, 2834, 2851, 3157, 3145, 3158, 3175
2582, 2801, 2782, 2778, 2901, 3125, 3106, 3102, 3225
2583, 2798, 2812, 2776, 2780, 3122, 3136, 3100, 3104
2584, 2814, 2905, 2886, 2777, 3138, 3229, 3210, 3101
2585, 2800, 2897, 2786, 2783, 3124, 3221, 3110, 3107
2586, 2894, 2794, 2791, 2806, 3218, 3118, 3115, 3130
2587, 2911, 2862, 2853, 2913, 3235, 3186, 3177, 3237
2588, 2848, 2802, 2899, 2860, 3172, 3126, 3223, 3184
2589, 2790, 2793, 2803, 2805, 3114, 3117, 3127, 3129
2590, 2794, 2894, 2804, 2792, 3118, 3218, 3128, 3116
2591, 2847, 2914, 2907, 2908, 3171, 3238, 3231, 3232
2592, 2861, 2806, 2893, 2856, 3185, 3130, 3217, 3180
2593, 2880, 2817, 2885, 2815, 3204, 3141, 3209, 3139
2594, 2879, 2825, 2821, 2816, 3203, 3149, 3145, 3140
2595, 2831, 2829, 2909, 2822, 3155, 3153, 3233, 3146
2596, 2771, 2890, 2810, 2882, 3095, 3214, 3134, 3206
2597, 2826, 2892, 2830, 2834, 3150, 3216, 3154, 3158
2598, 2843, 2836, 2829, 2839, 3167, 3160, 3153, 3163
2599, 2898, 2811, 2808, 2774, 3222, 3135, 3132, 3098
2600, 2891, 2890, 2771, 2812, 3215, 3214, 3095, 3136
2601, 2872, 2865, 2691, 2818, 3196, 3189, 3015, 3142
2602, 2887, 2832, 2818, 2827, 3211, 3156, 3142, 3151
2603, 2817, 2878, 2807, 2885, 3141, 3202, 3131, 3209
2604, 2879, 2816, 2742, 2738, 3203, 3140, 3066, 3062
2605, 2833, 2772, 2816, 2821, 3157, 3096, 3140, 3145
2606, 2881, 2809, 2880, 2815, 3205, 3133, 3204, 3139
2607, 2828, 2873, 2866, 2736, 3152, 3197, 3190, 3060
2608, 2873, 2828, 2837, 2835, 3197, 3152, 3161, 3159
2609, 2802, 2820, 2903, 2798, 3126, 3144, 3227, 3122
2610, 2896, 2842, 2840, 2846, 3220, 3166, 3164, 3170
2611, 2908, 2822, 2814, 2799, 3232, 3146, 3138, 3123
2612, 2836, 2843, 2844, 2841, 3160, 3167, 3168, 3165
2613, 2825, 2879, 2809, 2881, 3149, 3203, 3133, 3205
2614, 2820, 2830, 2891, 2903, 3144, 3154, 3215, 3227
2615, 2821, 2825, 2826, 2834, 3145, 3149, 3150, 3158
2616, 2818, 2691, 2770, 2827, 3142, 3015, 3094, 3151
2617, 2740, 2837, 2841, 2844, 3064, 3161, 3165, 3168
2618, 2829, 2836, 2823, 2904, 3153, 3160, 3147, 3228
2619, 2773, 2843, 2839, 2850, 3097, 3167, 3163, 3174
2620, 2856, 2901, 2797, 2845, 3180, 3225, 3121, 3169
2621, 2905, 2909, 2829, 2904, 3229, 3233, 3153, 3228
2622, 2796, 2813, 2887, 2827, 3120, 3137, 3211, 3151
2623, 2845, 2797, 2833, 2851, 3169, 3121, 3157, 3175
2624, 2835, 2874, 2867, 2739, 3159, 3198, 3191, 3063
2625, 2836, 2841, 2832, 2823, 3160, 3165, 3156, 3147
2626, 2841, 2837, 2828, 2832, 3165, 3161, 3152, 3156
2627, 2845, 2838, 2848, 2852, 3169, 3162, 3172, 3176
2628, 2802, 2848, 2838, 2820, 3126, 3172, 3162, 3144
2629, 2896, 2850, 2839, 2842, 3220, 3174, 3163, 3166
2630, 2842, 2839, 2829, 2831, 3166, 3163, 3153, 3155
2631, 2913, 2853, 2846, 2840, 3237, 3177, 3170, 3164
2632, 2849, 2913, 2914, 2847, 3173, 3237, 3238, 3171
2633, 2851, 2834, 2830, 2902, 3175, 3158, 3154, 3226
2634, 2859, 2856, 2845, 2852, 3183, 3180, 3169, 3176
2635, 2900, 2897, 2846, 2857, 3224, 3221, 3170, 3181
2636, 2916, 2915, 2855, 2854, 3240, 3239, 3179, 3178
2637, 2861, 2910, 2849, 2912, 3185, 3234, 3173, 3236
2638, 2857, 2846, 2853, 2862, 3181, 3170, 3177, 3186
2639, 2851, 2902, 2838, 2845, 3175, 3226, 3162, 3169
2640, 2854, 2855, 2859, 2852, 3178, 3179, 3183, 3176
2641, 2915, 2916, 2858, 2906, 3239, 3240, 3182, 3230
2642, 2860, 2854, 2852, 2848, 3184, 3178, 3176, 3172
2643, 2856, 2859, 2910, 2861, 3180, 3183, 3234, 3185
2644, 2859, 2855, 2911, 2910, 3183, 3179, 3235, 3234
2645, 2800, 2896, 2846, 2897, 3124, 3220, 3170, 3221
2646, 2906, 2858, 2805, 2803, 3230, 3182, 3129, 3127
2647, 2860, 2899, 2805, 2858, 3184, 3223, 3129, 3182
2648, 2912, 2894, 2806, 2861, 3236, 3218, 3130, 3185
2649, 2911, 2855, 2915, 2862, 3235, 3179, 3239, 3186
2650, 2611, 2610, 2864, 2863, 2935, 2934, 3188, 3187
2651, 2739, 2731, 2733, 2866, 3063, 3055, 3057, 3190
2652, 2699, 2671, 2669, 2868, 3023, 2995, 2993, 3192
2653, 2879, 2738, 2870, 2809, 3203, 3062, 3194, 3133
2654, 2813, 2796, 2871, 2811, 3137, 3120, 3195, 3135
2655, 2750, 2708, 2701, 2876, 3074, 3032, 3025, 3200
2656, 2737, 2882, 2807, 2878, 3061, 3206, 3131, 3202
2657, 2817, 2692, 2693, 2878, 3141, 3016, 3017, 3202
2658, 2810, 2885, 2807, 2882, 3134, 3209, 3131, 3206
2659, 2898, 2774, 2886, 2905, 3222, 3098, 3210, 3229
2660, 2783, 2755, 2753, 2889, 3107, 3079, 3077, 3213
2661, 2892, 2826, 2810, 2890, 3216, 3150, 3134, 3214
2662, 2806, 2791, 2788, 2893, 3130, 3115, 3112, 3217
2663, 2849, 2804, 2894, 2912, 3173, 3128, 3218, 3236
2664, 2847, 2908, 2799, 2895, 3171, 3232, 3123, 3219
2665, 2897, 2900, 2789, 2786, 3221, 3224, 3113, 3110
2666, 2905, 2904, 2811, 2898, 3229, 3228, 3135, 3222
2667, 2811, 2904, 2823, 2813, 3135, 3228, 3147, 3137
2668, 2891, 2812, 2798, 2903, 3215, 3136, 3122, 3227
2669, 2906, 2803, 2900, 2857, 3230, 3127, 3224, 3181
2670, 2908, 2907, 2831, 2822, 3232, 3231, 3155, 3146
2671, 2913, 2840, 2907, 2914, 3237, 3164, 3231, 3238
2672, 2913, 2849, 2910, 2911, 3237, 3173, 3234, 3235
2673, 2854, 2860, 2858, 2916, 3178, 3184, 3182, 3240
2674, 3057, 3055, 2917, 2932, 3381, 3379, 3241, 3256
2675, 2969, 3057, 2932, 2948, 3293, 3381, 3256, 3272
2676, 2918, 2917, 3055, 3056, 3242, 3241, 3379, 3380
2677, 3058, 2993, 2949, 2919, 3382, 3317, 3273, 3243
2678, 3060, 2969, 2994, 3189, 3384, 3293, 3318, 3513
2679, 3151, 3094, 3148, 3120, 3475, 3418, 3472, 3444
2680, 3040, 2990, 2996, 3035, 3364, 3314, 3320, 3359
2681, 2998, 2989, 2953, 2923, 3322, 3313, 3277, 3247
2682, 3030, 2986, 3002, 3034, 3354, 3310, 3326, 3358
2683, 2941, 2963, 2974, 3009, 3265, 3287, 3298, 3333
2684, 3037, 3011, 2997, 3041, 3361, 3335, 3321, 3365
2685, 3018, 3194, 3062, 3020, 3342, 3518, 3386, 3344
2686, 2930, 2929, 3004, 2979, 3254, 3253, 3328, 3303
2687, 2978, 3005, 2937, 2959, 3302, 3329, 3261, 3283
2688, 2931, 2930, 2979, 2980, 3255, 3254, 3303, 3304
2689, 2934, 2933, 2981, 3188, 3258, 3257, 3305, 3512
2690, 3143, 2981, 2980, 3193, 3467, 3305, 3304, 3517
2691, 2981, 3143, 3119, 2982, 3305, 3467, 3443, 3306
2692, 2983, 2978, 2959, 2936, 3307, 3302, 3283, 3260
2693, 2960, 2938, 2985, 2976, 3284, 3262, 3309, 3300
2694, 3061, 3202, 3017, 3019, 3385, 3526, 3341, 3343
2695, 3065, 3028, 3030, 3070, 3389, 3352, 3354, 3394
2696, 3000, 2987, 2955, 2925, 3324, 3311, 3279, 3249
2697, 3079, 3040, 3035, 3077, 3403, 3364, 3359, 3401
2698, 2990, 2972, 2952, 2951, 3314, 3296, 3276, 3275
2699, 2992, 3148, 3094, 3059, 3316, 3472, 3418, 3383
2700, 2920, 2949, 2993, 2995, 3244, 3273, 3317, 3319
2701, 2994, 2969, 2948, 2947, 3318, 3293, 3272, 3271
2702, 2995, 2970, 2921, 2920, 3319, 3294, 3245, 3244
2703, 2971, 3013, 2944, 2967, 3295, 3337, 3268, 3291
2704, 3033, 3012, 3011, 3037, 3357, 3336, 3335, 3361
2705, 2954, 2924, 2999, 2988, 3278, 3248, 3323, 3312
2706, 2956, 2955, 2987, 2975, 3280, 3279, 3311, 3299
2707, 3072, 3031, 3026, 3067, 3396, 3355, 3350, 3391
2708, 2928, 2927, 3003, 2977, 3252, 3251, 3327, 3301
2709, 2931, 2980, 2981, 2933, 3255, 3304, 3305, 3257
2710, 2983, 3018, 3020, 2978, 3307, 3342, 3344, 3302
2711, 3006, 3001, 2961, 2939, 3330, 3325, 3285, 3263
2712, 2963, 2940, 3008, 2974, 3287, 3264, 3332, 3298
2713, 2964, 2941, 3009, 2973, 3288, 3265, 3333, 3297
2714, 3010, 2997, 2965, 2942, 3334, 3321, 3289, 3266
2715, 2966, 2965, 2997, 3011, 3290, 3289, 3321, 3335
2716, 3148, 2992, 3013, 3027, 3472, 3316, 3337, 3351
2717, 3013, 2992, 2945, 2944, 3337, 3316, 3269, 3268
2718, 3014, 2994, 2947, 2946, 3338, 3318, 3271, 3270
2719, 2970, 2991, 2950, 2921, 3294, 3315, 3274, 3245
2720, 2951, 2922, 2996, 2990, 3275, 3246, 3320, 3314
2721, 2967, 2943, 3012, 2971, 3291, 3267, 3336, 3295
2722, 3027, 3013, 2971, 3029, 3351, 3337, 3295, 3353
2723, 2972, 2998, 2923, 2952, 3296, 3322, 3247, 3276
2724, 2973, 3010, 2942, 2964, 3297, 3334, 3266, 3288
2725, 2927, 2957, 2986, 3003, 3251, 3281, 3310, 3327
2726, 2962, 2961, 3001, 3007, 3286, 3285, 3325, 3331
2727, 2975, 3002, 2926, 2956, 3299, 3326, 3250, 3280
2728, 2976, 3006, 2939, 2960, 3300, 3330, 3263, 3284
2729, 2977, 2984, 2958, 2928, 3301, 3308, 3282, 3252
2730, 3018, 2983, 3187, 2982, 3342, 3307, 3511, 3306
2731, 2984, 3019, 3017, 3004, 3308, 3343, 3341, 3328
2732, 3004, 3017, 3016, 2979, 3328, 3341, 3340, 3303
2733, 2981, 2982, 3187, 3188, 3305, 3306, 3511, 3512
2734, 3141, 3204, 3119, 3143, 3465, 3528, 3443, 3467
2735, 3187, 2983, 2936, 2935, 3511, 3307, 3260, 3259
2736, 2929, 2958, 2984, 3004, 3253, 3282, 3308, 3328
2737, 3005, 2985, 2938, 2937, 3329, 3309, 3262, 3261
2738, 2978, 3020, 3024, 3005, 3302, 3344, 3348, 3329
2739, 3022, 2977, 3003, 3028, 3346, 3301, 3327, 3352
2740, 3002, 2986, 2957, 2926, 3326, 3310, 3281, 3250
2741, 3038, 2975, 2987, 3042, 3362, 3299, 3311, 3366
2742, 2925, 2954, 2988, 3000, 3249, 3278, 3312, 3324
2743, 3167, 3097, 3068, 3168, 3491, 3421, 3392, 3492
2744, 2924, 2953, 2989, 2999, 3248, 3277, 3313, 3323
2745, 3064, 3199, 3192, 3021, 3388, 3523, 3516, 3345
2746, 2922, 2950, 2991, 2996, 3246, 3274, 3315, 3320
2747, 2946, 2968, 3059, 3014, 3270, 3292, 3383, 3338
2748, 3189, 2994, 3014, 3015, 3513, 3318, 3338, 3339
2749, 3055, 3063, 3191, 3056, 3379, 3387, 3515, 3380
2750, 2919, 2918, 3056, 3058, 3243, 3242, 3380, 3382
2751, 2969, 3060, 3190, 3057, 3293, 3384, 3514, 3381
2752, 3035, 2996, 2991, 3032, 3359, 3320, 3315, 3356
2753, 3068, 3023, 3192, 3199, 3392, 3347, 3516, 3523
2754, 3029, 2971, 3012, 3033, 3353, 3295, 3336, 3357
2755, 3089, 3048, 3044, 3083, 3413, 3372, 3368, 3407
2756, 3034, 3002, 2975, 3038, 3358, 3326, 3299, 3362
2757, 3201, 3022, 3028, 3065, 3525, 3346, 3352, 3389
2758, 3205, 3134, 3150, 3149, 3529, 3458, 3474, 3473
2759, 3016, 3193, 2980, 2979, 3340, 3517, 3304, 3303
2760, 2940, 2962, 3007, 3008, 3264, 3286, 3331, 3332
2761, 3096, 3067, 3066, 3140, 3420, 3391, 3390, 3464
2762, 3041, 2997, 3010, 3045, 3365, 3321, 3334, 3369
2763, 2943, 2966, 3011, 3012, 3267, 3290, 3335, 3336
2764, 3027, 3195, 3120, 3148, 3351, 3519, 3444, 3472
2765, 3015, 3014, 3059, 3094, 3339, 3338, 3383, 3418
2766, 3058, 3021, 3192, 2993, 3382, 3345, 3516, 3317
2767, 2977, 3022, 3019, 2984, 3301, 3346, 3343, 3308
2768, 3026, 2985, 3005, 3024, 3350, 3309, 3329, 3348
2769, 3031, 2976, 2985, 3026, 3355, 3300, 3309, 3350
2770, 3036, 3006, 2976, 3031, 3360, 3330, 3300, 3355
2771, 3039, 3001, 3006, 3036, 3363, 3325, 3330, 3360
2772, 3025, 2970, 2995, 3023, 3349, 3294, 3319, 3347
2773, 3032, 2991, 2970, 3025, 3356, 3315, 3294, 3349
2774, 3028, 3003, 2986, 3030, 3352, 3327, 3310, 3354
2775, 3044, 2972, 2990, 3040, 3368, 3296, 3314, 3364
2776, 3043, 3007, 3001, 3039, 3367, 3331, 3325, 3363
2777, 3048, 2998, 2972, 3044, 3372, 3322, 3296, 3368
2778, 3047, 3008, 3007, 3043, 3371, 3332, 3331, 3367
2779, 3076, 3036, 3031, 3072, 3400, 3360, 3355, 3396
2780, 3137, 3147, 3156, 3211, 3461, 3471, 3480, 3535
2781, 3077, 3035, 3032, 3074, 3401, 3359, 3356, 3398
2782, 3085, 3043, 3039, 3081, 3409, 3367, 3363, 3405
2783, 3049, 2974, 3008, 3047, 3373, 3298, 3332, 3371
2784, 3050, 2989, 2998, 3048, 3374, 3313, 3322, 3372
2785, 3168, 3068, 3199, 3064, 3492, 3392, 3523, 3388
2786, 3201, 3065, 3207, 3095, 3525, 3389, 3531, 3419
2787, 3054, 2999, 2989, 3050, 3378, 3323, 3313, 3374
2788, 3053, 3009, 2974, 3049, 3377, 3333, 3298, 3373
2789, 3042, 2987, 3000, 3046, 3366, 3311, 3324, 3370
2790, 3134, 3205, 3139, 3209, 3458, 3529, 3463, 3533
2791, 3077, 3074, 3103, 3213, 3401, 3398, 3427, 3537
2792, 2973, 3051, 3045, 3010, 3297, 3375, 3369, 3334
2793, 3037, 3075, 3071, 3033, 3361, 3399, 3395, 3357
2794, 2988, 3052, 3046, 3000, 3312, 3376, 3370, 3324
2795, 3070, 3030, 3034, 3073, 3394, 3354, 3358, 3397
2796, 3110, 3083, 3079, 3107, 3434, 3407, 3403, 3431
2797, 3080, 3041, 3045, 3084, 3404, 3365, 3369, 3408
2798, 3078, 3042, 3046, 3082, 3402, 3366, 3370, 3406
2799, 3208, 3073, 3034, 3038, 3532, 3397, 3358, 3362
2800, 3051, 2973, 3009, 3053, 3375, 3297, 3333, 3377
2801, 3138, 3146, 3233, 3229, 3462, 3470, 3557, 3553
2802, 3052, 2988, 2999, 3054, 3376, 3312, 3323, 3378
2803, 3100, 3070, 3073, 3208, 3424, 3394, 3397, 3532
2804, 3075, 3037, 3041, 3080, 3399, 3361, 3365, 3404
2805, 3208, 3038, 3042, 3078, 3532, 3362, 3366, 3402
2806, 3159, 3063, 3190, 3197, 3483, 3387, 3514, 3521
2807, 3064, 3021, 3191, 3198, 3388, 3345, 3515, 3522
2808, 2968, 2945, 2992, 3059, 3292, 3269, 3316, 3383
2809, 3156, 3152, 3196, 3142, 3480, 3476, 3520, 3466
2810, 3152, 3060, 3189, 3196, 3476, 3384, 3513, 3520
2811, 3022, 3201, 3061, 3019, 3346, 3525, 3385, 3343
2812, 3194, 3119, 3204, 3133, 3518, 3443, 3528, 3457
2813, 3066, 3024, 3020, 3062, 3390, 3348, 3344, 3386
2814, 3066, 3067, 3026, 3024, 3390, 3391, 3350, 3348
2815, 3056, 3191, 3021, 3058, 3380, 3515, 3345, 3382
2816, 3161, 3064, 3198, 3159, 3485, 3388, 3522, 3483
2817, 3200, 3025, 3023, 3068, 3524, 3349, 3347, 3392
2818, 3081, 3039, 3036, 3076, 3405, 3363, 3360, 3400
2819, 3087, 3047, 3043, 3085, 3411, 3371, 3367, 3409
2820, 3083, 3044, 3040, 3079, 3407, 3368, 3364, 3403
2821, 3069, 3029, 3033, 3071, 3393, 3353, 3357, 3395
2822, 3195, 3027, 3029, 3069, 3519, 3351, 3353, 3393
2823, 3095, 3206, 3061, 3201, 3419, 3530, 3385, 3525
2824, 3068, 3097, 3212, 3200, 3392, 3421, 3536, 3524
2825, 3091, 3049, 3047, 3087, 3415, 3373, 3371, 3411
2826, 3065, 3070, 3100, 3207, 3389, 3394, 3424, 3531
2827, 3103, 3074, 3200, 3212, 3427, 3398, 3524, 3536
2828, 3092, 3050, 3048, 3089, 3416, 3374, 3372, 3413
2829, 3067, 3096, 3099, 3072, 3391, 3420, 3423, 3396
2830, 3112, 3085, 3081, 3106, 3436, 3409, 3405, 3430
2831, 3090, 3053, 3049, 3091, 3414, 3377, 3373, 3415
2832, 3093, 3054, 3050, 3092, 3417, 3378, 3374, 3416
2833, 3117, 3092, 3089, 3113, 3441, 3416, 3413, 3437
2834, 3052, 3088, 3082, 3046, 3376, 3412, 3406, 3370
2835, 3127, 3117, 3113, 3224, 3451, 3441, 3437, 3548
2836, 3051, 3086, 3084, 3045, 3375, 3410, 3408, 3369
2837, 3098, 3071, 3075, 3210, 3422, 3395, 3399, 3534
2838, 3072, 3099, 3102, 3076, 3396, 3423, 3426, 3400
2839, 3225, 3102, 3099, 3121, 3549, 3426, 3423, 3445
2840, 3138, 3101, 3105, 3123, 3462, 3425, 3429, 3447
2841, 3210, 3075, 3080, 3101, 3534, 3399, 3404, 3425
2842, 3053, 3090, 3086, 3051, 3377, 3414, 3410, 3375
2843, 3084, 3105, 3101, 3080, 3408, 3429, 3425, 3404
2844, 3090, 3116, 3109, 3086, 3414, 3440, 3433, 3410
2845, 3054, 3093, 3088, 3052, 3378, 3417, 3412, 3376
2846, 3082, 3108, 3104, 3078, 3406, 3432, 3428, 3402
2847, 3086, 3109, 3105, 3084, 3410, 3433, 3429, 3408
2848, 3106, 3125, 3217, 3112, 3430, 3449, 3541, 3436
2849, 3088, 3111, 3108, 3082, 3412, 3435, 3432, 3406
2850, 3136, 3095, 3207, 3100, 3460, 3419, 3531, 3424
2851, 3106, 3081, 3076, 3102, 3430, 3405, 3400, 3426
2852, 3132, 3135, 3195, 3069, 3456, 3459, 3519, 3393
2853, 3132, 3069, 3071, 3098, 3456, 3393, 3395, 3422
2854, 3115, 3087, 3085, 3112, 3439, 3411, 3409, 3436
2855, 3096, 3157, 3121, 3099, 3420, 3481, 3445, 3423
2856, 3100, 3208, 3078, 3104, 3424, 3532, 3402, 3428
2857, 3154, 3216, 3214, 3215, 3478, 3540, 3538, 3539
2858, 3220, 3124, 3103, 3174, 3544, 3448, 3427, 3498
2859, 3118, 3091, 3087, 3115, 3442, 3415, 3411, 3439
2860, 3174, 3103, 3212, 3097, 3498, 3427, 3536, 3421
2861, 3113, 3089, 3083, 3110, 3437, 3413, 3407, 3434
2862, 3226, 3154, 3144, 3162, 3550, 3478, 3468, 3486
2863, 3186, 3239, 3230, 3181, 3510, 3563, 3554, 3505
2864, 3171, 3219, 3128, 3173, 3495, 3543, 3452, 3497
2865, 3124, 3107, 3213, 3103, 3448, 3431, 3537, 3427
2866, 3114, 3093, 3092, 3117, 3438, 3417, 3416, 3441
2867, 3126, 3122, 3104, 3108, 3450, 3446, 3428, 3432
2868, 3219, 3109, 3116, 3128, 3543, 3433, 3440, 3452
2869, 3109, 3219, 3123, 3105, 3433, 3543, 3447, 3429
2870, 3180, 3217, 3125, 3225, 3504, 3541, 3449, 3549
2871, 3093, 3114, 3111, 3088, 3417, 3438, 3435, 3412
2872, 3111, 3114, 3129, 3223, 3435, 3438, 3453, 3547
2873, 3111, 3223, 3126, 3108, 3435, 3547, 3450, 3432
2874, 3116, 3090, 3091, 3118, 3440, 3414, 3415, 3442
2875, 3166, 3155, 3231, 3164, 3490, 3479, 3555, 3488
2876, 3141, 3143, 3193, 3016, 3465, 3467, 3517, 3340
2877, 3018, 2982, 3119, 3194, 3342, 3306, 3443, 3518
2878, 3157, 3145, 3158, 3175, 3481, 3469, 3482, 3499
2879, 3125, 3106, 3102, 3225, 3449, 3430, 3426, 3549
2880, 3122, 3136, 3100, 3104, 3446, 3460, 3424, 3428
2881, 3138, 3229, 3210, 3101, 3462, 3553, 3534, 3425
2882, 3124, 3221, 3110, 3107, 3448, 3545, 3434, 3431
2883, 3218, 3118, 3115, 3130, 3542, 3442, 3439, 3454
2884, 3235, 3186, 3177, 3237, 3559, 3510, 3501, 3561
2885, 3172, 3126, 3223, 3184, 3496, 3450, 3547, 3508
2886, 3114, 3117, 3127, 3129, 3438, 3441, 3451, 3453
2887, 3118, 3218, 3128, 3116, 3442, 3542, 3452, 3440
2888, 3171, 3238, 3231, 3232, 3495, 3562, 3555, 3556
2889, 3185, 3130, 3217, 3180, 3509, 3454, 3541, 3504
2890, 3204, 3141, 3209, 3139, 3528, 3465, 3533, 3463
2891, 3203, 3149, 3145, 3140, 3527, 3473, 3469, 3464
2892, 3155, 3153, 3233, 3146, 3479, 3477, 3557, 3470
2893, 3095, 3214, 3134, 3206, 3419, 3538, 3458, 3530
2894, 3150, 3216, 3154, 3158, 3474, 3540, 3478, 3482
2895, 3167, 3160, 3153, 3163, 3491, 3484, 3477, 3487
2896, 3222, 3135, 3132, 3098, 3546, 3459, 3456, 3422
2897, 3215, 3214, 3095, 3136, 3539, 3538, 3419, 3460
2898, 3196, 3189, 3015, 3142, 3520, 3513, 3339, 3466
2899, 3211, 3156, 3142, 3151, 3535, 3480, 3466, 3475
2900, 3141, 3202, 3131, 3209, 3465, 3526, 3455, 3533
2901, 3203, 3140, 3066, 3062, 3527, 3464, 3390, 3386
2902, 3157, 3096, 3140, 3145, 3481, 3420, 3464, 3469
2903, 3205, 3133, 3204, 3139, 3529, 3457, 3528, 3463
2904, 3152, 3197, 3190, 3060, 3476, 3521, 3514, 3384
2905, 3197, 3152, 3161, 3159, 3521, 3476, 3485, 3483
2906, 3126, 3144, 3227, 3122, 3450, 3468, 3551, 3446
2907, 3220, 3166, 3164, 3170, 3544, 3490, 3488, 3494
2908, 3232, 3146, 3138, 3123, 3556, 3470, 3462, 3447
2909, 3160, 3167, 3168, 3165, 3484, 3491, 3492, 3489
2910, 3149, 3203, 3133, 3205, 3473, 3527, 3457, 3529
2911, 3144, 3154, 3215, 3227, 3468, 3478, 3539, 3551
2912, 3145, 3149, 3150, 3158, 3469, 3473, 3474, 3482
2913, 3142, 3015, 3094, 3151, 3466, 3339, 3418, 3475
2914, 3064, 3161, 3165, 3168, 3388, 3485, 3489, 3492
2915, 3153, 3160, 3147, 3228, 3477, 3484, 3471, 3552
2916, 3097, 3167, 3163, 3174, 3421, 3491, 3487, 3498
2917, 3180, 3225, 3121, 3169, 3504, 3549, 3445, 3493
2918, 3229, 3233, 3153, 3228, 3553, 3557, 3477, 3552
2919, 3120, 3137, 3211, 3151, 3444, 3461, 3535, 3475
2920, 3169, 3121, 3157, 3175, 3493, 3445, 3481, 3499
2921, 3159, 3198, 3191, 3063, 3483, 3522, 3515, 3387
2922, 3160, 3165, 3156, 3147, 3484, 3489, 3480, 3471
2923, 3165, 3161, 3152, 3156, 3489, 3485, 3476, 3480
2924, 3169, 3162, 3172, 3176, 3493, 3486, 3496, 3500
2925, 3126, 3172, 3162, 3144, 3450, 3496, 3486, 3468
2926, 3220, 3174, 3163, 3166, 3544, 3498, 3487, 3490
2927, 3166, 3163, 3153, 3155, 3490, 3487, 3477, 3479
2928, 3237, 3177, 3170, 3164, 3561, 3501, 3494, 3488
2929, 3173, 3237, 3238, 3171, 3497, 3561, 3562, 3495
2930, 3175, 3158, 3154, 3226, 3499, 3482, 3478, 3550
2931, 3183, 3180, 3169, 3176, 3507, 3504, 3493, 3500
2932, 3224, 3221, 3170, 3181, 3548, 3545, 3494, 3505
2933, 3240, 3239, 3179, 3178, 3564, 3563, 3503, 3502
2934, 3185, 3234, 3173, 3236, 3509, 3558, 3497, 3560
2935, 3181, 3170, 3177, 3186, 3505, 3494, 3501, 3510
2936, 3175, 3226, 3162, 3169, 3499, 3550, 3486, 3493
2937, 3178, 3179, 3183, 3176, 3502, 3503, 3507, 3500
2938, 3239, 3240, 3182, 3230, 3563, 3564, 3506, 3554
2939, 3184, 3178, 3176, 3172, 3508, 3502, 3500, 3496
2940, 3180, 3183, 3234, 3185, 3504, 3507, 3558, 3509
2941, 3183, 3179, 3235, 3234, 3507, 3503, 3559, 3558
2942, 3124, 3220, 3170, 3221, 3448, 3544, 3494, 3545
2943, 3230, 3182, 3129, 3127, 3554, 3506, 3453, 3451
2944, 3184, 3223, 3129, 3182, 3508, 3547, 3453, 3506
2945, 3236, 3218, 3130, 3185, 3560, 3542, 3454, 3509
2946, 3235, 3179, 3239, 3186, 3559, 3503, 3563, 3510
2947, 2935, 2934, 3188, 3187, 3259, 3258, 3512, 3511
2948, 3063, 3055, 3057, 3190, 3387, 3379, 3381, 3514
2949, 3023, 2995, 2993, 3192, 3347, 3319, 3317, 3516
2950, 3203, 3062, 3194, 3133, 3527, 3386, 3518, 3457
2951, 3137, 3120, 3195, 3135, 3461, 3444, 3519, 3459
2952, 3074, 3032, 3025, 3200, 3398, 3356, 3349, 3524
2953, 3061, 3206, 3131, 3202, 3385, 3530, 3455, 3526
2954, 3141, 3016, 3017, 3202, 3465, 3340, 3341, 3526
2955, 3134, 3209, 3131, 3206, 3458, 3533, 3455, 3530
2956, 3222, 3098, 3210, 3229, 3546, 3422, 3534, 3553
2957, 3107, 3079, 3077, 3213, 3431, 3403, 3401, 3537
2958, 3216, 3150, 3134, 3214, 3540, 3474, 3458, 3538
2959, 3130, 3115, 3112, 3217, 3454, 3439, 3436, 3541
2960, 3173, 3128, 3218, 3236, 3497, 3452, 3542, 3560
2961, 3171, 3232, 3123, 3219, 3495, 3556, 3447, 3543
2962, 3221, 3224, 3113, 3110, 3545, 3548, 3437, 3434
2963, 3229, 3228, 3135, 3222, 3553, 3552, 3459, 3546
2964, 3135, 3228, 3147, 3137, 3459, 3552, 3471, 3461
2965, 3215, 3136, 3122, 3227, 3539, 3460, 3446, 3551
2966, 3230, 3127, 3224, 3181, 3554, 3451, 3548, 3505
2967, 3232, 3231, 3155, 3146, 3556, 3555, 3479, 3470
2968, 3237, 3164, 3231, 3238, 3561, 3488, 3555, 3562
2969, 3237, 3173, 3234, 3235, 3561, 3497, 3558, 3559
2970, 3178, 3184, 3182, 3240, 3502, 3508, 3506, 3564
2971, 3381, 3379, 3241, 3256, 3705, 3703, 3565, 3580
2972, 3293, 3381, 3256, 3272, 3617, 3705, 3580, 3596
2973, 3242, 3241, 3379, 3380, 3566, 3565, 3703, 3704
2974, 3382, 3317, 3273, 3243, 3706, 3641, 3597, 3567
2975, 3384, 3293, 3318, 3513, 3708, 3617, 3642, 3837
2976, 3475, 3418, 3472, 3444, 3799, 3742, 3796, 3768
2977, 3364, 3314, 3320, 3359, 3688, 3638, 3644, 3683
2978, 3322, 3313, 3277, 3247, 3646, 3637, 3601, 3571
2979, 3354, 3310, 3326, 3358, 3678, 3634, 3650, 3682
2980, 3265, 3287, 3298, 3333, 3589, 3611, 3622, 3657
2981, 3361, 3335, 3321, 3365, 3685, 3659, 3645, 3689
2982, 3342, 3518, 3386, 3344, 3666, 3842, 3710, 3668
2983, 3254, 3253, 3328, 3303, 3578, 3577, 3652, 3627
2984, 3302, 3329, 3261, 3283, 3626, 3653, 3585, 3607
2985, 3255, 3254, 3303, 3304, 3579, 3578, 3627, 3628
2986, 3258, 3257, 3305, 3512, 3582, 3581, 3629, 3836
2987, 3467, 3305, 3304, 3517, 3791, 3629, 3628, 3841
2988, 3305, 3467, 3443, 3306, 3629, 3791, 3767, 3630
2989, 3307, 3302, 3283, 3260, 3631, 3626, 3607, 3584
2990, 3284, 3262, 3309, 3300, 3608, 3586, 3633, 3624
2991, 3385, 3526, 3341, 3343, 3709, 3850, 3665, 3667
2992, 3389, 3352, 3354, 3394, 3713, 3676, 3678, 3718
2993, 3324, 3311, 3279, 3249, 3648, 3635, 3603, 3573
2994, 3403, 3364, 3359, 3401, 3727, 3688, 3683, 3725
2995, 3314, 3296, 3276, 3275, 3638, 3620, 3600, 3599
2996, 3316, 3472, 3418, 3383, 3640, 3796, 3742, 3707
2997, 3244, 3273, 3317, 3319, 3568, 3597, 3641, 3643
2998, 3318, 3293, 3272, 3271, 3642, 3617, 3596, 3595
2999, 3319, 3294, 3245, 3244, 3643, 3618, 3569, 3568
3000, 3295, 3337, 3268, 3291, 3619, 3661, 3592, 3615
3001, 3357, 3336, 3335, 3361, 3681, 3660, 3659, 3685
3002, 3278, 3248, 3323, 3312, 3602, 3572, 3647, 3636
3003, 3280, 3279, 3311, 3299, 3604, 3603, 3635, 3623
3004, 3396, 3355, 3350, 3391, 3720, 3679, 3674, 3715
3005, 3252, 3251, 3327, 3301, 3576, 3575, 3651, 3625
3006, 3255, 3304, 3305, 3257, 3579, 3628, 3629, 3581
3007, 3307, 3342, 3344, 3302, 3631, 3666, 3668, 3626
3008, 3330, 3325, 3285, 3263, 3654, 3649, 3609, 3587
3009, 3287, 3264, 3332, 3298, 3611, 3588, 3656, 3622
3010, 3288, 3265, 3333, 3297, 3612, 3589, 3657, 3621
3011, 3334, 3321, 3289, 3266, 3658, 3645, 3613, 3590
3012, 3290, 3289, 3321, 3335, 3614, 3613, 3645, 3659
3013, 3472, 3316, 3337, 3351, 3796, 3640, 3661, 3675
3014, 3337, 3316, 3269, 3268, 3661, 3640, 3593, 3592
3015, 3338, 3318, 3271, 3270, 3662, 3642, 3595, 3594
3016, 3294, 3315, 3274, 3245, 3618, 3639, 3598, 3569
3017, 3275, 3246, 3320, 3314, 3599, 3570, 3644, 3638
3018, 3291, 3267, 3336, 3295, 3615, 3591, 3660, 3619
3019, 3351, 3337, 3295, 3353, 3675, 3661, 3619, 3677
3020, 3296, 3322, 3247, 3276, 3620, 3646, 3571, 3600
3021, 3297, 3334, 3266, 3288, 3621, 3658, 3590, 3612
3022, 3251, 3281, 3310, 3327, 3575, 3605, 3634, 3651
3023, 3286, 3285, 3325, 3331, 3610, 3609, 3649, 3655
3024, 3299, 3326, 3250, 3280, 3623, 3650, 3574, 3604
3025, 3300, 3330, 3263, 3284, 3624, 3654, 3587, 3608
3026, 3301, 3308, 3282, 3252, 3625, 3632, 3606, 3576
3027, 3342, 3307, 3511, 3306, 3666, 3631, 3835, 3630
3028, 3308, 3343, 3341, 3328, 3632, 3667, 3665, 3652
3029, 3328, 3341, 3340, 3303, 3652, 3665, 3664, 3627
3030, 3305, 3306, 3511, 3512, 3629, 3630, 3835, 3836
3031, 3465, 3528, 3443, 3467, 3789, 3852, 3767, 3791
3032, 3511, 3307, 3260, 3259, 3835, 3631, 3584, 3583
3033, 3253, 3282, 3308, 3328, 3577, 3606, 3632, 3652
3034, 3329, 3309, 3262, 3261, 3653, 3633, 3586, 3585
3035, 3302, 3344, 3348, 3329, 3626, 3668, 3672, 3653
3036, 3346, 3301, 3327, 3352, 3670, 3625, 3651, 3676
3037, 3326, 3310, 3281, 3250, 3650, 3634, 3605, 3574
3038, 3362, 3299, 3311, 3366, 3686, 3623, 3635, 3690
3039, 3249, 3278, 3312, 3324, 3573, 3602, 3636, 3648
3040, 3491, 3421, 3392, 3492, 3815, 3745, 3716, 3816
3041, 3248, 3277, 3313, 3323, 3572, 3601, 3637, 3647
3042, 3388, 3523, 3516, 3345, 3712, 3847, 3840, 3669
3043, 3246, 3274, 3315, 3320, 3570, 3598, 3639, 3644
3044, 3270, 3292, 3383, 3338, 3594, 3616, 3707, 3662
3045, 3513, 3318, 3338, 3339, 3837, 3642, 3662, 3663
3046, 3379, 3387, 3515, 3380, 3703, 3711, 3839, 3704
3047, 3243, 3242, 3380, 3382, 3567, 3566, 3704, 3706
3048, 3293, 3384, 3514, 3381, 3617, 3708, 3838, 3705
3049, 3359, 3320, 3315, 3356, 3683, 3644, 3639, 3680
3050, 3392, 3347, 3516, 3523, 3716, 3671, 3840, 3847
3051, 3353, 3295, 3336, 3357, 3677, 3619, 3660, 3681
3052, 3413, 3372, 3368, 3407, 3737, 3696, 3692, 3731
3053, 3358, 3326, 3299, 3362, 3682, 3650, 3623, 3686
3054, 3525, 3346, 3352, 3389, 3849, 3670, 3676, 3713
3055, 3529, 3458, 3474, 3473, 3853, 3782, 3798, 3797
3056, 3340, 3517, 3304, 3303, 3664, 3841, 3628, 3627
3057, 3264, 3286, 3331, 3332, 3588, 3610, 3655, 3656
3058, 3420, 3391, 3390, 3464, 3744, 3715, 3714, 3788
3059, 3365, 3321, 3334, 3369, 3689, 3645, 3658, 3693
3060, 3267, 3290, 3335, 3336, 3591, 3614, 3659, 3660
3061, 3351, 3519, 3444, 3472, 3675, 3843, 3768, 3796
3062, 3339, 3338, 3383, 3418, 3663, 3662, 3707, 3742
3063, 3382, 3345, 3516, 3317, 3706, 3669, 3840, 3641
3064, 3301, 3346, 3343, 3308, 3625, 3670, 3667, 3632
3065, 3350, 3309, 3329, 3348, 3674, 3633, 3653, 3672
3066, 3355, 3300, 3309, 3350, 3679, 3624, 3633, 3674
3067, 3360, 3330, 3300, 3355, 3684, 3654, 3624, 3679
3068, 3363, 3325, 3330, 3360, 3687, 3649, 3654, 3684
3069, 3349, 3294, 3319, 3347, 3673, 3618, 3643, 3671
3070, 3356, 3315, 3294, 3349, 3680, 3639, 3618, 3673
3071, 3352, 3327, 3310, 3354, 3676, 3651, 3634, 3678
3072, 3368, 3296, 3314, 3364, 3692, 3620, 3638, 3688
3073, 3367, 3331, 3325, 3363, 3691, 3655, 3649, 3687
3074, 3372, 3322, 3296, 3368, 3696, 3646, 3620, 3692
3075, 3371, 3332, 3331, 3367, 3695, 3656, 3655, 3691
3076, 3400, 3360, 3355, 3396, 3724, 3684, 3679, 3720
3077, 3461, 3471, 3480, 3535, 3785, 3795, 3804, 3859
3078, 3401, 3359, 3356, 3398, 3725, 3683, 3680, 3722
3079, 3409, 3367, 3363, 3405, 3733, 3691, 3687, 3729
3080, 3373, 3298, 3332, 3371, 3697, 3622, 3656, 3695
3081, 3374, 3313, 3322, 3372, 3698, 3637, 3646, 3696
3082, 3492, 3392, 3523, 3388, 3816, 3716, 3847, 3712
3083, 3525, 3389, 3531, 3419, 3849, 3713, 3855, 3743
3084, 3378, 3323, 3313, 3374, 3702, 3647, 3637, 3698
3085, 3377, 3333, 3298, 3373, 3701, 3657, 3622, 3697
3086, 3366, 3311, 3324, 3370, 3690, 3635, 3648, 3694
3087, 3458, 3529, 3463, 3533, 3782, 3853, 3787, 3857
3088, 3401, 3398, 3427, 3537, 3725, 3722, 3751, 3861
3089, 3297, 3375, 3369, 3334, 3621, 3699, 3693, 3658
3090, 3361, 3399, 3395, 3357, 3685, 3723, 3719, 3681
3091, 3312, 3376, 3370, 3324, 3636, 3700, 3694, 3648
3092, 3394, 3354, 3358, 3397, 3718, 3678, 3682, 3721
3093, 3434, 3407, 3403, 3431, 3758, 3731, 3727, 3755
3094, 3404, 3365, 3369, 3408, 3728, 3689, 3693, 3732
3095, 3402, 3366, 3370, 3406, 3726, 3690, 3694, 3730
3096, 3532, 3397, 3358, 3362, 3856, 3721, 3682, 3686
3097, 3375, 3297, 3333, 3377, 3699, 3621, 3657, 3701
3098, 3462, 3470, 3557, 3553, 3786, 3794, 3881, 3877
3099, 3376, 3312, 3323, 3378, 3700, 3636, 3647, 3702
3100, 3424, 3394, 3397, 3532, 3748, 3718, 3721, 3856
3101, 3399, 3361, 3365, 3404, 3723, 3685, 3689, 3728
3102, 3532, 3362, 3366, 3402, 3856, 3686, 3690, 3726
3103, 3483, 3387, 3514, 3521, 3807, 3711, 3838, 3845
3104, 3388, 3345, 3515, 3522, 3712, 3669, 3839, 3846
3105, 3292, 3269, 3316, 3383, 3616, 3593, 3640, 3707
3106, 3480, 3476, 3520, 3466, 3804, 3800, 3844, 3790
3107, 3476, 3384, 3513, 3520, 3800, 3708, 3837, 3844
3108, 3346, 3525, 3385, 3343, 3670, 3849, 3709, 3667
3109, 3518, 3443, 3528, 3457, 3842, 3767, 3852, 3781
3110, 3390, 3348, 3344, 3386, 3714, 3672, 3668, 3710
3111, 3390, 3391, 3350, 3348, 3714, 3715, 3674, 3672
3112, 3380, 3515, 3345, 3382, 3704, 3839, 3669, 3706
3113, 3485, 3388, 3522, 3483, 3809, 3712, 3846, 3807
3114, 3524, 3349, 3347, 3392, 3848, 3673, 3671, 3716
3115, 3405, 3363, 3360, 3400, 3729, 3687, 3684, 3724
3116, 3411, 3371, 3367, 3409, 3735, 3695, 3691, 3733
3117, 3407, 3368, 3364, 3403, 3731, 3692, 3688, 3727
3118, 3393, 3353, 3357, 3395, 3717, 3677, 3681, 3719
3119, 3519, 3351, 3353, 3393, 3843, 3675, 3677, 3717
3120, 3419, 3530, 3385, 3525, 3743, 3854, 3709, 3849
3121, 3392, 3421, 3536, 3524, 3716, 3745, 3860, 3848
3122, 3415, 3373, 3371, 3411, 3739, 3697, 3695, 3735
3123, 3389, 3394, 3424, 3531, 3713, 3718, 3748, 3855
3124, 3427, 3398, 3524, 3536, 3751, 3722, 3848, 3860
3125, 3416, 3374, 3372, 3413, 3740, 3698, 3696, 3737
3126, 3391, 3420, 3423, 3396, 3715, 3744, 3747, 3720
3127, 3436, 3409, 3405, 3430, 3760, 3733, 3729, 3754
3128, 3414, 3377, 3373, 3415, 3738, 3701, 3697, 3739
3129, 3417, 3378, 3374, 3416, 3741, 3702, 3698, 3740
3130, 3441, 3416, 3413, 3437, 3765, 3740, 3737, 3761
3131, 3376, 3412, 3406, 3370, 3700, 3736, 3730, 3694
3132, 3451, 3441, 3437, 3548, 3775, 3765, 3761, 3872
3133, 3375, 3410, 3408, 3369, 3699, 3734, 3732, 3693
3134, 3422, 3395, 3399, 3534, 3746, 3719, 3723, 3858
3135, 3396, 3423, 3426, 3400, 3720, 3747, 3750, 3724
3136, 3549, 3426, 3423, 3445, 3873, 3750, 3747, 3769
3137, 3462, 3425, 3429, 3447, 3786, 3749, 3753, 3771
3138, 3534, 3399, 3404, 3425, 3858, 3723, 3728, 3749
3139, 3377, 3414, 3410, 3375, 3701, 3738, 3734, 3699
3140, 3408, 3429, 3425, 3404, 3732, 3753, 3749, 3728
3141, 3414, 3440, 3433, 3410, 3738, 3764, 3757, 3734
3142, 3378, 3417, 3412, 3376, 3702, 3741, 3736, 3700
3143, 3406, 3432, 3428, 3402, 3730, 3756, 3752, 3726
3144, 3410, 3433, 3429, 3408, 3734, 3757, 3753, 3732
3145, 3430, 3449, 3541, 3436, 3754, 3773, 3865, 3760
3146, 3412, 3435, 3432, 3406, 3736, 3759, 3756, 3730
3147, 3460, 3419, 3531, 3424, 3784, 3743, 3855, 3748
3148, 3430, 3405, 3400, 3426, 3754, 3729, 3724, 3750
3149, 3456, 3459, 3519, 3393, 3780, 3783, 3843, 3717
3150, 3456, 3393, 3395, 3422, 3780, 3717, 3719, 3746
3151, 3439, 3411, 3409, 3436, 3763, 3735, 3733, 3760
3152, 3420, 3481, 3445, 3423, 3744, 3805, 3769, 3747
3153, 3424, 3532, 3402, 3428, 3748, 3856, 3726, 3752
3154, 3478, 3540, 3538, 3539, 3802, 3864, 3862, 3863
3155, 3544, 3448, 3427, 3498, 3868, 3772, 3751, 3822
3156, 3442, 3415, 3411, 3439, 3766, 3739, 3735, 3763
3157, 3498, 3427, 3536, 3421, 3822, 3751, 3860, 3745
3158, 3437, 3413, 3407, 3434, 3761, 3737, 3731, 3758
3159, 3550, 3478, 3468, 3486, 3874, 3802, 3792, 3810
3160, 3510, 3563, 3554, 3505, 3834, 3887, 3878, 3829
3161, 3495, 3543, 3452, 3497, 3819, 3867, 3776, 3821
3162, 3448, 3431, 3537, 3427, 3772, 3755, 3861, 3751
3163, 3438, 3417, 3416, 3441, 3762, 3741, 3740, 3765
3164, 3450, 3446, 3428, 3432, 3774, 3770, 3752, 3756
3165, 3543, 3433, 3440, 3452, 3867, 3757, 3764, 3776
3166, 3433, 3543, 3447, 3429, 3757, 3867, 3771, 3753
3167, 3504, 3541, 3449, 3549, 3828, 3865, 3773, 3873
3168, 3417, 3438, 3435, 3412, 3741, 3762, 3759, 3736
3169, 3435, 3438, 3453, 3547, 3759, 3762, 3777, 3871
3170, 3435, 3547, 3450, 3432, 3759, 3871, 3774, 3756
3171, 3440, 3414, 3415, 3442, 3764, 3738, 3739, 3766
3172, 3490, 3479, 3555, 3488, 3814, 3803, 3879, 3812
3173, 3465, 3467, 3517, 3340, 3789, 3791, 3841, 3664
3174, 3342, 3306, 3443, 3518, 3666, 3630, 3767, 3842
3175, 3481, 3469, 3482, 3499, 3805, 3793, 3806, 3823
3176, 3449, 3430, 3426, 3549, 3773, 3754, 3750, 3873
3177, 3446, 3460, 3424, 3428, 3770, 3784, 3748, 3752
3178, 3462, 3553, 3534, 3425, 3786, 3877, 3858, 3749
3179, 3448, 3545, 3434, 3431, 3772, 3869, 3758, 3755
3180, 3542, 3442, 3439, 3454, 3866, 3766, 3763, 3778
3181, 3559, 3510, 3501, 3561, 3883, 3834, 3825, 3885
3182, 3496, 3450, 3547, 3508, 3820, 3774, 3871, 3832
3183, 3438, 3441, 3451, 3453, 3762, 3765, 3775, 3777
3184, 3442, 3542, 3452, 3440, 3766, 3866, 3776, 3764
3185, 3495, 3562, 3555, 3556, 3819, 3886, 3879, 3880
3186, 3509, 3454, 3541, 3504, 3833, 3778, 3865, 3828
3187, 3528, 3465, 3533, 3463, 3852, 3789, 3857, 3787
3188, 3527, 3473, 3469, 3464, 3851, 3797, 3793, 3788
3189, 3479, 3477, 3557, 3470, 3803, 3801, 3881, 3794
3190, 3419, 3538, 3458, 3530, 3743, 3862, 3782, 3854
3191, 3474, 3540, 3478, 3482, 3798, 3864, 3802, 3806
3192, 3491, 3484, 3477, 3487, 3815, 3808, 3801, 3811
3193, 3546, 3459, 3456, 3422, 3870, 3783, 3780, 3746
3194, 3539, 3538, 3419, 3460, 3863, 3862, 3743, 3784
3195, 3520, 3513, 3339, 3466, 3844, 3837, 3663, 3790
3196, 3535, 3480, 3466, 3475, 3859, 3804, 3790, 3799
3197, 3465, 3526, 3455, 3533, 3789, 3850, 3779, 3857
3198, 3527, 3464, 3390, 3386, 3851, 3788, 3714, 3710
3199, 3481, 3420, 3464, 3469, 3805, 3744, 3788, 3793
3200, 3529, 3457, 3528, 3463, 3853, 3781, 3852, 3787
3201, 3476, 3521, 3514, 3384, 3800, 3845, 3838, 3708
3202, 3521, 3476, 3485, 3483, 3845, 3800, 3809, 3807
3203, 3450, 3468, 3551, 3446, 3774, 3792, 3875, 3770
3204, 3544, 3490, 3488, 3494, 3868, 3814, 3812, 3818
3205, 3556, 3470, 3462, 3447, 3880, 3794, 3786, 3771
3206, 3484, 3491, 3492, 3489, 3808, 3815, 3816, 3813
3207, 3473, 3527, 3457, 3529, 3797, 3851, 3781, 3853
3208, 3468, 3478, 3539, 3551, 3792, 3802, 3863, 3875
3209, 3469, 3473, 3474, 3482, 3793, 3797, 3798, 3806
3210, 3466, 3339, 3418, 3475, 3790, 3663, 3742, 3799
3211, 3388, 3485, 3489, 3492, 3712, 3809, 3813, 3816
3212, 3477, 3484, 3471, 3552, 3801, 3808, 3795, 3876
3213, 3421, 3491, 3487, 3498, 3745, 3815, 3811, 3822
3214, 3504, 3549, 3445, 3493, 3828, 3873, 3769, 3817
3215, 3553, 3557, 3477, 3552, 3877, 3881, 3801, 3876
3216, 3444, 3461, 3535, 3475, 3768, 3785, 3859, 3799
3217, 3493, 3445, 3481, 3499, 3817, 3769, 3805, 3823
3218, 3483, 3522, 3515, 3387, 3807, 3846, 3839, 3711
3219, 3484, 3489, 3480, 3471, 3808, 3813, 3804, 3795
3220, 3489, 3485, 3476, 3480, 3813, 3809, 3800, 3804
3221, 3493, 3486, 3496, 3500, 3817, 3810, 3820, 3824
3222, 3450, 3496, 3486, 3468, 3774, 3820, 3810, 3792
3223, 3544, 3498, 3487, 3490, 3868, 3822, 3811, 3814
3224, 3490, 3487, 3477, 3479, 3814, 3811, 3801, 3803
3225, 3561, 3501, 3494, 3488, 3885, 3825, 3818, 3812
3226, 3497, 3561, 3562, 3495, 3821, 3885, 3886, 3819
3227, 3499, 3482, 3478, 3550, 3823, 3806, 3802, 3874
3228, 3507, 3504, 3493, 3500, 3831, 3828, 3817, 3824
3229, 3548, 3545, 3494, 3505, 3872, 3869, 3818, 3829
3230, 3564, 3563, 3503, 3502, 3888, 3887, 3827, 3826
3231, 3509, 3558, 3497, 3560, 3833, 3882, 3821, 3884
3232, 3505, 3494, 3501, 3510, 3829, 3818, 3825, 3834
3233, 3499, 3550, 3486, 3493, 3823, 3874, 3810, 3817
3234, 3502, 3503, 3507, 3500, 3826, 3827, 3831, 3824
3235, 3563, 3564, 3506, 3554, 3887, 3888, 3830, 3878
3236, 3508, 3502, 3500, 3496, 3832, 3826, 3824, 3820
3237, 3504, 3507, 3558, 3509, 3828, 3831, 3882, 3833
3238, 3507, 3503, 3559, 3558, 3831, 3827, 3883, 3882
3239, 3448, 3544, 3494, 3545, 3772, 3868, 3818, 3869
3240, 3554, 3506, 3453, 3451, 3878, 3830, 3777, 3775
3241, 3508, 3547, 3453, 3506, 3832, 3871, 3777, 3830
3242, 3560, 3542, 3454, 3509, 3884, 3866, 3778, 3833
3243, 3559, 3503, 3563, 3510, 3883, 3827, 3887, 3834
3244, 3259, 3258, 3512, 3511, 3583, 3582, 3836, 3835
3245, 3387, 3379, 3381, 3514, 3711, 3703, 3705, 3838
3246, 3347, 3319, 3317, 3516, 3671, 3643, 3641, 3840
3247, 3527, 3386, 3518, 3457, 3851, 3710, 3842, 3781
3248, 3461, 3444, 3519, 3459, 3785, 3768, 3843, 3783
3249, 3398, 3356, 3349, 3524, 3722, 3680, 3673, 3848
3250, 3385, 3530, 3455, 3526, 3709, 3854, 3779, 3850
3251, 3465, 3340, 3341, 3526, 3789, 3664, 3665, 3850
3252, 3458, 3533, 3455, 3530, 3782, 3857, 3779, 3854
3253, 3546, 3422, 3534, 3553, 3870, 3746, 3858, 3877
3254, 3431, 3403, 3401, 3537, 3755, 3727, 3725, 3861
3255, 3540, 3474, 3458, 3538, 3864, 3798, 3782, 3862
3256, 3454, 3439, 3436, 3541, 3778, 3763, 3760, 3865
3257, 3497, 3452, 3542, 3560, 3821, 3776, 3866, 3884
3258, 3495, 3556, 3447, 3543, 3819, 3880, 3771, 3867
3259, 3545, 3548, 3437, 3434, 3869, 3872, 3761, 3758
3260, 3553, 3552, 3459, 3546, 3877, 3876, 3783, 3870
3261, 3459, 3552, 3471, 3461, 3783, 3876, 3795, 3785
3262, 3539, 3460, 3446, 3551, 3863, 3784, 3770, 3875
3263, 3554, 3451, 3548, 3505, 3878, 3775, 3872, 3829
3264, 3556, 3555, 3479, 3470, 3880, 3879, 3803, 3794
3265, 3561, 3488, 3555, 3562, 3885, 3812, 3879, 3886
3266, 3561, 3497, 3558, 3559, 3885, 3821, 3882, 3883
3267, 3502, 3508, 3506, 3564, 3826, 3832, 3830, 3888
3268, 3705, 3703, 3565, 3580, 4029, 4027, 3889, 3904
3269, 3617, 3705, 3580, 3596, 3941, 4029, 3904, 3920
3270, 3566, 3565, 3703, 3704, 3890, 3889, 4027, 4028
3271, 3706, 3641, 3597, 3567, 4030, 3965, 3921, 3891
3272, 3708, 3617, 3642, 3837, 4032, 3941, 3966, 4161
3273, 3799, 3742, 3796, 3768, 4123, 4066, 4120, 4092
3274, 3688, 3638, 3644, 3683, 4012, 3962, 3968, 4007
3275, 3646, 3637, 3601, 3571, 3970, 3961, 3925, 3895
3276, 3678, 3634, 3650, 3682, 4002, 3958, 3974, 4006
3277, 3589, 3611, 3622, 3657, 3913, 3935, 3946, 3981
3278, 3685, 3659, 3645, 3689, 4009, 3983, 3969, 4013
3279, 3666, 3842, 3710, 3668, 3990, 4166, 4034, 3992
3280, 3578, 3577, 3652, 3627, 3902, 3901, 3976, 3951
3281, 3626, 3653, 3585, 3607, 3950, 3977, 3909, 3931
3282, 3579, 3578, 3627, 3628, 3903, 3902, 3951, 3952
3283, 3582, 3581, 3629, 3836, 3906, 3905, 3953, 4160
3284, 3791, 3629, 3628, 3841, 4115, 3953, 3952, 4165
3285, 3629, 3791, 3767, 3630, 3953, 4115, 4091, 3954
3286, 3631, 3626, 3607, 3584, 3955, 3950, 3931, 3908
3287, 3608, 3586, 3633, 3624, 3932, 3910, 3957, 3948
3288, 3709, 3850, 3665, 3667, 4033, 4174, 3989, 3991
3289, 3713, 3676, 3678, 3718, 4037, 4000, 4002, 4042
3290, 3648, 3635, 3603, 3573, 3972, 3959, 3927, 3897
3291, 3727, 3688, 3683, 3725, 4051, 4012, 4007, 4049
3292, 3638, 3620, 3600, 3599, 3962, 3944, 3924, 3923
3293, 3640, 3796, 3742, 3707, 3964, 4120, 4066, 4031
3294, 3568, 3597, 3641, 3643, 3892, 3921, 3965, 3967
3295, 3642, 3617, 3596, 3595, 3966, 3941, 3920, 3919
3296, 3643, 3618, 3569, 3568, 3967, 3942, 3893, 3892
3297, 3619, 3661, 3592, 3615, 3943, 3985, 3916, 3939
3298, 3681, 3660, 3659, 3685, 4005, 3984, 3983, 4009
3299, 3602, 3572, 3647, 3636, 3926, 3896, 3971, 3960
3300, 3604, 3603, 3635, 3623, 3928, 3927, 3959, 3947
3301, 3720, 3679, 3674, 3715, 4044, 4003, 3998, 4039
3302, 3576, 3575, 3651, 3625, 3900, 3899, 3975, 3949
3303, 3579, 3628, 3629, 3581, 3903, 3952, 3953, 3905
3304, 3631, 3666, 3668, 3626, 3955, 3990, 3992, 3950
3305, 3654, 3649, 3609, 3587, 3978, 3973, 3933, 3911
3306, 3611, 3588, 3656, 3622, 3935, 3912, 3980, 3946
3307, 3612, 3589, 3657, 3621, 3936, 3913, 3981, 3945
3308, 3658, 3645, 3613, 3590, 3982, 3969, 3937, 3914
3309, 3614, 3613, 3645, 3659, 3938, 3937, 3969, 3983
3310, 3796, 3640, 3661, 3675, 4120, 3964, 3985, 3999
3311, 3661, 3640, 3593, 3592, 3985, 3964, 3917, 3916
3312, 3662, 3642, 3595, 3594, 3986, 3966, 3919, 3918
3313, 3618, 3639, 3598, 3569, 3942, 3963, 3922, 3893
3314, 3599, 3570, 3644, 3638, 3923, 3894, 3968, 3962
3315, 3615, 3591, 3660, 3619, 3939, 3915, 3984, 3943
3316, 3675, 3661, 3619, 3677, 3999, 3985, 3943, 4001
3317, 3620, 3646, 3571, 3600, 3944, 3970, 3895, 3924
3318, 3621, 3658, 3590, 3612, 3945, 3982, 3914, 3936
3319, 3575, 3605, 3634, 3651, 3899, 3929, 3958, 3975
3320, 3610, 3609, 3649, 3655, 3934, 3933, 3973, 3979
3321, 3623, 3650, 3574, 3604, 3947, 3974, 3898, 3928
3322, 3624, 3654, 3587, 3608, 3948, 3978, 3911, 3932
3323, 3625, 3632, 3606, 3576, 3949, 3956, 3930, 3900
3324, 3666, 3631, 3835, 3630, 3990, 3955, 4159, 3954
3325, 3632, 3667, 3665, 3652, 3956, 3991, 3989, 3976
3326, 3652, 3665, 3664, 3627, 3976, 3989, 3988, 3951
3327, 3629, 3630, 3835, 3836, 3953, 3954, 4159, 4160
3328, 3789, 3852, 3767, 3791, 4113, 4176, 4091, 4115
3329, 3835, 3631, 3584, 3583, 4159, 3955, 3908, 3907
3330, 3577, 3606, 3632, 3652, 3901, 3930, 3956, 3976
3331, 3653, 3633, 3586, 3585, 3977, 3957, 3910, 3909
3332, 3626, 3668, 3672, 3653, 3950, 3992, 3996, 3977
3333, 3670, 3625, 3651, 3676, 3994, 3949, 3975, 4000
3334, 3650, 3634, 3605, 3574, 3974, 3958, 3929, 3898
3335, 3686, 3623, 3635, 3690, 4010, 3947, 3959, 4014
3336, 3573, 3602, 3636, 3648, 3897, 3926, 3960, 3972
3337, 3815, 3745, 3716, 3816, 4139, 4069, 4040, 4140
3338, 3572, 3601, 3637, 3647, 3896, 3925, 3961, 3971
3339, 3712, 3847, 3840, 3669, 4036, 4171, 4164, 3993
3340, 3570, 3598, 3639, 3644, 3894, 3922, 3963, 3968
3341, 3594, 3616, 3707, 3662, 3918, 3940, 4031, 3986
3342, 3837, 3642, 3662, 3663, 4161, 3966, 3986, 3987
3343, 3703, 3711, 3839, 3704, 4027, 4035, 4163, 4028
3344, 3567, 3566, 3704, 3706, 3891, 3890, 4028, 4030
3345, 3617, 3708, 3838, 3705, 3941, 4032, 4162, 4029
3346, 3683, 3644, 3639, 3680, 4007, 3968, 3963, 4004
3347, 3716, 3671, 3840, 3847, 4040, 3995, 4164, 4171
3348, 3677, 3619, 3660, 3681, 4001, 3943, 3984, 4005
3349, 3737, 3696, 3692, 3731, 4061, 4020, 4016, 4055
3350, 3682, 3650, 3623, 3686, 4006, 3974, 3947, 4010
3351, 3849, 3670, 3676, 3713, 4173, 3994, 4000, 4037
3352, 3853, 3782, 3798, 3797, 4177, 4106, 4122, 4121
3353, 3664, 3841, 3628, 3627, 3988, 4165, 3952, 3951
3354, 3588, 3610, 3655, 3656, 3912, 3934, 3979, 3980
3355, 3744, 3715, 3714, 3788, 4068, 4039, 4038, 4112
3356, 3689, 3645, 3658, 3693, 4013, 3969, 3982, 4017
3357, 3591, 3614, 3659, 3660, 3915, 3938, 3983, 3984
3358, 3675, 3843, 3768, 3796, 3999, 4167, 4092, 4120
3359, 3663, 3662, 3707, 3742, 3987, 3986, 4031, 4066
3360, 3706, 3669, 3840, 3641, 4030, 3993, 4164, 3965
3361, 3625, 3670, 3667, 3632, 3949, 3994, 3991, 3956
3362, 3674, 3633, 3653, 3672, 3998, 3957, 3977, 3996
3363, 3679, 3624, 3633, 3674, 4003, 3948, 3957, 3998
3364, 3684, 3654, 3624, 3679, 4008, 3978, 3948, 4003
3365, 3687, 3649, 3654, 3684, 4011, 3973, 3978, 4008
3366, 3673, 3618, 3643, 3671, 3997, 3942, 3967, 3995
3367, 3680, 3639, 3618, 3673, 4004, 3963, 3942, 3997
3368, 3676, 3651, 3634, 3678, 4000, 3975, 3958, 4002
3369, 3692, 3620, 3638, 3688, 4016, 3944, 3962, 4012
3370, 3691, 3655, 3649, 3687, 4015, 3979, 3973, 4011
3371, 3696, 3646, 3620, 3692, 4020, 3970, 3944, 4016
3372, 3695, 3656, 3655, 3691, 4019, 3980, 3979, 4015
3373, 3724, 3684, 3679, 3720, 4048, 4008, 4003, 4044
3374, 3785, 3795, 3804, 3859, 4109, 4119, 4128, 4183
3375, 3725, 3683, 3680, 3722, 4049, 4007, 4004, 4046
3376, 3733, 3691, 3687, 3729, 4057, 4015, 4011, 4053
3377, 3697, 3622, 3656, 3695, 4021, 3946, 3980, 4019
3378, 3698, 3637, 3646, 3696, 4022, 3961, 3970, 4020
3379, 3816, 3716, 3847, 3712, 4140, 4040, 4171, 4036
3380, 3849, 3713, 3855, 3743, 4173, 4037, 4179, 4067
3381, 3702, 3647, 3637, 3698, 4026, 3971, 3961, 4022
3382, 3701, 3657, 3622, 3697, 4025, 3981, 3946, 4021
3383, 3690, 3635, 3648, 3694, 4014, 3959, 3972, 4018
3384, 3782, 3853, 3787, 3857, 4106, 4177, 4111, 4181
3385, 3725, 3722, 3751, 3861, 4049, 4046, 4075, 4185
3386, 3621, 3699, 3693, 3658, 3945, 4023, 4017, 3982
3387, 3685, 3723, 3719, 3681, 4009, 4047, 4043, 4005
3388, 3636, 3700, 3694, 3648, 3960, 4024, 4018, 3972
3389, 3718, 3678, 3682, 3721, 4042, 4002, 4006, 4045
3390, 3758, 3731, 3727, 3755, 4082, 4055, 4051, 4079
3391, 3728, 3689, 3693, 3732, 4052, 4013, 4017, 4056
3392, 3726, 3690, 3694, 3730, 4050, 4014, 4018, 4054
3393, 3856, 3721, 3682, 3686, 4180, 4045, 4006, 4010
3394, 3699, 3621, 3657, 3701, 4023, 3945, 3981, 4025
3395, 3786, 3794, 3881, 3877, 4110, 4118, 4205, 4201
3396, 3700, 3636, 3647, 3702, 4024, 3960, 3971, 4026
3397, 3748, 3718, 3721, 3856, 4072, 4042, 4045, 4180
3398, 3723, 3685, 3689, 3728, 4047, 4009, 4013, 4052
3399, 3856, 3686, 3690, 3726, 4180, 4010, 4014, 4050
3400, 3807, 3711, 3838, 3845, 4131, 4035, 4162, 4169
3401, 3712, 3669, 3839, 3846, 4036, 3993, 4163, 4170
3402, 3616, 3593, 3640, 3707, 3940, 3917, 3964, 4031
3403, 3804, 3800, 3844, 3790, 4128, 4124, 4168, 4114
3404, 3800, 3708, 3837, 3844, 4124, 4032, 4161, 4168
3405, 3670, 3849, 3709, 3667, 3994, 4173, 4033, 3991
3406, 3842, 3767, 3852, 3781, 4166, 4091, 4176, 4105
3407, 3714, 3672, 3668, 3710, 4038, 3996, 3992, 4034
3408, 3714, 3715, 3674, 3672, 4038, 4039, 3998, 3996
3409, 3704, 3839, 3669, 3706, 4028, 4163, 3993, 4030
3410, 3809, 3712, 3846, 3807, 4133, 4036, 4170, 4131
3411, 3848, 3673, 3671, 3716, 4172, 3997, 3995, 4040
3412, 3729, 3687, 3684, 3724, 4053, 4011, 4008, 4048
3413, 3735, 3695, 3691, 3733, 4059, 4019, 4015, 4057
3414, 3731, 3692, 3688, 3727, 4055, 4016, 4012, 4051
3415, 3717, 3677, 3681, 3719, 4041, 4001, 4005, 4043
3416, 3843, 3675, 3677, 3717, 4167, 3999, 4001, 4041
3417, 3743, 3854, 3709, 3849, 4067, 4178, 4033, 4173
3418, 3716, 3745, 3860, 3848, 4040, 4069, 4184, 4172
3419, 3739, 3697, 3695, 3735, 4063, 4021, 4019, 4059
3420, 3713, 3718, 3748, 3855, 4037, 4042, 4072, 4179
3421, 3751, 3722, 3848, 3860, 4075, 4046, 4172, 4184
3422, 3740, 3698, 3696, 3737, 4064, 4022, 4020, 4061
3423, 3715, 3744, 3747, 3720, 4039, 4068, 4071, 4044
3424, 3760, 3733, 3729, 3754, 4084, 4057, 4053, 4078
3425, 3738, 3701, 3697, 3739, 4062, 4025, 4021, 4063
3426, 3741, 3702, 3698, 3740, 4065, 4026, 4022, 4064
3427, 3765, 3740, 3737, 3761, 4089, 4064, 4061, 4085
3428, 3700, 3736, 3730, 3694, 4024, 4060, 4054, 4018
3429, 3775, 3765, 3761, 3872, 4099, 4089, 4085, 4196
3430, 3699, 3734, 3732, 3693, 4023, 4058, 4056, 4017
3431, 3746, 3719, 3723, 3858, 4070, 4043, 4047, 4182
3432, 3720, 3747, 3750, 3724, 4044, 4071, 4074, 4048
3433, 3873, 3750, 3747, 3769, 4197, 4074, 4071, 4093
3434, 3786, 3749, 3753, 3771, 4110, 4073, 4077, 4095
3435, 3858, 3723, 3728, 3749, 4182, 4047, 4052, 4073
3436, 3701, 3738, 3734, 3699, 4025, 4062, 4058, 4023
3437, 3732, 3753, 3749, 3728, 4056, 4077, 4073, 4052
3438, 3738, 3764, 3757, 3734, 4062, 4088, 4081, 4058
3439, 3702, 3741, 3736, 3700, 4026, 4065, 4060, 4024
3440, 3730, 3756, 3752, 3726, 4054, 4080, 4076, 4050
3441, 3734, 3757, 3753, 3732, 4058, 4081, 4077, 4056
3442, 3754, 3773, 3865, 3760, 4078, 4097, 4189, 4084
3443, 3736, 3759, 3756, 3730, 4060, 4083, 4080, 4054
3444, 3784, 3743, 3855, 3748, 4108, 4067, 4179, 4072
3445, 3754, 3729, 3724, 3750, 4078, 4053, 4048, 4074
3446, 3780, 3783, 3843, 3717, 4104, 4107, 4167, 4041
3447, 3780, 3717, 3719, 3746, 4104, 4041, 4043, 4070
3448, 3763, 3735, 3733, 3760, 4087, 4059, 4057, 4084
3449, 3744, 3805, 3769, 3747, 4068, 4129, 4093, 4071
3450, 3748, 3856, 3726, 3752, 4072, 4180, 4050, 4076
3451, 3802, 3864, 3862, 3863, 4126, 4188, 4186, 4187
3452, 3868, 3772, 3751, 3822, 4192, 4096, 4075, 4146
3453, 3766, 3739, 3735, 3763, 4090, 4063, 4059, 4087
3454, 3822, 3751, 3860, 3745, 4146, 4075, 4184, 4069
3455, 3761, 3737, 3731, 3758, 4085, 4061, 4055, 4082
3456, 3874, 3802, 3792, 3810, 4198, 4126, 4116, 4134
3457, 3834, 3887, 3878, 3829, 4158, 4211, 4202, 4153
3458, 3819, 3867, 3776, 3821, 4143, 4191, 4100, 4145
3459, 3772, 3755, 3861, 3751, 4096, 4079, 4185, 4075
3460, 3762, 3741, 3740, 3765, 4086, 4065, 4064, 4089
3461, 3774, 3770, 3752, 3756, 4098, 4094, 4076, 4080
3462, 3867, 3757, 3764, 3776, 4191, 4081, 4088, 4100
3463, 3757, 3867, 3771, 3753, 4081, 4191, 4095, 4077
3464, 3828, 3865, 3773, 3873, 4152, 4189, 4097, 4197
3465, 3741, 3762, 3759, 3736, 4065, 4086, 4083, 4060
3466, 3759, 3762, 3777, 3871, 4083, 4086, 4101, 4195
3467, 3759, 3871, 3774, 3756, 4083, 4195, 4098, 4080
3468, 3764, 3738, 3739, 3766, 4088, 4062, 4063, 4090
3469, 3814, 3803, 3879, 3812, 4138, 4127, 4203, 4136
3470, 3789, 3791, 3841, 3664, 4113, 4115, 4165, 3988
3471, 3666, 3630, 3767, 3842, 3990, 3954, 4091, 4166
3472, 3805, 3793, 3806, 3823, 4129, 4117, 4130, 4147
3473, 3773, 3754, 3750, 3873, 4097, 4078, 4074, 4197
3474, 3770, 3784, 3748, 3752, 4094, 4108, 4072, 4076
3475, 3786, 3877, 3858, 3749, 4110, 4201, 4182, 4073
3476, 3772, 3869, 3758, 3755, 4096, 4193, 4082, 4079
3477, 3866, 3766, 3763, 3778, 4190, 4090, 4087, 4102
3478, 3883, 3834, 3825, 3885, 4207, 4158, 4149, 4209
3479, 3820, 3774, 3871, 3832, 4144, 4098, 4195, 4156
3480, 3762, 3765, 3775, 3777, 4086, 4089, 4099, 4101
3481, 3766, 3866, 3776, 3764, 4090, 4190, 4100, 4088
3482, 3819, 3886, 3879, 3880, 4143, 4210, 4203, 4204
3483, 3833, 3778, 3865, 3828, 4157, 4102, 4189, 4152
3484, 3852, 3789, 3857, 3787, 4176, 4113, 4181, 4111
3485, 3851, 3797, 3793, 3788, 4175, 4121, 4117, 4112
3486, 3803, 3801, 3881, 3794, 4127, 4125, 4205, 4118
3487, 3743, 3862, 3782, 3854, 4067, 4186, 4106, 4178
3488, 3798, 3864, 3802, 3806, 4122, 4188, 4126, 4130
3489, 3815, 3808, 3801, 3811, 4139, 4132, 4125, 4135
3490, 3870, 3783, 3780, 3746, 4194, 4107, 4104, 4070
3491, 3863, 3862, 3743, 3784, 4187, 4186, 4067, 4108
3492, 3844, 3837, 3663, 3790, 4168, 4161, 3987, 4114
3493, 3859, 3804, 3790, 3799, 4183, 4128, 4114, 4123
3494, 3789, 3850, 3779, 3857, 4113, 4174, 4103, 4181
3495, 3851, 3788, 3714, 3710, 4175, 4112, 4038, 4034
3496, 3805, 3744, 3788, 3793, 4129, 4068, 4112, 4117
3497, 3853, 3781, 3852, 3787, 4177, 4105, 4176, 4111
3498, 3800, 3845, 3838, 3708, 4124, 4169, 4162, 4032
3499, 3845, 3800, 3809, 3807, 4169, 4124, 4133, 4131
3500, 3774, 3792, 3875, 3770, 4098, 4116, 4199, 4094
3501, 3868, 3814, 3812, 3818, 4192, 4138, 4136, 4142
3502, 3880, 3794, 3786, 3771, 4204, 4118, 4110, 4095
3503, 3808, 3815, 3816, 3813, 4132, 4139, 4140, 4137
3504, 3797, 3851, 3781, 3853, 4121, 4175, 4105, 4177
3505, 3792, 3802, 3863, 3875, 4116, 4126, 4187, 4199
3506, 3793, 3797, 3798, 3806, 4117, 4121, 4122, 4130
3507, 3790, 3663, 3742, 3799, 4114, 3987, 4066, 4123
3508, 3712, 3809, 3813, 3816, 4036, 4133, 4137, 4140
3509, 3801, 3808, 3795, 3876, 4125, 4132, 4119, 4200
3510, 3745, 3815, 3811, 3822, 4069, 4139, 4135, 4146
3511, 3828, 3873, 3769, 3817, 4152, 4197, 4093, 4141
3512, 3877, 3881, 3801, 3876, 4201, 4205, 4125, 4200
3513, 3768, 3785, 3859, 3799, 4092, 4109, 4183, 4123
3514, 3817, 3769, 3805, 3823, 4141, 4093, 4129, 4147
3515, 3807, 3846, 3839, 3711, 4131, 4170, 4163, 4035
3516, 3808, 3813, 3804, 3795, 4132, 4137, 4128, 4119
3517, 3813, 3809, 3800, 3804, 4137, 4133, 4124, 4128
3518, 3817, 3810, 3820, 3824, 4141, 4134, 4144, 4148
3519, 3774, 3820, 3810, 3792, 4098, 4144, 4134, 4116
3520, 3868, 3822, 3811, 3814, 4192, 4146, 4135, 4138
3521, 3814, 3811, 3801, 3803, 4138, 4135, 4125, 4127
3522, 3885, 3825, 3818, 3812, 4209, 4149, 4142, 4136
3523, 3821, 3885, 3886, 3819, 4145, 4209, 4210, 4143
3524, 3823, 3806, 3802, 3874, 4147, 4130, 4126, 4198
3525, 3831, 3828, 3817, 3824, 4155, 4152, 4141, 4148
3526, 3872, 3869, 3818, 3829, 4196, 4193, 4142, 4153
3527, 3888, 3887, 3827, 3826, 4212, 4211, 4151, 4150
3528, 3833, 3882, 3821, 3884, 4157, 4206, 4145, 4208
3529, 3829, 3818, 3825, 3834, 4153, 4142, 4149, 4158
3530, 3823, 3874, 3810, 3817, 4147, 4198, 4134, 4141
3531, 3826, 3827, 3831, 3824, 4150, 4151, 4155, 4148
3532, 3887, 3888, 3830, 3878, 4211, 4212, 4154, 4202
3533, 3832, 3826, 3824, 3820, 4156, 4150, 4148, 4144
3534, 3828, 3831, 3882, 3833, 4152, 4155, 4206, 4157
3535, 3831, 3827, 3883, 3882, 4155, 4151, 4207, 4206
3536, 3772, 3868, 3818, 3869, 4096, 4192, 4142, 4193
3537, 3878, 3830, 3777, 3775, 4202, 4154, 4101, 4099
3538, 3832, 3871, 3777, 3830, 4156, 4195, 4101, 4154
3539, 3884, 3866, 3778, 3833, 4208, 4190, 4102, 4157
3540, 3883, 3827, 3887, 3834, 4207, 4151, 4211, 4158
3541, 3583, 3582, 3836, 3835, 3907, 3906, 4160, 4159
3542, 3711, 3703, 3705, 3838, 4035, 4027, 4029, 4162
3543, 3671, 3643, 3641, 3840, 3995, 3967, 3965, 4164
3544, 3851, 3710, 3842, 3781, 4175, 4034, 4166, 4105
3545, 3785, 3768, 3843, 3783, 4109, 4092, 4167, 4107
3546, 3722, 3680, 3673, 3848, 4046, 4004, 3997, 4172
3547, 3709, 3854, 3779, 3850, 4033, 4178, 4103, 4174
3548, 3789, 3664, 3665, 3850, 4113, 3988, 3989, 4174
3549, 3782, 3857, 3779, 3854, 4106, 4181, 4103, 4178
3550, 3870, 3746, 3858, 3877, 4194, 4070, 4182, 4201
3551, 3755, 3727, 3725, 3861, 4079, 4051, 4049, 4185
3552, 3864, 3798, 3782, 3862, 4188, 4122, 4106, 4186
3553, 3778, 3763, 3760, 3865, 4102, 4087, 4084, 4189
3554, 3821, 3776, 3866, 3884, 4145, 4100, 4190, 4208
3555, 3819, 3880, 3771, 3867, 4143, 4204, 4095, 4191
3556, 3869, 3872, 3761, 3758, 4193, 4196, 4085, 4082
3557, 3877, 3876, 3783, 3870, 4201, 4200, 4107, 4194
3558, 3783, 3876, 3795, 3785, 4107, 4200, 4119, 4109
3559, 3863, 3784, 3770, 3875, 4187, 4108, 4094, 4199
3560, 3878, 3775, 3872, 3829, 4202, 4099, 4196, 4153
3561, 3880, 3879, 3803, 3794, 4204, 4203, 4127, 4118
3562, 3885, 3812, 3879, 3886, 4209, 4136, 4203, 4210
3563, 3885, 3821, 3882, 3883, 4209, 4145, 4206, 4207
3564, 3826, 3832, 3830, 3888, 4150, 4156, 4154, 4212
3565, 4029, 4027, 3889, 3904, 4353, 4351, 4213, 4228
3566, 3941, 4029, 3904, 3920, 4265, 4353, 4228, 4244
3567, 3890, 3889, 4027, 4028, 4214, 4213, 4351, 4352
3568, 4030, 3965, 3921, 3891, 4354, 4289, 4245, 4215
3569, 4032, 3941, 3966, 4161, 4356, 4265, 4290, 4485
3570, 4123, 4066, 4120, 4092, 4447, 4390, 4444, 4416
3571, 4012, 3962, 3968, 4007, 4336, 4286, 4292, 4331
3572, 3970, 3961, 3925, 3895, 4294, 4285, 4249, 4219
3573, 4002, 3958, 3974, 4006, 4326, 4282, 4298, 4330
3574, 3913, 3935, 3946, 3981, 4237, 4259, 4270, 4305
3575, 4009, 3983, 3969, 4013, 4333, 4307, 4293, 4337
3576, 3990, 4166, 4034, 3992, 4314, 4490, 4358, 4316
3577, 3902, 3901, 3976, 3951, 4226, 4225, 4300, 4275
3578, 3950, 3977, 3909, 3931, 4274, 4301, 4233, 4255
3579, 3903, 3902, 3951, 3952, 4227, 4226, 4275, 4276
3580, 3906, 3905, 3953, 4160, 4230, 4229, 4277, 4484
3581, 4115, 3953, 3952, 4165, 4439, 4277, 4276, 4489
3582, 3953, 4115, 4091, 3954, 4277, 4439, 4415, 4278
3583, 3955, 3950, 3931, 3908, 4279, 4274, 4255, 4232
3584, 3932, 3910, 3957, 3948, 4256, 4234, 4281, 4272
3585, 4033, 4174, 3989, 3991, 4357, 4498, 4313, 4315
3586, 4037, 4000, 4002, 4042, 4361, 4324, 4326, 4366
3587, 3972, 3959, 3927, 3897, 4296, 4283, 4251, 4221
3588, 4051, 4012, 4007, 4049, 4375, 4336, 4331, 4373
3589, 3962, 3944, 3924, 3923, 4286, 4268, 4248, 4247
3590, 3964, 4120, 4066, 4031, 4288, 4444, 4390, 4355
3591, 3892, 3921, 3965, 3967, 4216, 4245, 4289, 4291
3592, 3966, 3941, 3920, 3919, 4290, 4265, 4244, 4243
3593, 3967, 3942, 3893, 3892, 4291, 4266, 4217, 4216
3594, 3943, 3985, 3916, 3939, 4267, 4309, 4240, 4263
3595, 4005, 3984, 3983, 4009, 4329, 4308, 4307, 4333
3596, 3926, 3896, 3971, 3960, 4250, 4220, 4295, 4284
3597, 3928, 3927, 3959, 3947, 4252, 4251, 4283, 4271
3598, 4044, 4003, 3998, 4039, 4368, 4327, 4322, 4363
3599, 3900, 3899, 3975, 3949, 4224, 4223, 4299, 4273
3600, 3903, 3952, 3953, 3905, 4227, 4276, 4277, 4229
3601, 3955, 3990, 3992, 3950, 4279, 4314, 4316, 4274
3602, 3978, 3973, 3933, 3911, 4302, 4297, 4257, 4235
3603, 3935, 3912, 3980, 3946, 4259, 4236, 4304, 4270
3604, 3936, 3913, 3981, 3945, 4260, 4237, 4305, 4269
3605, 3982, 3969, 3937, 3914, 4306, 4293, 4261, 4238
3606, 3938, 3937, 3969, 3983, 4262, 4261, 4293, 4307
3607, 4120, 3964, 3985, 3999, 4444, 4288, 4309, 4323
3608, 3985, 3964, 3917, 3916, 4309, 4288, 4241, 4240
3609, 3986, 3966, 3919, 3918, 4310, 4290, 4243, 4242
3610, 3942, 3963, 3922, 3893, 4266, 4287, 4246, 4217
3611, 3923, 3894, 3968, 3962, 4247, 4218, 4292, 4286
3612, 3939, 3915, 3984, 3943, 4263, 4239, 4308, 4267
3613, 3999, 3985, 3943, 4001, 4323, 4309, 4267, 4325
3614, 3944, 3970, 3895, 3924, 4268, 4294, 4219, 4248
3615, 3945, 3982, 3914, 3936, 4269, 4306, 4238, 4260
3616, 3899, 3929, 3958, 3975, 4223, 4253, 4282, 4299
3617, 3934, 3933, 3973, 3979, 4258, 4257, 4297, 4303
3618, 3947, 3974, 3898, 3928, 4271, 4298, 4222, 4252
3619, 3948, 3978, 3911, 3932, 4272, 4302, 4235, 4256
3620, 3949, 3956, 3930, 3900, 4273, 4280, 4254, 4224
3621, 3990, 3955, 4159, 3954, 4314, 4279, 4483, 4278
3622, 3956, 3991, 3989, 3976, 4280, 4315, 4313, 4300
3623, 3976, 3989, 3988, 3951, 4300, 4313, 4312, 4275
3624, 3953, 3954, 4159, 4160, 4277, 4278, 4483, 4484
3625, 4113, 4176, 4091, 4115, 4437, 4500, 4415, 4439
3626, 4159, 3955, 3908, 3907, 4483, 4279, 4232, 4231
3627, 3901, 3930, 3956, 3976, 4225, 4254, 4280, 4300
3628, 3977, 3957, 3910, 3909, 4301, 4281, 4234, 4233
3629, 3950, 3992, 3996, 3977, 4274, 4316, 4320, 4301
3630, 3994, 3949, 3975, 4000, 4318, 4273, 4299, 4324
3631, 3974, 3958, 3929, 3898, 4298, 4282, 4253, 4222
3632, 4010, 3947, 3959, 4014, 4334, 4271, 4283, 4338
3633, 3897, 3926, 3960, 3972, 4221, 4250, 4284, 4296
3634, 4139, 4069, 4040, 4140, 4463, 4393, 4364, 4464
3635, 3896, 3925, 3961, 3971, 4220, 4249, 4285, 4295
3636, 4036, 4171, 4164, 3993, 4360, 4495, 4488, 4317
3637, 3894, 3922, 3963, 3968, 4218, 4246, 4287, 4292
3638, 3918, 3940, 4031, 3986, 4242, 4264, 4355, 4310
3639, 4161, 3966, 3986, 3987, 4485, 4290, 4310, 4311
3640, 4027, 4035, 4163, 4028, 4351, 4359, 4487, 4352
3641, 3891, 3890, 4028, 4030, 4215, 4214, 4352, 4354
3642, 3941, 4032, 4162, 4029, 4265, 4356, 4486, 4353
3643, 4007, 3968, 3963, 4004, 4331, 4292, 4287, 4328
3644, 4040, 3995, 4164, 4171, 4364, 4319, 4488, 4495
3645, 4001, 3943, 3984, 4005, 4325, 4267, 4308, 4329
3646, 4061, 4020, 4016, 4055, 4385, 4344, 4340, 4379
3647, 4006, 3974, 3947, 4010, 4330, 4298, 4271, 4334
3648, 4173, 3994, 4000, 4037, 4497, 4318, 4324, 4361
3649, 4177, 4106, 4122, 4121, 4501, 4430, 4446, 4445
3650, 3988, 4165, 3952, 3951, 4312, 4489, 4276, 4275
3651, 3912, 3934, 3979, 3980, 4236, 4258, 4303, 4304
3652, 4068, 4039, 4038, 4112, 4392, 4363, 4362, 4436
3653, 4013, 3969, 3982, 4017, 4337, 4293, 4306, 4341
3654, 3915, 3938, 3983, 3984, 4239, 4262, 4307, 4308
3655, 3999, 4167, 4092, 4120, 4323, 4491, 4416, 4444
3656, 3987, 3986, 4031, 4066, 4311, 4310, 4355, 4390
3657, 4030, 3993, 4164, 3965, 4354, 4317, 4488, 4289
3658, 3949, 3994, 3991, 3956, 4273, 4318, 4315, 4280
3659, 3998, 3957, 3977, 3996, 4322, 4281, 4301, 4320
3660, 4003, 3948, 3957, 3998, 4327, 4272, 4281, 4322
3661, 4008, 3978, 3948, 4003, 4332, 4302, 4272, 4327
3662, 4011, 3973, 3978, 4008, 4335, 4297, 4302, 4332
3663, 3997, 3942, 3967, 3995, 4321, 4266, 4291, 4319
3664, 4004, 3963, 3942, 3997, 4328, 4287, 4266, 4321
3665, 4000, 3975, 3958, 4002, 4324, 4299, 4282, 4326
3666, 4016, 3944, 3962, 4012, 4340, 4268, 4286, 4336
3667, 4015, 3979, 3973, 4011, 4339, 4303, 4297, 4335
3668, 4020, 3970, 3944, 4016, 4344, 4294, 4268, 4340
3669, 4019, 3980, 3979, 4015, 4343, 4304, 4303, 4339
3670, 4048, 4008, 4003, 4044, 4372, 4332, 4327, 4368
3671, 4109, 4119, 4128, 4183, 4433, 4443, 4452, 4507
3672, 4049, 4007, 4004, 4046, 4373, 4331, 4328, 4370
3673, 4057, 4015, 4011, 4053, 4381, 4339, 4335, 4377
3674, 4021, 3946, 3980, 4019, 4345, 4270, 4304, 4343
3675, 4022, 3961, 3970, 4020, 4346, 4285, 4294, 4344
3676, 4140, 4040, 4171, 4036, 4464, 4364, 4495, 4360
3677, 4173, 4037, 4179, 4067, 4497, 4361, 4503, 4391
3678, 4026, 3971, 3961, 4022, 4350, 4295, 4285, 4346
3679, 4025, 3981, 3946, 4021, 4349, 4305, 4270, 4345
3680, 4014, 3959, 3972, 4018, 4338, 4283, 4296, 4342
3681, 4106, 4177, 4111, 4181, 4430, 4501, 4435, 4505
3682, 4049, 4046, 4075, 4185, 4373, 4370, 4399, 4509
3683, 3945, 4023, 4017, 3982, 4269, 4347, 4341, 4306
3684, 4009, 4047, 4043, 4005, 4333, 4371, 4367, 4329
3685, 3960, 4024, 4018, 3972, 4284, 4348, 4342, 4296
3686, 4042, 4002, 4006, 4045, 4366, 4326, 4330, 4369
3687, 4082, 4055, 4051, 4079, 4406, 4379, 4375, 4403
3688, 4052, 4013, 4017, 4056, 4376, 4337, 4341, 4380
3689, 4050, 4014, 4018, 4054, 4374, 4338, 4342, 4378
3690, 4180, 4045, 4006, 4010, 4504, 4369, 4330, 4334
3691, 4023, 3945, 3981, 4025, 4347, 4269, 4305, 4349
3692, 4110, 4118, 4205, 4201, 4434, 4442, 4529, 4525
3693, 4024, 3960, 3971, 4026, 4348, 4284, 4295, 4350
3694, 4072, 4042, 4045, 4180, 4396, 4366, 4369, 4504
3695, 4047, 4009, 4013, 4052, 4371, 4333, 4337, 4376
3696, 4180, 4010, 4014, 4050, 4504, 4334, 4338, 4374
3697, 4131, 4035, 4162, 4169, 4455, 4359, 4486, 4493
3698, 4036, 3993, 4163, 4170, 4360, 4317, 4487, 4494
3699, 3940, 3917, 3964, 4031, 4264, 4241, 4288, 4355
3700, 4128, 4124, 4168, 4114, 4452, 4448, 4492, 4438
3701, 4124, 4032, 4161, 4168, 4448, 4356, 4485, 4492
3702, 3994, 4173, 4033, 3991, 4318, 4497, 4357, 4315
3703, 4166, 4091, 4176, 4105, 4490, 4415, 4500, 4429
3704, 4038, 3996, 3992, 4034, 4362, 4320, 4316, 4358
3705, 4038, 4039, 3998, 3996, 4362, 4363, 4322, 4320
3706, 4028, 4163, 3993, 4030, 4352, 4487, 4317, 4354
3707, 4133, 4036, 4170, 4131, 4457, 4360, 4494, 4455
3708, 4172, 3997, 3995, 4040, 4496, 4321, 4319, 4364
3709, 4053, 4011, 4008, 4048, 4377, 4335, 4332, 4372
3710, 4059, 4019, 4015, 4057, 4383, 4343, 4339, 4381
3711, 4055, 4016, 4012, 4051, 4379, 4340, 4336, 4375
3712, 4041, 4001, 4005, 4043, 4365, 4325, 4329, 4367
3713, 4167, 3999, 4001, 4041, 4491, 4323, 4325, 4365
3714, 4067, 4178, 4033, 4173, 4391, 4502, 4357, 4497
3715, 4040, 4069, 4184, 4172, 4364, 4393, 4508, 4496
3716, 4063, 4021, 4019, 4059, 4387, 4345, 4343, 4383
3717, 4037, 4042, 4072, 4179, 4361, 4366, 4396, 4503
3718, 4075, 4046, 4172, 4184, 4399, 4370, 4496, 4508
3719, 4064, 4022, 4020, 4061, 4388, 4346, 4344, 4385
3720, 4039, 4068, 4071, 4044, 4363, 4392, 4395, 4368
3721, 4084, 4057, 4053, 4078, 4408, 4381, 4377, 4402
3722, 4062, 4025, 4021, 4063, 4386, 4349, 4345, 4387
3723, 4065, 4026, 4022, 4064, 4389, 4350, 4346, 4388
3724, 4089, 4064, 4061, 4085, 4413, 4388, 4385, 4409
3725, 4024, 4060, 4054, 4018, 4348, 4384, 4378, 4342
3726, 4099, 4089, 4085, 4196, 4423, 4413, 4409, 4520
3727, 4023, 4058, 4056, 4017, 4347, 4382, 4380, 4341
3728, 4070, 4043, 4047, 4182, 4394, 4367, 4371, 4506
3729, 4044, 4071, 4074, 4048, 4368, 4395, 4398, 4372
3730, 4197, 4074, 4071, 4093, 4521, 4398, 4395, 4417
3731, 4110, 4073, 4077, 4095, 4434, 4397, 4401, 4419
3732, 4182, 4047, 4052, 4073, 4506, 4371, 4376, 4397
3733, 4025, 4062, 4058, 4023, 4349, 4386, 4382, 4347
3734, 4056, 4077, 4073, 4052, 4380, 4401, 4397, 4376
3735, 4062, 4088, 4081, 4058, 4386, 4412, 4405, 4382
3736, 4026, 4065, 4060, 4024, 4350, 4389, 4384, 4348
3737, 4054, 4080, 4076, 4050, 4378, 4404, 4400, 4374
3738, 4058, 4081, 4077, 4056, 4382, 4405, 4401, 4380
3739, 4078, 4097, 4189, 4084, 4402, 4421, 4513, 4408
3740, 4060, 4083, 4080, 4054, 4384, 4407, 4404, 4378
3741, 4108, 4067, 4179, 4072, 4432, 4391, 4503, 4396
3742, 4078, 4053, 4048, 4074, 4402, 4377, 4372, 4398
3743, 4104, 4107, 4167, 4041, 4428, 4431, 4491, 4365
3744, 4104, 4041, 4043, 4070, 4428, 4365, 4367, 4394
3745, 4087, 4059, 4057, 4084, 4411, 4383, 4381, 4408
3746, 4068, 4129, 4093, 4071, 4392, 4453, 4417, 4395
3747, 4072, 4180, 4050, 4076, 4396, 4504, 4374, 4400
3748, 4126, 4188, 4186, 4187, 4450, 4512, 4510, 4511
3749, 4192, 4096, 4075, 4146, 4516, 4420, 4399, 4470
3750, 4090, 4063, 4059, 4087, 4414, 4387, 4383, 4411
3751, 4146, 4075, 4184, 4069, 4470, 4399, 4508, 4393
3752, 4085, 4061, 4055, 4082, 4409, 4385, 4379, 4406
3753, 4198, 4126, 4116, 4134, 4522, 4450, 4440, 4458
3754, 4158, 4211, 4202, 4153, 4482, 4535, 4526, 4477
3755, 4143, 4191, 4100, 4145, 4467, 4515, 4424, 4469
3756, 4096, 4079, 4185, 4075, 4420, 4403, 4509, 4399
3757, 4086, 4065, 4064, 4089, 4410, 4389, 4388, 4413
3758, 4098, 4094, 4076, 4080, 4422, 4418, 4400, 4404
3759, 4191, 4081, 4088, 4100, 4515, 4405, 4412, 4424
3760, 4081, 4191, 4095, 4077, 4405, 4515, 4419, 4401
3761, 4152, 4189, 4097, 4197, 4476, 4513, 4421, 4521
3762, 4065, 4086, 4083, 4060, 4389, 4410, 4407, 4384
3763, 4083, 4086, 4101, 4195, 4407, 4410, 4425, 4519
3764, 4083, 4195, 4098, 4080, 4407, 4519, 4422, 4404
3765, 4088, 4062, 4063, 4090, 4412, 4386, 4387, 4414
3766, 4138, 4127, 4203, 4136, 4462, 4451, 4527, 4460
3767, 4113, 4115, 4165, 3988, 4437, 4439, 4489, 4312
3768, 3990, 3954, 4091, 4166, 4314, 4278, 4415, 4490
3769, 4129, 4117, 4130, 4147, 4453, 4441, 4454, 4471
3770, 4097, 4078, 4074, 4197, 4421, 4402, 4398, 4521
3771, 4094, 4108, 4072, 4076, 4418, 4432, 4396, 4400
3772, 4110, 4201, 4182, 4073, 4434, 4525, 4506, 4397
3773, 4096, 4193, 4082, 4079, 4420, 4517, 4406, 4403
3774, 4190, 4090, 4087, 4102, 4514, 4414, 4411, 4426
3775, 4207, 4158, 4149, 4209, 4531, 4482, 4473, 4533
3776, 4144, 4098, 4195, 4156, 4468, 4422, 4519, 4480
3777, 4086, 4089, 4099, 4101, 4410, 4413, 4423, 4425
3778, 4090, 4190, 4100, 4088, 4414, 4514, 4424, 4412
3779, 4143, 4210, 4203, 4204, 4467, 4534, 4527, 4528
3780, 4157, 4102, 4189, 4152, 4481, 4426, 4513, 4476
3781, 4176, 4113, 4181, 4111, 4500, 4437, 4505, 4435
3782, 4175, 4121, 4117, 4112, 4499, 4445, 4441, 4436
3783, 4127, 4125, 4205, 4118, 4451, 4449, 4529, 4442
3784, 4067, 4186, 4106, 4178, 4391, 4510, 4430, 4502
3785, 4122, 4188, 4126, 4130, 4446, 4512, 4450, 4454
3786, 4139, 4132, 4125, 4135, 4463, 4456, 4449, 4459
3787, 4194, 4107, 4104, 4070, 4518, 4431, 4428, 4394
3788, 4187, 4186, 4067, 4108, 4511, 4510, 4391, 4432
3789, 4168, 4161, 3987, 4114, 4492, 4485, 4311, 4438
3790, 4183, 4128, 4114, 4123, 4507, 4452, 4438, 4447
3791, 4113, 4174, 4103, 4181, 4437, 4498, 4427, 4505
3792, 4175, 4112, 4038, 4034, 4499, 4436, 4362, 4358
3793, 4129, 4068, 4112, 4117, 4453, 4392, 4436, 4441
3794, 4177, 4105, 4176, 4111, 4501, 4429, 4500, 4435
3795, 4124, 4169, 4162, 4032, 4448, 4493, 4486, 4356
3796, 4169, 4124, 4133, 4131, 4493, 4448, 4457, 4455
3797, 4098, 4116, 4199, 4094, 4422, 4440, 4523, 4418
3798, 4192, 4138, 4136, 4142, 4516, 4462, 4460, 4466
3799, 4204, 4118, 4110, 4095, 4528, 4442, 4434, 4419
3800, 4132, 4139, 4140, 4137, 4456, 4463, 4464, 4461
3801, 4121, 4175, 4105, 4177, 4445, 4499, 4429, 4501
3802, 4116, 4126, 4187, 4199, 4440, 4450, 4511, 4523
3803, 4117, 4121, 4122, 4130, 4441, 4445, 4446, 4454
3804, 4114, 3987, 4066, 4123, 4438, 4311, 4390, 4447
3805, 4036, 4133, 4137, 4140, 4360, 4457, 4461, 4464
3806, 4125, 4132, 4119, 4200, 4449, 4456, 4443, 4524
3807, 4069, 4139, 4135, 4146, 4393, 4463, 4459, 4470
3808, 4152, 4197, 4093, 4141, 4476, 4521, 4417, 4465
3809, 4201, 4205, 4125, 4200, 4525, 4529, 4449, 4524
3810, 4092, 4109, 4183, 4123, 4416, 4433, 4507, 4447
3811, 4141, 4093, 4129, 4147, 4465, 4417, 4453, 4471
3812, 4131, 4170, 4163, 4035, 4455, 4494, 4487, 4359
3813, 4132, 4137, 4128, 4119, 4456, 4461, 4452, 4443
3814, 4137, 4133, 4124, 4128, 4461, 4457, 4448, 4452
3815, 4141, 4134, 4144, 4148, 4465, 4458, 4468, 4472
3816, 4098, 4144, 4134, 4116, 4422, 4468, 4458, 4440
3817, 4192, 4146, 4135, 4138, 4516, 4470, 4459, 4462
3818, 4138, 4135, 4125, 4127, 4462, 4459, 4449, 4451
3819, 4209, 4149, 4142, 4136, 4533, 4473, 4466, 4460
3820, 4145, 4209, 4210, 4143, 4469, 4533, 4534, 4467
3821, 4147, 4130, 4126, 4198, 4471, 4454, 4450, 4522
3822, 4155, 4152, 4141, 4148, 4479, 4476, 4465, 4472
3823, 4196, 4193, 4142, 4153, 4520, 4517, 4466, 4477
3824, 4212, 4211, 4151, 4150, 4536, 4535, 4475, 4474
3825, 4157, 4206, 4145, 4208, 4481, 4530, 4469, 4532
3826, 4153, 4142, 4149, 4158, 4477, 4466, 4473, 4482
3827, 4147, 4198, 4134, 4141, 4471, 4522, 4458, 4465
3828, 4150, 4151, 4155, 4148, 4474, 4475, 4479, 4472
3829, 4211, 4212, 4154, 4202, 4535, 4536, 4478, 4526
3830, 4156, 4150, 4148, 4144, 4480, 4474, 4472, 4468
3831, 4152, 4155, 4206, 4157, 4476, 4479, 4530, 4481
3832, 4155, 4151, 4207, 4206, 4479, 4475, 4531, 4530
3833, 4096, 4192, 4142, 4193, 4420, 4516, 4466, 4517
3834, 4202, 4154, 4101, 4099, 4526, 4478, 4425, 4423
3835, 4156, 4195, 4101, 4154, 4480, 4519, 4425, 4478
3836, 4208, 4190, 4102, 4157, 4532, 4514, 4426, 4481
3837, 4207, 4151, 4211, 4158, 4531, 4475, 4535, 4482
3838, 3907, 3906, 4160, 4159, 4231, 4230, 4484, 4483
3839, 4035, 4027, 4029, 4162, 4359, 4351, 4353, 4486
3840, 3995, 3967, 3965, 4164, 4319, 4291, 4289, 4488
3841, 4175, 4034, 4166, 4105, 4499, 4358, 4490, 4429
3842, 4109, 4092, 4167, 4107, 4433, 4416, 4491, 4431
3843, 4046, 4004, 3997, 4172, 4370, 4328, 4321, 4496
3844, 4033, 4178, 4103, 4174, 4357, 4502, 4427, 4498
3845, 4113, 3988, 3989, 4174, 4437, 4312, 4313, 4498
3846, 4106, 4181, 4103, 4178, 4430, 4505, 4427, 4502
3847, 4194, 4070, 4182, 4201, 4518, 4394, 4506, 4525
3848, 4079, 4051, 4049, 4185, 4403, 4375, 4373, 4509
3849, 4188, 4122, 4106, 4186, 4512, 4446, 4430, 4510
3850, 4102, 4087, 4084, 4189, 4426, 4411, 4408, 4513
3851, 4145, 4100, 4190, 4208, 4469, 4424, 4514, 4532
3852, 4143, 4204, 4095, 4191, 4467, 4528, 4419, 4515
3853, 4193, 4196, 4085, 4082, 4517, 4520, 4409, 4406
3854, 4201, 4200, 4107, 4194, 4525, 4524, 4431, 4518
3855, 4107, 4200, 4119, 4109, 4431, 4524, 4443, 4433
3856, 4187, 4108, 4094, 4199, 4511, 4432, 4418, 4523
3857, 4202, 4099, 4196, 4153, 4526, 4423, 4520, 4477
3858, 4204, 4203, 4127, 4118, 4528, 4527, 4451, 4442
3859, 4209, 4136, 4203, 4210, 4533, 4460, 4527, 4534
3860, 4209, 4145, 4206, 4207, 4533, 4469, 4530, 4531
3861, 4150, 4156, 4154, 4212, 4474, 4480, 4478, 4536
3862, 4353, 4351, 4213, 4228, 4677, 4675, 4537, 4552
3863, 4265, 4353, 4228, 4244, 4589, 4677, 4552, 4568
3864, 4214, 4213, 4351, 4352, 4538, 4537, 4675, 4676
3865, 4354, 4289, 4245, 4215, 4678, 4613, 4569, 4539
3866, 4356, 4265, 4290, 4485, 4680, 4589, 4614, 4809
3867, 4447, 4390, 4444, 4416, 4771, 4714, 4768, 4740
3868, 4336, 4286, 4292, 4331, 4660, 4610, 4616, 4655
3869, 4294, 4285, 4249, 4219, 4618, 4609, 4573, 4543
3870, 4326, 4282, 4298, 4330, 4650, 4606, 4622, 4654
3871, 4237, 4259, 4270, 4305, 4561, 4583, 4594, 4629
3872, 4333, 4307, 4293, 4337, 4657, 4631, 4617, 4661
3873, 4314, 4490, 4358, 4316, 4638, 4814, 4682, 4640
3874, 4226, 4225, 4300, 4275, 4550, 4549, 4624, 4599
3875, 4274, 4301, 4233, 4255, 4598, 4625, 4557, 4579
3876, 4227, 4226, 4275, 4276, 4551, 4550, 4599, 4600
3877, 4230, 4229, 4277, 4484, 4554, 4553, 4601, 4808
3878, 4439, 4277, 4276, 4489, 4763, 4601, 4600, 4813
3879, 4277, 4439, 4415, 4278, 4601, 4763, 4739, 4602
3880, 4279, 4274, 4255, 4232, 4603, 4598, 4579, 4556
3881, 4256, 4234, 4281, 4272, 4580, 4558, 4605, 4596
3882, 4357, 4498, 4313, 4315, 4681, 4822, 4637, 4639
3883, 4361, 4324, 4326, 4366, 4685, 4648, 4650, 4690
3884, 4296, 4283, 4251, 4221, 4620, 4607, 4575, 4545
3885, 4375, 4336, 4331, 4373, 4699, 4660, 4655, 4697
3886, 4286, 4268, 4248, 4247, 4610, 4592, 4572, 4571
3887, 4288, 4444, 4390, 4355, 4612, 4768, 4714, 4679
3888, 4216, 4245, 4289, 4291, 4540, 4569, 4613, 4615
3889, 4290, 4265, 4244, 4243, 4614, 4589, 4568, 4567
3890, 4291, 4266, 4217, 4216, 4615, 4590, 4541, 4540
3891, 4267, 4309, 4240, 4263, 4591, 4633, 4564, 4587
3892, 4329, 4308, 4307, 4333, 4653, 4632, 4631, 4657
3893, 4250, 4220, 4295, 4284, 4574, 4544, 4619, 4608
3894, 4252, 4251, 4283, 4271, 4576, 4575, 4607, 4595
3895, 4368, 4327, 4322, 4363, 4692, 4651, 4646, 4687
3896, 4224, 4223, 4299, 4273, 4548, 4547, 4623, 4597
3897, 4227, 4276, 4277, 4229, 4551, 4600, 4601, 4553
3898, 4279, 4314, 4316, 4274, 4603, 4638, 4640, 4598
3899, 4302, 4297, 4257, 4235, 4626, 4621, 4581, 4559
3900, 4259, 4236, 4304, 4270, 4583, 4560, 4628, 4594
3901, 4260, 4237, 4305, 4269, 4584, 4561, 4629, 4593
3902, 4306, 4293, 4261, 4238, 4630, 4617, 4585, 4562
3903, 4262, 4261, 4293, 4307, 4586, 4585, 4617, 4631
3904, 4444, 4288, 4309, 4323, 4768, 4612, 4633, 4647
3905, 4309, 4288, 4241, 4240, 4633, 4612, 4565, 4564
3906, 4310, 4290, 4243, 4242, 4634, 4614, 4567, 4566
3907, 4266, 4287, 4246, 4217, 4590, 4611, 4570, 4541
3908, 4247, 4218, 4292, 4286, 4571, 4542, 4616, 4610
3909, 4263, 4239, 4308, 4267, 4587, 4563, 4632, 4591
3910, 4323, 4309, 4267, 4325, 4647, 4633, 4591, 4649
3911, 4268, 4294, 4219, 4248, 4592, 4618, 4543, 4572
3912, 4269, 4306, 4238, 4260, 4593, 4630, 4562, 4584
3913, 4223, 4253, 4282, 4299, 4547, 4577, 4606, 4623
3914, 4258, 4257, 4297, 4303, 4582, 4581, 4621, 4627
3915, 4271, 4298, 4222, 4252, 4595, 4622, 4546, 4576
3916, 4272, 4302, 4235, 4256, 4596, 4626, 4559, 4580
3917, 4273, 4280, 4254, 4224, 4597, 4604, 4578, 4548
3918, 4314, 4279, 4483, 4278, 4638, 4603, 4807, 4602
3919, 4280, 4315, 4313, 4300, 4604, 4639, 4637, 4624
3920, 4300, 4313, 4312, 4275, 4624, 4637, 4636, 4599
3921, 4277, 4278, 4483, 4484, 4601, 4602, 4807, 4808
3922, 4437, 4500, 4415, 4439, 4761, 4824, 4739, 4763
3923, 4483, 4279, 4232, 4231, 4807, 4603, 4556, 4555
3924, 4225, 4254, 4280, 4300, 4549, 4578, 4604, 4624
3925, 4301, 4281, 4234, 4233, 4625, 4605, 4558, 4557
3926, 4274, 4316, 4320, 4301, 4598, 4640, 4644, 4625
3927, 4318, 4273, 4299, 4324, 4642, 4597, 4623, 4648
3928, 4298, 4282, 4253, 4222, 4622, 4606, 4577, 4546
3929, 4334, 4271, 4283, 4338, 4658, 4595, 4607, 4662
3930, 4221, 4250, 4284, 4296, 4545, 4574, 4608, 4620
3931, 4463, 4393, 4364, 4464, 4787, 4717, 4688, 4788
3932, 4220, 4249, 4285, 4295, 4544, 4573, 4609, 4619
3933, 4360, 4495, 4488, 4317, 4684, 4819, 4812, 4641
3934, 4218, 4246, 4287, 4292, 4542, 4570, 4611, 4616
3935, 4242, 4264, 4355, 4310, 4566, 4588, 4679, 4634
3936, 4485, 4290, 4310, 4311, 4809, 4614, 4634, 4635
3937, 4351, 4359, 4487, 4352, 4675, 4683, 4811, 4676
3938, 4215, 4214, 4352, 4354, 4539, 4538, 4676, 4678
3939, 4265, 4356, 4486, 4353, 4589, 4680, 4810, 4677
3940, 4331, 4292, 4287, 4328, 4655, 4616, 4611, 4652
3941, 4364, 4319, 4488, 4495, 4688, 4643, 4812, 4819
3942, 4325, 4267, 4308, 4329, 4649, 4591, 4632, 4653
3943, 4385, 4344, 4340, 4379, 4709, 4668, 4664, 4703
3944, 4330, 4298, 4271, 4334, 4654, 4622, 4595, 4658
3945, 4497, 4318, 4324, 4361, 4821, 4642, 4648, 4685
3946, 4501, 4430, 4446, 4445, 4825, 4754, 4770, 4769
3947, 4312, 4489, 4276, 4275, 4636, 4813, 4600, 4599
3948, 4236, 4258, 4303, 4304, 4560, 4582, 4627, 4628
3949, 4392, 4363, 4362, 4436, 4716, 4687, 4686, 4760
3950, 4337, 4293, 4306, 4341, 4661, 4617, 4630, 4665
3951, 4239, 4262, 4307, 4308, 4563, 4586, 4631, 4632
3952, 4323, 4491, 4416, 4444, 4647, 4815, 4740, 4768
3953, 4311, 4310, 4355, 4390, 4635, 4634, 4679, 4714
3954, 4354, 4317, 4488, 4289, 4678, 4641, 4812, 4613
3955, 4273, 4318, 4315, 4280, 4597, 4642, 4639, 4604
3956, 4322, 4281, 4301, 4320, 4646, 4605, 4625, 4644
3957, 4327, 4272, 4281, 4322, 4651, 4596, 4605, 4646
3958, 4332, 4302, 4272, 4327, 4656, 4626, 4596, 4651
3959, 4335, 4297, 4302, 4332, 4659, 4621, 4626, 4656
3960, 4321, 4266, 4291, 4319, 4645, 4590, 4615, 4643
3961, 4328, 4287, 4266, 4321, 4652, 4611, 4590, 4645
3962, 4324, 4299, 4282, 4326, 4648, 4623, 4606, 4650
3963, 4340, 4268, 4286, 4336, 4664, 4592, 4610, 4660
3964, 4339, 4303, 4297, 4335, 4663, 4627, 4621, 4659
3965, 4344, 4294, 4268, 4340, 4668, 4618, 4592, 4664
3966, 4343, 4304, 4303, 4339, 4667, 4628, 4627, 4663
3967, 4372, 4332, 4327, 4368, 4696, 4656, 4651, 4692
3968, 4433, 4443, 4452, 4507, 4757, 4767, 4776, 4831
3969, 4373, 4331, 4328, 4370, 4697, 4655, 4652, 4694
3970, 4381, 4339, 4335, 4377, 4705, 4663, 4659, 4701
3971, 4345, 4270, 4304, 4343, 4669, 4594, 4628, 4667
3972, 4346, 4285, 4294, 4344, 4670, 4609, 4618, 4668
3973, 4464, 4364, 4495, 4360, 4788, 4688, 4819, 4684
3974, 4497, 4361, 4503, 4391, 4821, 4685, 4827, 4715
3975, 4350, 4295, 4285, 4346, 4674, 4619, 4609, 4670
3976, 4349, 4305, 4270, 4345, 4673, 4629, 4594, 4669
3977, 4338, 4283, 4296, 4342, 4662, 4607, 4620, 4666
3978, 4430, 4501, 4435, 4505, 4754, 4825, 4759, 4829
3979, 4373, 4370, 4399, 4509, 4697, 4694, 4723, 4833
3980, 4269, 4347, 4341, 4306, 4593, 4671, 4665, 4630
3981, 4333, 4371, 4367, 4329, 4657, 4695, 4691, 4653
3982, 4284, 4348, 4342, 4296, 4608, 4672, 4666, 4620
3983, 4366, 4326, 4330, 4369, 4690, 4650, 4654, 4693
3984, 4406, 4379, 4375, 4403, 4730, 4703, 4699, 4727
3985, 4376, 4337, 4341, 4380, 4700, 4661, 4665, 4704
3986, 4374, 4338, 4342, 4378, 4698, 4662, 4666, 4702
3987, 4504, 4369, 4330, 4334, 4828, 4693, 4654, 4658
3988, 4347, 4269, 4305, 4349, 4671, 4593, 4629, 4673
3989, 4434, 4442, 4529, 4525, 4758, 4766, 4853, 4849
3990, 4348, 4284, 4295, 4350, 4672, 4608, 4619, 4674
3991, 4396, 4366, 4369, 4504, 4720, 4690, 4693, 4828
3992, 4371, 4333, 4337, 4376, 4695, 4657, 4661, 4700
3993, 4504, 4334, 4338, 4374, 4828, 4658, 4662, 4698
3994, 4455, 4359, 4486, 4493, 4779, 4683, 4810, 4817
3995, 4360, 4317, 4487, 4494, 4684, 4641, 4811, 4818
3996, 4264, 4241, 4288, 4355, 4588, 4565, 4612, 4679
3997, 4452, 4448, 4492, 4438, 4776, 4772, 4816, 4762
3998, 4448, 4356, 4485, 4492, 4772, 4680, 4809, 4816
3999, 4318, 4497, 4357, 4315, 4642, 4821, 4681, 4639
4000, 4490, 4415, 4500, 4429, 4814, 4739, 4824, 4753
4001, 4362, 4320, 4316, 4358, 4686, 4644, 4640, 4682
4002, 4362, 4363, 4322, 4320, 4686, 4687, 4646, 4644
4003, 4352, 4487, 4317, 4354, 4676, 4811, 4641, 4678
4004, 4457, 4360, 4494, 4455, 4781, 4684, 4818, 4779
4005, 4496, 4321, 4319, 4364, 4820, 4645, 4643, 4688
4006, 4377, 4335, 4332, 4372, 4701, 4659, 4656, 4696
4007, 4383, 4343, 4339, 4381, 4707, 4667, 4663, 4705
4008, 4379, 4340, 4336, 4375, 4703, 4664, 4660, 4699
4009, 4365, 4325, 4329, 4367, 4689, 4649, 4653, 4691
4010, 4491, 4323, 4325, 4365, 4815, 4647, 4649, 4689
4011, 4391, 4502, 4357, 4497, 4715, 4826, 4681, 4821
4012, 4364, 4393, 4508, 4496, 4688, 4717, 4832, 4820
4013, 4387, 4345, 4343, 4383, 4711, 4669, 4667, 4707
4014, 4361, 4366, 4396, 4503, 4685, 4690, 4720, 4827
4015, 4399, 4370, 4496, 4508, 4723, 4694, 4820, 4832
4016, 4388, 4346, 4344, 4385, 4712, 4670, 4668, 4709
4017, 4363, 4392, 4395, 4368, 4687, 4716, 4719, 4692
4018, 4408, 4381, 4377, 4402, 4732, 4705, 4701, 4726
4019, 4386, 4349, 4345, 4387, 4710, 4673, 4669, 4711
4020, 4389, 4350, 4346, 4388, 4713, 4674, 4670, 4712
4021, 4413, 4388, 4385, 4409, 4737, 4712, 4709, 4733
4022, 4348, 4384, 4378, 4342, 4672, 4708, 4702, 4666
4023, 4423, 4413, 4409, 4520, 4747, 4737, 4733, 4844
4024, 4347, 4382, 4380, 4341, 4671, 4706, 4704, 4665
4025, 4394, 4367, 4371, 4506, 4718, 4691, 4695, 4830
4026, 4368, 4395, 4398, 4372, 4692, 4719, 4722, 4696
4027, 4521, 4398, 4395, 4417, 4845, 4722, 4719, 4741
4028, 4434, 4397, 4401, 4419, 4758, 4721, 4725, 4743
4029, 4506, 4371, 4376, 4397, 4830, 4695, 4700, 4721
4030, 4349, 4386, 4382, 4347, 4673, 4710, 4706, 4671
4031, 4380, 4401, 4397, 4376, 4704, 4725, 4721, 4700
4032, 4386, 4412, 4405, 4382, 4710, 4736, 4729, 4706
4033, 4350, 4389, 4384, 4348, 4674, 4713, 4708, 4672
4034, 4378, 4404, 4400, 4374, 4702, 4728, 4724, 4698
4035, 4382, 4405, 4401, 4380, 4706, 4729, 4725, 4704
4036, 4402, 4421, 4513, 4408, 4726, 4745, 4837, 4732
4037, 4384, 4407, 4404, 4378, 4708, 4731, 4728, 4702
4038, 4432, 4391, 4503, 4396, 4756, 4715, 4827, 4720
4039, 4402, 4377, 4372, 4398, 4726, 4701, 4696, 4722
4040, 4428, 4431, 4491, 4365, 4752, 4755, 4815, 4689
4041, 4428, 4365, 4367, 4394, 4752, 4689, 4691, 4718
4042, 4411, 4383, 4381, 4408, 4735, 4707, 4705, 4732
4043, 4392, 4453, 4417, 4395, 4716, 4777, 4741, 4719
4044, 4396, 4504, 4374, 4400, 4720, 4828, 4698, 4724
4045, 4450, 4512, 4510, 4511, 4774, 4836, 4834, 4835
4046, 4516, 4420, 4399, 4470, 4840, 4744, 4723, 4794
4047, 4414, 4387, 4383, 4411, 4738, 4711, 4707, 4735
4048, 4470, 4399, 4508, 4393, 4794, 4723, 4832, 4717
4049, 4409, 4385, 4379, 4406, 4733, 4709, 4703, 4730
4050, 4522, 4450, 4440, 4458, 4846, 4774, 4764, 4782
4051, 4482, 4535, 4526, 4477, 4806, 4859, 4850, 4801
4052, 4467, 4515, 4424, 4469, 4791, 4839, 4748, 4793
4053, 4420, 4403, 4509, 4399, 4744, 4727, 4833, 4723
4054, 4410, 4389, 4388, 4413, 4734, 4713, 4712, 4737
4055, 4422, 4418, 4400, 4404, 4746, 4742, 4724, 4728
4056, 4515, 4405, 4412, 4424, 4839, 4729, 4736, 4748
4057, 4405, 4515, 4419, 4401, 4729, 4839, 4743, 4725
4058, 4476, 4513, 4421, 4521, 4800, 4837, 4745, 4845
4059, 4389, 4410, 4407, 4384, 4713, 4734, 4731, 4708
4060, 4407, 4410, 4425, 4519, 4731, 4734, 4749, 4843
4061, 4407, 4519, 4422, 4404, 4731, 4843, 4746, 4728
4062, 4412, 4386, 4387, 4414, 4736, 4710, 4711, 4738
4063, 4462, 4451, 4527, 4460, 4786, 4775, 4851, 4784
4064, 4437, 4439, 4489, 4312, 4761, 4763, 4813, 4636
4065, 4314, 4278, 4415, 4490, 4638, 4602, 4739, 4814
4066, 4453, 4441, 4454, 4471, 4777, 4765, 4778, 4795
4067, 4421, 4402, 4398, 4521, 4745, 4726, 4722, 4845
4068, 4418, 4432, 4396, 4400, 4742, 4756, 4720, 4724
4069, 4434, 4525, 4506, 4397, 4758, 4849, 4830, 4721
4070, 4420, 4517, 4406, 4403, 4744, 4841, 4730, 4727
4071, 4514, 4414, 4411, 4426, 4838, 4738, 4735, 4750
4072, 4531, 4482, 4473, 4533, 4855, 4806, 4797, 4857
4073, 4468, 4422, 4519, 4480, 4792, 4746, 4843, 4804
4074, 4410, 4413, 4423, 4425, 4734, 4737, 4747, 4749
4075, 4414, 4514, 4424, 4412, 4738, 4838, 4748, 4736
4076, 4467, 4534, 4527, 4528, 4791, 4858, 4851, 4852
4077, 4481, 4426, 4513, 4476, 4805, 4750, 4837, 4800
4078, 4500, 4437, 4505, 4435, 4824, 4761, 4829, 4759
4079, 4499, 4445, 4441, 4436, 4823, 4769, 4765, 4760
4080, 4451, 4449, 4529, 4442, 4775, 4773, 4853, 4766
4081, 4391, 4510, 4430, 4502, 4715, 4834, 4754, 4826
4082, 4446, 4512, 4450, 4454, 4770, 4836, 4774, 4778
4083, 4463, 4456, 4449, 4459, 4787, 4780, 4773, 4783
4084, 4518, 4431, 4428, 4394, 4842, 4755, 4752, 4718
4085, 4511, 4510, 4391, 4432, 4835, 4834, 4715, 4756
4086, 4492, 4485, 4311, 4438, 4816, 4809, 4635, 4762
4087, 4507, 4452, 4438, 4447, 4831, 4776, 4762, 4771
4088, 4437, 4498, 4427, 4505, 4761, 4822, 4751, 4829
4089, 4499, 4436, 4362, 4358, 4823, 4760, 4686, 4682
4090, 4453, 4392, 4436, 4441, 4777, 4716, 4760, 4765
4091, 4501, 4429, 4500, 4435, 4825, 4753, 4824, 4759
4092, 4448, 4493, 4486, 4356, 4772, 4817, 4810, 4680
4093, 4493, 4448, 4457, 4455, 4817, 4772, 4781, 4779
4094, 4422, 4440, 4523, 4418, 4746, 4764, 4847, 4742
4095, 4516, 4462, 4460, 4466, 4840, 4786, 4784, 4790
4096, 4528, 4442, 4434, 4419, 4852, 4766, 4758, 4743
4097, 4456, 4463, 4464, 4461, 4780, 4787, 4788, 4785
4098, 4445, 4499, 4429, 4501, 4769, 4823, 4753, 4825
4099, 4440, 4450, 4511, 4523, 4764, 4774, 4835, 4847
4100, 4441, 4445, 4446, 4454, 4765, 4769, 4770, 4778
4101, 4438, 4311, 4390, 4447, 4762, 4635, 4714, 4771
4102, 4360, 4457, 4461, 4464, 4684, 4781, 4785, 4788
4103, 4449, 4456, 4443, 4524, 4773, 4780, 4767, 4848
4104, 4393, 4463, 4459, 4470, 4717, 4787, 4783, 4794
4105, 4476, 4521, 4417, 4465, 4800, 4845, 4741, 4789
4106, 4525, 4529, 4449, 4524, 4849, 4853, 4773, 4848
4107, 4416, 4433, 4507, 4447, 4740, 4757, 4831, 4771
4108, 4465, 4417, 4453, 4471, 4789, 4741, 4777, 4795
4109, 4455, 4494, 4487, 4359, 4779, 4818, 4811, 4683
4110, 4456, 4461, 4452, 4443, 4780, 4785, 4776, 4767
4111, 4461, 4457, 4448, 4452, 4785, 4781, 4772, 4776
4112, 4465, 4458, 4468, 4472, 4789, 4782, 4792, 4796
4113, 4422, 4468, 4458, 4440, 4746, 4792, 4782, 4764
4114, 4516, 4470, 4459, 4462, 4840, 4794, 4783, 4786
4115, 4462, 4459, 4449, 4451, 4786, 4783, 4773, 4775
4116, 4533, 4473, 4466, 4460, 4857, 4797, 4790, 4784
4117, 4469, 4533, 4534, 4467, 4793, 4857, 4858, 4791
4118, 4471, 4454, 4450, 4522, 4795, 4778, 4774, 4846
4119, 4479, 4476, 4465, 4472, 4803, 4800, 4789, 4796
4120, 4520, 4517, 4466, 4477, 4844, 4841, 4790, 4801
4121, 4536, 4535, 4475, 4474, 4860, 4859, 4799, 4798
4122, 4481, 4530, 4469, 4532, 4805, 4854, 4793, 4856
4123, 4477, 4466, 4473, 4482, 4801, 4790, 4797, 4806
4124, 4471, 4522, 4458, 4465, 4795, 4846, 4782, 4789
4125, 4474, 4475, 4479, 4472, 4798, 4799, 4803, 4796
4126, 4535, 4536, 4478, 4526, 4859, 4860, 4802, 4850
4127, 4480, 4474, 4472, 4468, 4804, 4798, 4796, 4792
4128, 4476, 4479, 4530, 4481, 4800, 4803, 4854, 4805
4129, 4479, 4475, 4531, 4530, 4803, 4799, 4855, 4854
4130, 4420, 4516, 4466, 4517, 4744, 4840, 4790, 4841
4131, 4526, 4478, 4425, 4423, 4850, 4802, 4749, 4747
4132, 4480, 4519, 4425, 4478, 4804, 4843, 4749, 4802
4133, 4532, 4514, 4426, 4481, 4856, 4838, 4750, 4805
4134, 4531, 4475, 4535, 4482, 4855, 4799, 4859, 4806
4135, 4231, 4230, 4484, 4483, 4555, 4554, 4808, 4807
4136, 4359, 4351, 4353, 4486, 4683, 4675, 4677, 4810
4137, 4319, 4291, 4289, 4488, 4643, 4615, 4613, 4812
4138, 4499, 4358, 4490, 4429, 4823, 4682, 4814, 4753
4139, 4433, 4416, 4491, 4431, 4757, 4740, 4815, 4755
4140, 4370, 4328, 4321, 4496, 4694, 4652, 4645, 4820
4141, 4357, 4502, 4427, 4498, 4681, 4826, 4751, 4822
4142, 4437, 4312, 4313, 4498, 4761, 4636, 4637, 4822
4143, 4430, 4505, 4427, 4502, 4754, 4829, 4751, 4826
4144, 4518, 4394, 4506, 4525, 4842, 4718, 4830, 4849
4145, 4403, 4375, 4373, 4509, 4727, 4699, 4697, 4833
4146, 4512, 4446, 4430, 4510, 4836, 4770, 4754, 4834
4147, 4426, 4411, 4408, 4513, 4750, 4735, 4732, 4837
4148, 4469, 4424, 4514, 4532, 4793, 4748, 4838, 4856
4149, 4467, 4528, 4419, 4515, 4791, 4852, 4743, 4839
4150, 4517, 4520, 4409, 4406, 4841, 4844, 4733, 4730
4151, 4525, 4524, 4431, 4518, 4849, 4848, 4755, 4842
4152, 4431, 4524, 4443, 4433, 4755, 4848, 4767, 4757
4153, 4511, 4432, 4418, 4523, 4835, 4756, 4742, 4847
4154, 4526, 4423, 4520, 4477, 4850, 4747, 4844, 4801
4155, 4528, 4527, 4451, 4442, 4852, 4851, 4775, 4766
4156, 4533, 4460, 4527, 4534, 4857, 4784, 4851, 4858
4157, 4533, 4469, 4530, 4531, 4857, 4793, 4854, 4855
4158, 4474, 4480, 4478, 4536, 4798, 4804, 4802, 4860
4159, 4677, 4675, 4537, 4552, 5001, 4999, 4861, 4876
4160, 4589, 4677, 4552, 4568, 4913, 5001, 4876, 4892
4161, 4538, 4537, 4675, 4676, 4862, 4861, 4999, 5000
4162, 4678, 4613, 4569, 4539, 5002, 4937, 4893, 4863
4163, 4680, 4589, 4614, 4809, 5004, 4913, 4938, 5133
4164, 4771, 4714, 4768, 4740, 5095, 5038, 5092, 5064
4165, 4660, 4610, 4616, 4655, 4984, 4934, 4940, 4979
4166, 4618, 4609, 4573, 4543, 4942, 4933, 4897, 4867
4167, 4650, 4606, 4622, 4654, 4974, 4930, 4946, 4978
4168, 4561, 4583, 4594, 4629, 4885, 4907, 4918, 4953
4169, 4657, 4631, 4617, 4661, 4981, 4955, 4941, 4985
4170, 4638, 4814, 4682, 4640, 4962, 5138, 5006, 4964
4171, 4550, 4549, 4624, 4599, 4874, 4873, 4948, 4923
4172, 4598, 4625, 4557, 4579, 4922, 4949, 4881, 4903
4173, 4551, 4550, 4599, 4600, 4875, 4874, 4923, 4924
4174, 4554, 4553, 4601, 4808, 4878, 4877, 4925, 5132
4175, 4763, 4601, 4600, 4813, 5087, 4925, 4924, 5137
4176, 4601, 4763, 4739, 4602, 4925, 5087, 5063, 4926
4177, 4603, 4598, 4579, 4556, 4927, 4922, 4903, 4880
4178, 4580, 4558, 4605, 4596, 4904, 4882, 4929, 4920
4179, 4681, 4822, 4637, 4639, 5005, 5146, 4961, 4963
4180, 4685, 4648, 4650, 4690, 5009, 4972, 4974, 5014
4181, 4620, 4607, 4575, 4545, 4944, 4931, 4899, 4869
4182, 4699, 4660, 4655, 4697, 5023, 4984, 4979, 5021
4183, 4610, 4592, 4572, 4571, 4934, 4916, 4896, 4895
4184, 4612, 4768, 4714, 4679, 4936, 5092, 5038, 5003
4185, 4540, 4569, 4613, 4615, 4864, 4893, 4937, 4939
4186, 4614, 4589, 4568, 4567, 4938, 4913, 4892, 4891
4187, 4615, 4590, 4541, 4540, 4939, 4914, 4865, 4864
4188, 4591, 4633, 4564, 4587, 4915, 4957, 4888, 4911
4189, 4653, 4632, 4631, 4657, 4977, 4956, 4955, 4981
4190, 4574, 4544, 4619, 4608, 4898, 4868, 4943, 4932
4191, 4576, 4575, 4607, 4595, 4900, 4899, 4931, 4919
4192, 4692, 4651, 4646, 4687, 5016, 4975, 4970, 5011
4193, 4548, 4547, 4623, 4597, 4872, 4871, 4947, 4921
4194, 4551, 4600, 4601, 4553, 4875, 4924, 4925, 4877
4195, 4603, 4638, 4640, 4598, 4927, 4962, 4964, 4922
4196, 4626, 4621, 4581, 4559, 4950, 4945, 4905, 4883
4197, 4583, 4560, 4628, 4594, 4907, 4884, 4952, 4918
4198, 4584, 4561, 4629, 4593, 4908, 4885, 4953, 4917
4199, 4630, 4617, 4585, 4562, 4954, 4941, 4909, 4886
4200, 4586, 4585, 4617, 4631, 4910, 4909, 4941, 4955
4201, 4768, 4612, 4633, 4647, 5092, 4936, 4957, 4971
4202, 4633, 4612, 4565, 4564, 4957, 4936, 4889, 4888
4203, 4634, 4614, 4567, 4566, 4958, 4938, 4891, 4890
4204, 4590, 4611, 4570, 4541, 4914, 4935, 4894, 4865
4205, 4571, 4542, 4616, 4610, 4895, 4866, 4940, 4934
4206, 4587, 4563, 4632, 4591, 4911, 4887, 4956, 4915
4207, 4647, 4633, 4591, 4649, 4971, 4957, 4915, 4973
4208, 4592, 4618, 4543, 4572, 4916, 4942, 4867, 4896
4209, 4593, 4630, 4562, 4584, 4917, 4954, 4886, 4908
4210, 4547, 4577, 4606, 4623, 4871, 4901, 4930, 4947
4211, 4582, 4581, 4621, 4627, 4906, 4905, 4945, 4951
4212, 4595, 4622, 4546, 4576, 4919, 4946, 4870, 4900
4213, 4596, 4626, 4559, 4580, 4920, 4950, 4883, 4904
4214, 4597, 4604, 4578, 4548, 4921, 4928, 4902, 4872
4215, 4638, 4603, 4807, 4602, 4962, 4927, 5131, 4926
4216, 4604, 4639, 4637, 4624, 4928, 4963, 4961, 4948
4217, 4624, 4637, 4636, 4599, 4948, 4961, 4960, 4923
4218, 4601, 4602, 4807, 4808, 4925, 4926, 5131, 5132
4219, 4761, 4824, 4739, 4763, 5085, 5148, 5063, 5087
4220, 4807, 4603, 4556, 4555, 5131, 4927, 4880, 4879
4221, 4549, 4578, 4604, 4624, 4873, 4902, 4928, 4948
4222, 4625, 4605, 4558, 4557, 4949, 4929, 4882, 4881
4223, 4598, 4640, 4644, 4625, 4922, 4964, 4968, 4949
4224, 4642, 4597, 4623, 4648, 4966, 4921, 4947, 4972
4225, 4622, 4606, 4577, 4546, 4946, 4930, 4901, 4870
4226, 4658, 4595, 4607, 4662, 4982, 4919, 4931, 4986
4227, 4545, 4574, 4608, 4620, 4869, 4898, 4932, 4944
4228, 4787, 4717, 4688, 4788, 5111, 5041, 5012, 5112
4229, 4544, 4573, 4609, 4619, 4868, 4897, 4933, 4943
4230, 4684, 4819, 4812, 4641, 5008, 5143, 5136, 4965
4231, 4542, 4570, 4611, 4616, 4866, 4894, 4935, 4940
4232, 4566, 4588, 4679, 4634, 4890, 4912, 5003, 4958
4233, 4809, 4614, 4634, 4635, 5133, 4938, 4958, 4959
4234, 4675, 4683, 4811, 4676, 4999, 5007, 5135, 5000
4235, 4539, 4538, 4676, 4678, 4863, 4862, 5000, 5002
4236, 4589, 4680, 4810, 4677, 4913, 5004, 5134, 5001
4237, 4655, 4616, 4611, 4652, 4979, 4940, 4935, 4976
4238, 4688, 4643, 4812, 4819, 5012, 4967, 5136, 5143
4239, 4649, 4591, 4632, 4653, 4973, 4915, 4956, 4977
4240, 4709, 4668, 4664, 4703, 5033, 4992, 4988, 5027
4241, 4654, 4622, 4595, 4658, 4978, 4946, 4919, 4982
4242, 4821, 4642, 4648, 4685, 5145, 4966, 4972, 5009
4243, 4825, 4754, 4770, 4769, 5149, 5078, 5094, 5093
4244, 4636, 4813, 4600, 4599, 4960, 5137, 4924, 4923
4245, 4560, 4582, 4627, 4628, 4884, 4906, 4951, 4952
4246, 4716, 4687, 4686, 4760, 5040, 5011, 5010, 5084
4247, 4661, 4617, 4630, 4665, 4985, 4941, 4954, 4989
4248, 4563, 4586, 4631, 4632, 4887, 4910, 4955, 4956
4249, 4647, 4815, 4740, 4768, 4971, 5139, 5064, 5092
4250, 4635, 4634, 4679, 4714, 4959, 4958, 5003, 5038
4251, 4678, 4641, 4812, 4613, 5002, 4965, 5136, 4937
4252, 4597, 4642, 4639, 4604, 4921, 4966, 4963, 4928
4253, 4646, 4605, 4625, 4644, 4970, 4929, 4949, 4968
4254, 4651, 4596, 4605, 4646, 4975, 4920, 4929, 4970
4255, 4656, 4626, 4596, 4651, 4980, 4950, 4920, 4975
4256, 4659, 4621, 4626, 4656, 4983, 4945, 4950, 4980
4257, 4645, 4590, 4615, 4643, 4969, 4914, 4939, 4967
4258, 4652, 4611, 4590, 4645, 4976, 4935, 4914, 4969
4259, 4648, 4623, 4606, 4650, 4972, 4947, 4930, 4974
4260, 4664, 4592, 4610, 4660, 4988, 4916, 4934, 4984
4261, 4663, 4627, 4621, 4659, 4987, 4951, 4945, 4983
4262, 4668, 4618, 4592, 4664, 4992, 4942, 4916, 4988
4263, 4667, 4628, 4627, 4663, 4991, 4952, 4951, 4987
4264, 4696, 4656, 4651, 4692, 5020, 4980, 4975, 5016
4265, 4757, 4767, 4776, 4831, 5081, 5091, 5100, 5155
4266, 4697, 4655, 4652, 4694, 5021, 4979, 4976, 5018
4267, 4705, 4663, 4659, 4701, 5029, 4987, 4983, 5025
4268, 4669, 4594, 4628, 4667, 4993, 4918, 4952, 4991
4269, 4670, 4609, 4618, 4668, 4994, 4933, 4942, 4992
4270, 4788, 4688, 4819, 4684, 5112, 5012, 5143, 5008
4271, 4821, 4685, 4827, 4715, 5145, 5009, 5151, 5039
4272, 4674, 4619, 4609, 4670, 4998, 4943, 4933, 4994
4273, 4673, 4629, 4594, 4669, 4997, 4953, 4918, 4993
4274, 4662, 4607, 4620, 4666, 4986, 4931, 4944, 4990
4275, 4754, 4825, 4759, 4829, 5078, 5149, 5083, 5153
4276, 4697, 4694, 4723, 4833, 5021, 5018, 5047, 5157
4277, 4593, 4671, 4665, 4630, 4917, 4995, 4989, 4954
4278, 4657, 4695, 4691, 4653, 4981, 5019, 5015, 4977
4279, 4608, 4672, 4666, 4620, 4932, 4996, 4990, 4944
4280, 4690, 4650, 4654, 4693, 5014, 4974, 4978, 5017
4281, 4730, 4703, 4699, 4727, 5054, 5027, 5023, 5051
4282, 4700, 4661, 4665, 4704, 5024, 4985, 4989, 5028
4283, 4698, 4662, 4666, 4702, 5022, 4986, 4990, 5026
4284, 4828, 4693, 4654, 4658, 5152, 5017, 4978, 4982
4285, 4671, 4593, 4629, 4673, 4995, 4917, 4953, 4997
4286, 4758, 4766, 4853, 4849, 5082, 5090, 5177, 5173
4287, 4672, 4608, 4619, 4674, 4996, 4932, 4943, 4998
4288, 4720, 4690, 4693, 4828, 5044, 5014, 5017, 5152
4289, 4695, 4657, 4661, 4700, 5019, 4981, 4985, 5024
4290, 4828, 4658, 4662, 4698, 5152, 4982, 4986, 5022
4291, 4779, 4683, 4810, 4817, 5103, 5007, 5134, 5141
4292, 4684, 4641, 4811, 4818, 5008, 4965, 5135, 5142
4293, 4588, 4565, 4612, 4679, 4912, 4889, 4936, 5003
4294, 4776, 4772, 4816, 4762, 5100, 5096, 5140, 5086
4295, 4772, 4680, 4809, 4816, 5096, 5004, 5133, 5140
4296, 4642, 4821, 4681, 4639, 4966, 5145, 5005, 4963
4297, 4814, 4739, 4824, 4753, 5138, 5063, 5148, 5077
4298, 4686, 4644, 4640, 4682, 5010, 4968, 4964, 5006
4299, 4686, 4687, 4646, 4644, 5010, 5011, 4970, 4968
4300, 4676, 4811, 4641, 4678, 5000, 5135, 4965, 5002
4301, 4781, 4684, 4818, 4779, 5105, 5008, 5142, 5103
4302, 4820, 4645, 4643, 4688, 5144, 4969, 4967, 5012
4303, 4701, 4659, 4656, 4696, 5025, 4983, 4980, 5020
4304, 4707, 4667, 4663, 4705, 5031, 4991, 4987, 5029
4305, 4703, 4664, 4660, 4699, 5027, 4988, 4984, 5023
4306, 4689, 4649, 4653, 4691, 5013, 4973, 4977, 5015
4307, 4815, 4647, 4649, 4689, 5139, 4971, 4973, 5013
4308, 4715, 4826, 4681, 4821, 5039, 5150, 5005, 5145
4309, 4688, 4717, 4832, 4820, 5012, 5041, 5156, 5144
4310, 4711, 4669, 4667, 4707, 5035, 4993, 4991, 5031
4311, 4685, 4690, 4720, 4827, 5009, 5014, 5044, 5151
4312, 4723, 4694, 4820, 4832, 5047, 5018, 5144, 5156
4313, 4712, 4670, 4668, 4709, 5036, 4994, 4992, 5033
4314, 4687, 4716, 4719, 4692, 5011, 5040, 5043, 5016
4315, 4732, 4705, 4701, 4726, 5056, 5029, 5025, 5050
4316, 4710, 4673, 4669, 4711, 5034, 4997, 4993, 5035
4317, 4713, 4674, 4670, 4712, 5037, 4998, 4994, 5036
4318, 4737, 4712, 4709, 4733, 5061, 5036, 5033, 5057
4319, 4672, 4708, 4702, 4666, 4996, 5032, 5026, 4990
4320, 4747, 4737, 4733, 4844, 5071, 5061, 5057, 5168
4321, 4671, 4706, 4704, 4665, 4995, 5030, 5028, 4989
4322, 4718, 4691, 4695, 4830, 5042, 5015, 5019, 5154
4323, 4692, 4719, 4722, 4696, 5016, 5043, 5046, 5020
4324, 4845, 4722, 4719, 4741, 5169, 5046, 5043, 5065
4325, 4758, 4721, 4725, 4743, 5082, 5045, 5049, 5067
4326, 4830, 4695, 4700, 4721, 5154, 5019, 5024, 5045
4327, 4673, 4710, 4706, 4671, 4997, 5034, 5030, 4995
4328, 4704, 4725, 4721, 4700, 5028, 5049, 5045, 5024
4329, 4710, 4736, 4729, 4706, 5034, 5060, 5053, 5030
4330, 4674, 4713, 4708, 4672, 4998, 5037, 5032, 4996
4331, 4702, 4728, 4724, 4698, 5026, 5052, 5048, 5022
4332, 4706, 4729, 4725, 4704, 5030, 5053, 5049, 5028
4333, 4726, 4745, 4837, 4732, 5050, 5069, 5161, 5056
4334, 4708, 4731, 4728, 4702, 5032, 5055, 5052, 5026
4335, 4756, 4715, 4827, 4720, 5080, 5039, 5151, 5044
4336, 4726, 4701, 4696, 4722, 5050, 5025, 5020, 5046
4337, 4752, 4755, 4815, 4689, 5076, 5079, 5139, 5013
4338, 4752, 4689, 4691, 4718, 5076, 5013, 5015, 5042
4339, 4735, 4707, 4705, 4732, 5059, 5031, 5029, 5056
4340, 4716, 4777, 4741, 4719, 5040, 5101, 5065, 5043
4341, 4720, 4828, 4698, 4724, 5044, 5152, 5022, 5048
4342, 4774, 4836, 4834, 4835, 5098, 5160, 5158, 5159
4343, 4840, 4744, 4723, 4794, 5164, 5068, 5047, 5118
4344, 4738, 4711, 4707, 4735, 5062, 5035, 5031, 5059
4345, 4794, 4723, 4832, 4717, 5118, 5047, 5156, 5041
4346, 4733, 4709, 4703, 4730, 5057, 5033, 5027, 5054
4347, 4846, 4774, 4764, 4782, 5170, 5098, 5088, 5106
4348, 4806, 4859, 4850, 4801, 5130, 5183, 5174, 5125
4349, 4791, 4839, 4748, 4793, 5115, 5163, 5072, 5117
4350, 4744, 4727, 4833, 4723, 5068, 5051, 5157, 5047
4351, 4734, 4713, 4712, 4737, 5058, 5037, 5036, 5061
4352, 4746, 4742, 4724, 4728, 5070, 5066, 5048, 5052
4353, 4839, 4729, 4736, 4748, 5163, 5053, 5060, 5072
4354, 4729, 4839, 4743, 4725, 5053, 5163, 5067, 5049
4355, 4800, 4837, 4745, 4845, 5124, 5161, 5069, 5169
4356, 4713, 4734, 4731, 4708, 5037, 5058, 5055, 5032
4357, 4731, 4734, 4749, 4843, 5055, 5058, 5073, 5167
4358, 4731, 4843, 4746, 4728, 5055, 5167, 5070, 5052
4359, 4736, 4710, 4711, 4738, 5060, 5034, 5035, 5062
4360, 4786, 4775, 4851, 4784, 5110, 5099, 5175, 5108
4361, 4761, 4763, 4813, 4636, 5085, 5087, 5137, 4960
4362, 4638, 4602, 4739, 4814, 4962, 4926, 5063, 5138
4363, 4777, 4765, 4778, 4795, 5101, 5089, 5102, 5119
4364, 4745, 4726, 4722, 4845, 5069, 5050, 5046, 5169
4365, 4742, 4756, 4720, 4724, 5066, 5080, 5044, 5048
4366, 4758, 4849, 4830, 4721, 5082, 5173, 5154, 5045
4367, 4744, 4841, 4730, 4727, 5068, 5165, 5054, 5051
4368, 4838, 4738, 4735, 4750, 5162, 5062, 5059, 5074
4369, 4855, 4806, 4797, 4857, 5179, 5130, 5121, 5181
4370, 4792, 4746, 4843, 4804, 5116, 5070, 5167, 5128
4371, 4734, 4737, 4747, 4749, 5058, 5061, 5071, 5073
4372, 4738, 4838, 4748, 4736, 5062, 5162, 5072, 5060
4373, 4791, 4858, 4851, 4852, 5115, 5182, 5175, 5176
4374, 4805, 4750, 4837, 4800, 5129, 5074, 5161, 5124
4375, 4824, 4761, 4829, 4759, 5148, 5085, 5153, 5083
4376, 4823, 4769, 4765, 4760, 5147, 5093, 5089, 5084
4377, 4775, 4773, 4853, 4766, 5099, 5097, 5177, 5090
4378, 4715, 4834, 4754, 4826, 5039, 5158, 5078, 5150
4379, 4770, 4836, 4774, 4778, 5094, 5160, 5098, 5102
4380, 4787, 4780, 4773, 4783, 5111, 5104, 5097, 5107
4381, 4842, 4755, 4752, 4718, 5166, 5079, 5076, 5042
4382, 4835, 4834, 4715, 4756, 5159, 5158, 5039, 5080
4383, 4816, 4809, 4635, 4762, 5140, 5133, 4959, 5086
4384, 4831, 4776, 4762, 4771, 5155, 5100, 5086, 5095
4385, 4761, 4822, 4751, 4829, 5085, 5146, 5075, 5153
4386, 4823, 4760, 4686, 4682, 5147, 5084, 5010, 5006
4387, 4777, 4716, 4760, 4765, 5101, 5040, 5084, 5089
4388, 4825, 4753, 4824, 4759, 5149, 5077, 5148, 5083
4389, 4772, 4817, 4810, 4680, 5096, 5141, 5134, 5004
4390, 4817, 4772, 4781, 4779, 5141, 5096, 5105, 5103
4391, 4746, 4764, 4847, 4742, 5070, 5088, 5171, 5066
4392, 4840, 4786, 4784, 4790, 5164, 5110, 5108, 5114
4393, 4852, 4766, 4758, 4743, 5176, 5090, 5082, 5067
4394, 4780, 4787, 4788, 4785, 5104, 5111, 5112, 5109
4395, 4769, 4823, 4753, 4825, 5093, 5147, 5077, 5149
4396, 4764, 4774, 4835, 4847, 5088, 5098, 5159, 5171
4397, 4765, 4769, 4770, 4778, 5089, 5093, 5094, 5102
4398, 4762, 4635, 4714, 4771, 5086, 4959, 5038, 5095
4399, 4684, 4781, 4785, 4788, 5008, 5105, 5109, 5112
4400, 4773, 4780, 4767, 4848, 5097, 5104, 5091, 5172
4401, 4717, 4787, 4783, 4794, 5041, 5111, 5107, 5118
4402, 4800, 4845, 4741, 4789, 5124, 5169, 5065, 5113
4403, 4849, 4853, 4773, 4848, 5173, 5177, 5097, 5172
4404, 4740, 4757, 4831, 4771, 5064, 5081, 5155, 5095
4405, 4789, 4741, 4777, 4795, 5113, 5065, 5101, 5119
4406, 4779, 4818, 4811, 4683, 5103, 5142, 5135, 5007
4407, 4780, 4785, 4776, 4767, 5104, 5109, 5100, 5091
4408, 4785, 4781, 4772, 4776, 5109, 5105, 5096, 5100
4409, 4789, 4782, 4792, 4796, 5113, 5106, 5116, 5120
4410, 4746, 4792, 4782, 4764, 5070, 5116, 5106, 5088
4411, 4840, 4794, 4783, 4786, 5164, 5118, 5107, 5110
4412, 4786, 4783, 4773, 4775, 5110, 5107, 5097, 5099
4413, 4857, 4797, 4790, 4784, 5181, 5121, 5114, 5108
4414, 4793, 4857, 4858, 4791, 5117, 5181, 5182, 5115
4415, 4795, 4778, 4774, 4846, 5119, 5102, 5098, 5170
4416, 4803, 4800, 4789, 4796, 5127, 5124, 5113, 5120
4417, 4844, 4841, 4790, 4801, 5168, 5165, 5114, 5125
4418, 4860, 4859, 4799, 4798, 5184, 5183, 5123, 5122
4419, 4805, 4854, 4793, 4856, 5129, 5178, 5117, 5180
4420, 4801, 4790, 4797, 4806, 5125, 5114, 5121, 5130
4421, 4795, 4846, 4782, 4789, 5119, 5170, 5106, 5113
4422, 4798, 4799, 4803, 4796, 5122, 5123, 5127, 5120
4423, 4859, 4860, 4802, 4850, 5183, 5184, 5126, 5174
4424, 4804, 4798, 4796, 4792, 5128, 5122, 5120, 5116
4425, 4800, 4803, 4854, 4805, 5124, 5127, 5178, 5129
4426, 4803, 4799, 4855, 4854, 5127, 5123, 5179, 5178
4427, 4744, 4840, 4790, 4841, 5068, 5164, 5114, 5165
4428, 4850, 4802, 4749, 4747, 5174, 5126, 5073, 5071
4429, 4804, 4843, 4749, 4802, 5128, 5167, 5073, 5126
4430, 4856, 4838, 4750, 4805, 5180, 5162, 5074, 5129
4431, 4855, 4799, 4859, 4806, 5179, 5123, 5183, 5130
4432, 4555, 4554, 4808, 4807, 4879, 4878, 5132, 5131
4433, 4683, 4675, 4677, 4810, 5007, 4999, 5001, 5134
4434, 4643, 4615, 4613, 4812, 4967, 4939, 4937, 5136
4435, 4823, 4682, 4814, 4753, 5147, 5006, 5138, 5077
4436, 4757, 4740, 4815, 4755, 5081, 5064, 5139, 5079
4437, 4694, 4652, 4645, 4820, 5018, 4976, 4969, 5144
4438, 4681, 4826, 4751, 4822, 5005, 5150, 5075, 5146
4439, 4761, 4636, 4637, 4822, 5085, 4960, 4961, 5146
4440, 4754, 4829, 4751, 4826, 5078, 5153, 5075, 5150
4441, 4842, 4718, 4830, 4849, 5166, 5042, 5154, 5173
4442, 4727, 4699, 4697, 4833, 5051, 5023, 5021, 5157
4443, 4836, 4770, 4754, 4834, 5160, 5094, 5078, 5158
4444, 4750, 4735, 4732, 4837, 5074, 5059, 5056, 5161
4445, 4793, 4748, 4838, 4856, 5117, 5072, 5162, 5180
4446, 4791, 4852, 4743, 4839, 5115, 5176, 5067, 5163
4447, 4841, 4844, 4733, 4730, 5165, 5168, 5057, 5054
4448, 4849, 4848, 4755, 4842, 5173, 5172, 5079, 5166
4449, 4755, 4848, 4767, 4757, 5079, 5172, 5091, 5081
4450, 4835, 4756, 4742, 4847, 5159, 5080, 5066, 5171
4451, 4850, 4747, 4844, 4801, 5174, 5071, 5168, 5125
4452, 4852, 4851, 4775, 4766, 5176, 5175, 5099, 5090
4453, 4857, 4784, 4851, 4858, 5181, 5108, 5175, 5182
4454, 4857, 4793, 4854, 4855, 5181, 5117, 5178, 5179
4455, 4798, 4804, 4802, 4860, 5122, 5128, 5126, 5184
4456, 5001, 4999, 4861, 4876, 5325, 5323, 5185, 5200
4457, 4913, 5001, 4876, 4892, 5237, 5325, 5200, 5216
4458, 4862, 4861, 4999, 5000, 5186, 5185, 5323, 5324
4459, 5002, 4937, 4893, 4863, 5326, 5261, 5217, 5187
4460, 5004, 4913, 4938, 5133, 5328, 5237, 5262, 5457
4461, 5095, 5038, 5092, 5064, 5419, 5362, 5416, 5388
4462, 4984, 4934, 4940, 4979, 5308, 5258, 5264, 5303
4463, 4942, 4933, 4897, 4867, 5266, 5257, 5221, 5191
4464, 4974, 4930, 4946, 4978, 5298, 5254, 5270, 5302
4465, 4885, 4907, 4918, 4953, 5209, 5231, 5242, 5277
4466, 4981, 4955, 4941, 4985, 5305, 5279, 5265, 5309
4467, 4962, 5138, 5006, 4964, 5286, 5462, 5330, 5288
4468, 4874, 4873, 4948, 4923, 5198, 5197, 5272, 5247
4469, 4922, 4949, 4881, 4903, 5246, 5273, 5205, 5227
4470, 4875, 4874, 4923, 4924, 5199, 5198, 5247, 5248
4471, 4878, 4877, 4925, 5132, 5202, 5201, 5249, 5456
4472, 5087, 4925, 4924, 5137, 5411, 5249, 5248, 5461
4473, 4925, 5087, 5063, 4926, 5249, 5411, 5387, 5250
4474, 4927, 4922, 4903, 4880, 5251, 5246, 5227, 5204
4475, 4904, 4882, 4929, 4920, 5228, 5206, 5253, 5244
4476, 5005, 5146, 4961, 4963, 5329, 5470, 5285, 5287
4477, 5009, 4972, 4974, 5014, 5333, 5296, 5298, 5338
4478, 4944, 4931, 4899, 4869, 5268, 5255, 5223, 5193
4479, 5023, 4984, 4979, 5021, 5347, 5308, 5303, 5345
4480, 4934, 4916, 4896, 4895, 5258, 5240, 5220, 5219
4481, 4936, 5092, 5038, 5003, 5260, 5416, 5362, 5327
4482, 4864, 4893, 4937, 4939, 5188, 5217, 5261, 5263
4483, 4938, 4913, 4892, 4891, 5262, 5237, 5216, 5215
4484, 4939, 4914, 4865, 4864, 5263, 5238, 5189, 5188
4485, 4915, 4957, 4888, 4911, 5239, 5281, 5212, 5235
4486, 4977, 4956, 4955, 4981, 5301, 5280, 5279, 5305
4487, 4898, 4868, 4943, 4932, 5222, 5192, 5267, 5256
4488, 4900, 4899, 4931, 4919, 5224, 5223, 5255, 5243
4489, 5016, 4975, 4970, 5011, 5340, 5299, 5294, 5335
4490, 4872, 4871, 4947, 4921, 5196, 5195, 5271, 5245
4491, 4875, 4924, 4925, 4877, 5199, 5248, 5249, 5201
4492, 4927, 4962, 4964, 4922, 5251, 5286, 5288, 5246
4493, 4950, 4945, 4905, 4883, 5274, 5269, 5229, 5207
4494, 4907, 4884, 4952, 4918, 5231, 5208, 5276, 5242
4495, 4908, 4885, 4953, 4917, 5232, 5209, 5277, 5241
4496, 4954, 4941, 4909, 4886, 5278, 5265, 5233, 5210
4497, 4910, 4909, 4941, 4955, 5234, 5233, 5265, 5279
4498, 5092, 4936, 4957, 4971, 5416, 5260, 5281, 5295
4499, 4957, 4936, 4889, 4888, 5281, 5260, 5213, 5212
4500, 4958, 4938, 4891, 4890, 5282, 5262, 5215, 5214
4501, 4914, 4935, 4894, 4865, 5238, 5259, 5218, 5189
4502, 4895, 4866, 4940, 4934, 5219, 5190, 5264, 5258
4503, 4911, 4887, 4956, 4915, 5235, 5211, 5280, 5239
4504, 4971, 4957, 4915, 4973, 5295, 5281, 5239, 5297
4505, 4916, 4942, 4867, 4896, 5240, 5266, 5191, 5220
4506, 4917, 4954, 4886, 4908, 5241, 5278, 5210, 5232
4507, 4871, 4901, 4930, 4947, 5195, 5225, 5254, 5271
4508, 4906, 4905, 4945, 4951, 5230, 5229, 5269, 5275
4509, 4919, 4946, 4870, 4900, 5243, 5270, 5194, 5224
4510, 4920, 4950, 4883, 4904, 5244, 5274, 5207, 5228
4511, 4921, 4928, 4902, 4872, 5245, 5252, 5226, 5196
4512, 4962, 4927, 5131, 4926, 5286, 5251, 5455, 5250
4513, 4928, 4963, 4961, 4948, 5252, 5287, 5285, 5272
4514, 4948, 4961, 4960, 4923, 5272, 5285, 5284, 5247
4515, 4925, 4926, 5131, 5132, 5249, 5250, 5455, 5456
4516, 5085, 5148, 5063, 5087, 5409, 5472, 5387, 5411
4517, 5131, 4927, 4880, 4879, 5455, 5251, 5204, 5203
4518, 4873, 4902, 4928, 4948, 5197, 5226, 5252, 5272
4519, 4949, 4929, 4882, 4881, 5273, 5253, 5206, 5205
4520, 4922, 4964, 4968, 4949, 5246, 5288, 5292, 5273
4521, 4966, 4921, 4947, 4972, 5290, 5245, 5271, 5296
4522, 4946, 4930, 4901, 4870, 5270, 5254, 5225, 5194
4523, 4982, 4919, 4931, 4986, 5306, 5243, 5255, 5310
4524, 4869, 4898, 4932, 4944, 5193, 5222, 5256, 5268
4525, 5111, 5041, 5012, 5112, 5435, 5365, 5336, 5436
4526, 4868, 4897, 4933, 4943, 5192, 5221, 5257, 5267
4527, 5008, 5143, 5136, 4965, 5332, 5467, 5460, 5289
4528, 4866, 4894, 4935, 4940, 5190, 5218, 5259, 5264
4529, 4890, 4912, 5003, 4958, 5214, 5236, 5327, 5282
4530, 5133, 4938, 4958, 4959, 5457, 5262, 5282, 5283
4531, 4999, 5007, 5135, 5000, 5323, 5331, 5459, 5324
4532, 4863, 4862, 5000, 5002, 5187, 5186, 5324, 5326
4533, 4913, 5004, 5134, 5001, 5237, 5328, 5458, 5325
4534, 4979, 4940, 4935, 4976, 5303, 5264, 5259, 5300
4535, 5012, 4967, 5136, 5143, 5336, 5291, 5460, 5467
4536, 4973, 4915, 4956, 4977, 5297, 5239, 5280, 5301
4537, 5033, 4992, 4988, 5027, 5357, 5316, 5312, 5351
4538, 4978, 4946, 4919, 4982, 5302, 5270, 5243, 5306
4539, 5145, 4966, 4972, 5009, 5469, 5290, 5296, 5333
4540, 5149, 5078, 5094, 5093, 5473, 5402, 5418, 5417
4541, 4960, 5137, 4924, 4923, 5284, 5461, 5248, 5247
4542, 4884, 4906, 4951, 4952, 5208, 5230, 5275, 5276
4543, 5040, 5011, 5010, 5084, 5364, 5335, 5334, 5408
4544, 4985, 4941, 4954, 4989, 5309, 5265, 5278, 5313
4545, 4887, 4910, 4955, 4956, 5211, 5234, 5279, 5280
4546, 4971, 5139, 5064, 5092, 5295, 5463, 5388, 5416
4547, 4959, 4958, 5003, 5038, 5283, 5282, 5327, 5362
4548, 5002, 4965, 5136, 4937, 5326, 5289, 5460, 5261
4549, 4921, 4966, 4963, 4928, 5245, 5290, 5287, 5252
4550, 4970, 4929, 4949, 4968, 5294, 5253, 5273, 5292
4551, 4975, 4920, 4929, 4970, 5299, 5244, 5253, 5294
4552, 4980, 4950, 4920, 4975, 5304, 5274, 5244, 5299
4553, 4983, 4945, 4950, 4980, 5307, 5269, 5274, 5304
4554, 4969, 4914, 4939, 4967, 5293, 5238, 5263, 5291
4555, 4976, 4935, 4914, 4969, 5300, 5259, 5238, 5293
4556, 4972, 4947, 4930, 4974, 5296, 5271, 5254, 5298
4557, 4988, 4916, 4934, 4984, 5312, 5240, 5258, 5308
4558, 4987, 4951, 4945, 4983, 5311, 5275, 5269, 5307
4559, 4992, 4942, 4916, 4988, 5316, 5266, 5240, 5312
4560, 4991, 4952, 4951, 4987, 5315, 5276, 5275, 5311
4561, 5020, 4980, 4975, 5016, 5344, 5304, 5299, 5340
4562, 5081, 5091, 5100, 5155, 5405, 5415, 5424, 5479
4563, 5021, 4979, 4976, 5018, 5345, 5303, 5300, 5342
4564, 5029, 4987, 4983, 5025, 5353, 5311, 5307, 5349
4565, 4993, 4918, 4952, 4991, 5317, 5242, 5276, 5315
4566, 4994, 4933, 4942, 4992, 5318, 5257, 5266, 5316
4567, 5112, 5012, 5143, 5008, 5436, 5336, 5467, 5332
4568, 5145, 5009, 5151, 5039, 5469, 5333, 5475, 5363
4569, 4998, 4943, 4933, 4994, 5322, 5267, 5257, 5318
4570, 4997, 4953, 4918, 4993, 5321, 5277, 5242, 5317
4571, 4986, 4931, 4944, 4990, 5310, 5255, 5268, 5314
4572, 5078, 5149, 5083, 5153, 5402, 5473, 5407, 5477
4573, 5021, 5018, 5047, 5157, 5345, 5342, 5371, 5481
4574, 4917, 4995, 4989, 4954, 5241, 5319, 5313, 5278
4575, 4981, 5019, 5015, 4977, 5305, 5343, 5339, 5301
4576, 4932, 4996, 4990, 4944, 5256, 5320, 5314, 5268
4577, 5014, 4974, 4978, 5017, 5338, 5298, 5302, 5341
4578, 5054, 5027, 5023, 5051, 5378, 5351, 5347, 5375
4579, 5024, 4985, 4989, 5028, 5348, 5309, 5313, 5352
4580, 5022, 4986, 4990, 5026, 5346, 5310, 5314, 5350
4581, 5152, 5017, 4978, 4982, 5476, 5341, 5302, 5306
4582, 4995, 4917, 4953, 4997, 5319, 5241, 5277, 5321
4583, 5082, 5090, 5177, 5173, 5406, 5414, 5501, 5497
4584, 4996, 4932, 4943, 4998, 5320, 5256, 5267, 5322
4585, 5044, 5014, 5017, 5152, 5368, 5338, 5341, 5476
4586, 5019, 4981, 4985, 5024, 5343, 5305, 5309, 5348
4587, 5152, 4982, 4986, 5022, 5476, 5306, 5310, 5346
4588, 5103, 5007, 5134, 5141, 5427, 5331, 5458, 5465
4589, 5008, 4965, 5135, 5142, 5332, 5289, 5459, 5466
4590, 4912, 4889, 4936, 5003, 5236, 5213, 5260, 5327
4591, 5100, 5096, 5140, 5086, 5424, 5420, 5464, 5410
4592, 5096, 5004, 5133, 5140, 5420, 5328, 5457, 5464
4593, 4966, 5145, 5005, 4963, 5290, 5469, 5329, 5287
4594, 5138, 5063, 5148, 5077, 5462, 5387, 5472, 5401
4595, 5010, 4968, 4964, 5006, 5334, 5292, 5288, 5330
4596, 5010, 5011, 4970, 4968, 5334, 5335, 5294, 5292
4597, 5000, 5135, 4965, 5002, 5324, 5459, 5289, 5326
4598, 5105, 5008, 5142, 5103, 5429, 5332, 5466, 5427
4599, 5144, 4969, 4967, 5012, 5468, 5293, 5291, 5336
4600, 5025, 4983, 4980, 5020, 5349, 5307, 5304, 5344
4601, 5031, 4991, 4987, 5029, 5355, 5315, 5311, 5353
4602, 5027, 4988, 4984, 5023, 5351, 5312, 5308, 5347
4603, 5013, 4973, 4977, 5015, 5337, 5297, 5301, 5339
4604, 5139, 4971, 4973, 5013, 5463, 5295, 5297, 5337
4605, 5039, 5150, 5005, 5145, 5363, 5474, 5329, 5469
4606, 5012, 5041, 5156, 5144, 5336, 5365, 5480, 5468
4607, 5035, 4993, 4991, 5031, 5359, 5317, 5315, 5355
4608, 5009, 5014, 5044, 5151, 5333, 5338, 5368, 5475
4609, 5047, 5018, 5144, 5156, 5371, 5342, 5468, 5480
4610, 5036, 4994, 4992, 5033, 5360, 5318, 5316, 5357
4611, 5011, 5040, 5043, 5016, 5335, 5364, 5367, 5340
4612, 5056, 5029, 5025, 5050, 5380, 5353, 5349, 5374
4613, 5034, 4997, 4993, 5035, 5358, 5321, 5317, 5359
4614, 5037, 4998, 4994, 5036, 5361, 5322, 5318, 5360
4615, 5061, 5036, 5033, 5057, 5385, 5360, 5357, 5381
4616, 4996, 5032, 5026, 4990, 5320, 5356, 5350, 5314
4617, 5071, 5061, 5057, 5168, 5395, 5385, 5381, 5492
4618, 4995, 5030, 5028, 4989, 5319, 5354, 5352, 5313
4619, 5042, 5015, 5019, 5154, 5366, 5339, 5343, 5478
4620, 5016, 5043, 5046, 5020, 5340, 5367, 5370, 5344
4621, 5169, 5046, 5043, 5065, 5493, 5370, 5367, 5389
4622, 5082, 5045, 5049, 5067, 5406, 5369, 5373, 5391
4623, 5154, 5019, 5024, 5045, 5478, 5343, 5348, 5369
4624, 4997, 5034, 5030, 4995, 5321, 5358, 5354, 5319
4625, 5028, 5049, 5045, 5024, 5352, 5373, 5369, 5348
4626, 5034, 5060, 5053, 5030, 5358, 5384, 5377, 5354
4627, 4998, 5037, 5032, 4996, 5322, 5361, 5356, 5320
4628, 5026, 5052, 5048, 5022, 5350, 5376, 5372, 5346
4629, 5030, 5053, 5049, 5028, 5354, 5377, 5373, 5352
4630, 5050, 5069, 5161, 5056, 5374, 5393, 5485, 5380
4631, 5032, 5055, 5052, 5026, 5356, 5379, 5376, 5350
4632, 5080, 5039, 5151, 5044, 5404, 5363, 5475, 5368
4633, 5050, 5025, 5020, 5046, 5374, 5349, 5344, 5370
4634, 5076, 5079, 5139, 5013, 5400, 5403, 5463, 5337
4635, 5076, 5013, 5015, 5042, 5400, 5337, 5339, 5366
4636, 5059, 5031, 5029, 5056, 5383, 5355, 5353, 5380
4637, 5040, 5101, 5065, 5043, 5364, 5425, 5389, 5367
4638, 5044, 5152, 5022, 5048, 5368, 5476, 5346, 5372
4639, 5098, 5160, 5158, 5159, 5422, 5484, 5482, 5483
4640, 5164, 5068, 5047, 5118, 5488, 5392, 5371, 5442
4641, 5062, 5035, 5031, 5059, 5386, 5359, 5355, 5383
4642, 5118, 5047, 5156, 5041, 5442, 5371, 5480, 5365
4643, 5057, 5033, 5027, 5054, 5381, 5357, 5351, 5378
4644, 5170, 5098, 5088, 5106, 5494, 5422, 5412, 5430
4645, 5130, 5183, 5174, 5125, 5454, 5507, 5498, 5449
4646, 5115, 5163, 5072, 5117, 5439, 5487, 5396, 5441
4647, 5068, 5051, 5157, 5047, 5392, 5375, 5481, 5371
4648, 5058, 5037, 5036, 5061, 5382, 5361, 5360, 5385
4649, 5070, 5066, 5048, 5052, 5394, 5390, 5372, 5376
4650, 5163, 5053, 5060, 5072, 5487, 5377, 5384, 5396
4651, 5053, 5163, 5067, 5049, 5377, 5487, 5391, 5373
4652, 5124, 5161, 5069, 5169, 5448, 5485, 5393, 5493
4653, 5037, 5058, 5055, 5032, 5361, 5382, 5379, 5356
4654, 5055, 5058, 5073, 5167, 5379, 5382, 5397, 5491
4655, 5055, 5167, 5070, 5052, 5379, 5491, 5394, 5376
4656, 5060, 5034, 5035, 5062, 5384, 5358, 5359, 5386
4657, 5110, 5099, 5175, 5108, 5434, 5423, 5499, 5432
4658, 5085, 5087, 5137, 4960, 5409, 5411, 5461, 5284
4659, 4962, 4926, 5063, 5138, 5286, 5250, 5387, 5462
4660, 5101, 5089, 5102, 5119, 5425, 5413, 5426, 5443
4661, 5069, 5050, 5046, 5169, 5393, 5374, 5370, 5493
4662, 5066, 5080, 5044, 5048, 5390, 5404, 5368, 5372
4663, 5082, 5173, 5154, 5045, 5406, 5497, 5478, 5369
4664, 5068, 5165, 5054, 5051, 5392, 5489, 5378, 5375
4665, 5162, 5062, 5059, 5074, 5486, 5386, 5383, 5398
4666, 5179, 5130, 5121, 5181, 5503, 5454, 5445, 5505
4667, 5116, 5070, 5167, 5128, 5440, 5394, 5491, 5452
4668, 5058, 5061, 5071, 5073, 5382, 5385, 5395, 5397
4669, 5062, 5162, 5072, 5060, 5386, 5486, 5396, 5384
4670, 5115, 5182, 5175, 5176, 5439, 5506, 5499, 5500
4671, 5129, 5074, 5161, 5124, 5453, 5398, 5485, 5448
4672, 5148, 5085, 5153, 5083, 5472, 5409, 5477, 5407
4673, 5147, 5093, 5089, 5084, 5471, 5417, 5413, 5408
4674, 5099, 5097, 5177, 5090, 5423, 5421, 5501, 5414
4675, 5039, 5158, 5078, 5150, 5363, 5482, 5402, 5474
4676, 5094, 5160, 5098, 5102, 5418, 5484, 5422, 5426
4677, 5111, 5104, 5097, 5107, 5435, 5428, 5421, 5431
4678, 5166, 5079, 5076, 5042, 5490, 5403, 5400, 5366
4679, 5159, 5158, 5039, 5080, 5483, 5482, 5363, 5404
4680, 5140, 5133, 4959, 5086, 5464, 5457, 5283, 5410
4681, 5155, 5100, 5086, 5095, 5479, 5424, 5410, 5419
4682, 5085, 5146, 5075, 5153, 5409, 5470, 5399, 5477
4683, 5147, 5084, 5010, 5006, 5471, 5408, 5334, 5330
4684, 5101, 5040, 5084, 5089, 5425, 5364, 5408, 5413
4685, 5149, 5077, 5148, 5083, 5473, 5401, 5472, 5407
4686, 5096, 5141, 5134, 5004, 5420, 5465, 5458, 5328
4687, 5141, 5096, 5105, 5103, 5465, 5420, 5429, 5427
4688, 5070, 5088, 5171, 5066, 5394, 5412, 5495, 5390
4689, 5164, 5110, 5108, 5114, 5488, 5434, 5432, 5438
4690, 5176, 5090, 5082, 5067, 5500, 5414, 5406, 5391
4691, 5104, 5111, 5112, 5109, 5428, 5435, 5436, 5433
4692, 5093, 5147, 5077, 5149, 5417, 5471, 5401, 5473
4693, 5088, 5098, 5159, 5171, 5412, 5422, 5483, 5495
4694, 5089, 5093, 5094, 5102, 5413, 5417, 5418, 5426
4695, 5086, 4959, 5038, 5095, 5410, 5283, 5362, 5419
4696, 5008, 5105, 5109, 5112, 5332, 5429, 5433, 5436
4697, 5097, 5104, 5091, 5172, 5421, 5428, 5415, 5496
4698, 5041, 5111, 5107, 5118, 5365, 5435, 5431, 5442
4699, 5124, 5169, 5065, 5113, 5448, 5493, 5389, 5437
4700, 5173, 5177, 5097, 5172, 5497, 5501, 5421, 5496
4701, 5064, 5081, 5155, 5095, 5388, 5405, 5479, 5419
4702, 5113, 5065, 5101, 5119, 5437, 5389, 5425, 5443
4703, 5103, 5142, 5135, 5007, 5427, 5466, 5459, 5331
4704, 5104, 5109, 5100, 5091, 5428, 5433, 5424, 5415
4705, 5109, 5105, 5096, 5100, 5433, 5429, 5420, 5424
4706, 5113, 5106, 5116, 5120, 5437, 5430, 5440, 5444
4707, 5070, 5116, 5106, 5088, 5394, 5440, 5430, 5412
4708, 5164, 5118, 5107, 5110, 5488, 5442, 5431, 5434
4709, 5110, 5107, 5097, 5099, 5434, 5431, 5421, 5423
4710, 5181, 5121, 5114, 5108, 5505, 5445, 5438, 5432
4711, 5117, 5181, 5182, 5115, 5441, 5505, 5506, 5439
4712, 5119, 5102, 5098, 5170, 5443, 5426, 5422, 5494
4713, 5127, 5124, 5113, 5120, 5451, 5448, 5437, 5444
4714, 5168, 5165, 5114, 5125, 5492, 5489, 5438, 5449
4715, 5184, 5183, 5123, 5122, 5508, 5507, 5447, 5446
4716, 5129, 5178, 5117, 5180, 5453, 5502, 5441, 5504
4717, 5125, 5114, 5121, 5130, 5449, 5438, 5445, 5454
4718, 5119, 5170, 5106, 5113, 5443, 5494, 5430, 5437
4719, 5122, 5123, 5127, 5120, 5446, 5447, 5451, 5444
4720, 5183, 5184, 5126, 5174, 5507, 5508, 5450, 5498
4721, 5128, 5122, 5120, 5116, 5452, 5446, 5444, 5440
4722, 5124, 5127, 5178, 5129, 5448, 5451, 5502, 5453
4723, 5127, 5123, 5179, 5178, 5451, 5447, 5503, 5502
4724, 5068, 5164, 5114, 5165, 5392, 5488, 5438, 5489
4725, 5174, 5126, 5073, 5071, 5498, 5450, 5397, 5395
4726, 5128, 5167, 5073, 5126, 5452, 5491, 5397, 5450
4727, 5180, 5162, 5074, 5129, 5504, 5486, 5398, 5453
4728, 5179, 5123, 5183, 5130, 5503, 5447, 5507, 5454
4729, 4879, 4878, 5132, 5131, 5203, 5202, 5456, 5455
4730, 5007, 4999, 5001, 5134, 5331, 5323, 5325, 5458
4731, 4967, 4939, 4937, 5136, 5291, 5263, 5261, 5460
4732, 5147, 5006, 5138, 5077, 5471, 5330, 5462, 5401
4733, 5081, 5064, 5139, 5079, 5405, 5388, 5463, 5403
4734, 5018, 4976, 4969, 5144, 5342, 5300, 5293, 5468
4735, 5005, 5150, 5075, 5146, 5329, 5474, 5399, 5470
4736, 5085, 4960, 4961, 5146, 5409, 5284, 5285, 5470
4737, 5078, 5153, 5075, 5150, 5402, 5477, 5399, 5474
4738, 5166, 5042, 5154, 5173, 5490, 5366, 5478, 5497
4739, 5051, 5023, 5021, 5157, 5375, 5347, 5345, 5481
4740, 5160, 5094, 5078, 5158, 5484, 5418, 5402, 5482
4741, 5074, 5059, 5056, 5161, 5398, 5383, 5380, 5485
4742, 5117, 5072, 5162, 5180, 5441, 5396, 5486, 5504
4743, 5115, 5176, 5067, 5163, 5439, 5500, 5391, 5487
4744, 5165, 5168, 5057, 5054, 5489, 5492, 5381, 5378
4745, 5173, 5172, 5079, 5166, 5497, 5496, 5403, 5490
4746, 5079, 5172, 5091, 5081, 5403, 5496, 5415, 5405
4747, 5159, 5080, 5066, 5171, 5483, 5404, 5390, 5495
4748, 5174, 5071, 5168, 5125, 5498, 5395, 5492, 5449
4749, 5176, 5175, 5099, 5090, 5500, 5499, 5423, 5414
4750, 5181, 5108, 5175, 5182, 5505, 5432, 5499, 5506
4751, 5181, 5117, 5178, 5179, 5505, 5441, 5502, 5503
4752, 5122, 5128, 5126, 5184, 5446, 5452, 5450, 5508
4753, 5325, 5323, 5185, 5200, 5649, 5647, 5509, 5524
4754, 5237, 5325, 5200, 5216, 5561, 5649, 5524, 5540
4755, 5186, 5185, 5323, 5324, 5510, 5509, 5647, 5648
4756, 5326, 5261, 5217, 5187, 5650, 5585, 5541, 5511
4757, 5328, 5237, 5262, 5457, 5652, 5561, 5586, 5781
4758, 5419, 5362, 5416, 5388, 5743, 5686, 5740, 5712
4759, 5308, 5258, 5264, 5303, 5632, 5582, 5588, 5627
4760, 5266, 5257, 5221, 5191, 5590, 5581, 5545, 5515
4761, 5298, 5254, 5270, 5302, 5622, 5578, 5594, 5626
4762, 5209, 5231, 5242, 5277, 5533, 5555, 5566, 5601
4763, 5305, 5279, 5265, 5309, 5629, 5603, 5589, 5633
4764, 5286, 5462, 5330, 5288, 5610, 5786, 5654, 5612
4765, 5198, 5197, 5272, 5247, 5522, 5521, 5596, 5571
4766, 5246, 5273, 5205, 5227, 5570, 5597, 5529, 5551
4767, 5199, 5198, 5247, 5248, 5523, 5522, 5571, 5572
4768, 5202, 5201, 5249, 5456, 5526, 5525, 5573, 5780
4769, 5411, 5249, 5248, 5461, 5735, 5573, 5572, 5785
4770, 5249, 5411, 5387, 5250, 5573, 5735, 5711, 5574
4771, 5251, 5246, 5227, 5204, 5575, 5570, 5551, 5528
4772, 5228, 5206, 5253, 5244, 5552, 5530, 5577, 5568
4773, 5329, 5470, 5285, 5287, 5653, 5794, 5609, 5611
4774, 5333, 5296, 5298, 5338, 5657, 5620, 5622, 5662
4775, 5268, 5255, 5223, 5193, 5592, 5579, 5547, 5517
4776, 5347, 5308, 5303, 5345, 5671, 5632, 5627, 5669
4777, 5258, 5240, 5220, 5219, 5582, 5564, 5544, 5543
4778, 5260, 5416, 5362, 5327, 5584, 5740, 5686, 5651
4779, 5188, 5217, 5261, 5263, 5512, 5541, 5585, 5587
4780, 5262, 5237, 5216, 5215, 5586, 5561, 5540, 5539
4781, 5263, 5238, 5189, 5188, 5587, 5562, 5513, 5512
4782, 5239, 5281, 5212, 5235, 5563, 5605, 5536, 5559
4783, 5301, 5280, 5279, 5305, 5625, 5604, 5603, 5629
4784, 5222, 5192, 5267, 5256, 5546, 5516, 5591, 5580
4785, 5224, 5223, 5255, 5243, 5548, 5547, 5579, 5567
4786, 5340, 5299, 5294, 5335, 5664, 5623, 5618, 5659
4787, 5196, 5195, 5271, 5245, 5520, 5519, 5595, 5569
4788, 5199, 5248, 5249, 5201, 5523, 5572, 5573, 5525
4789, 5251, 5286, 5288, 5246, 5575, 5610, 5612, 5570
4790, 5274, 5269, 5229, 5207, 5598, 5593, 5553, 5531
4791, 5231, 5208, 5276, 5242, 5555, 5532, 5600, 5566
4792, 5232, 5209, 5277, 5241, 5556, 5533, 5601, 5565
4793, 5278, 5265, 5233, 5210, 5602, 5589, 5557, 5534
4794, 5234, 5233, 5265, 5279, 5558, 5557, 5589, 5603
4795, 5416, 5260, 5281, 5295, 5740, 5584, 5605, 5619
4796, 5281, 5260, 5213, 5212, 5605, 5584, 5537, 5536
4797, 5282, 5262, 5215, 5214, 5606, 5586, 5539, 5538
4798, 5238, 5259, 5218, 5189, 5562, 5583, 5542, 5513
4799, 5219, 5190, 5264, 5258, 5543, 5514, 5588, 5582
4800, 5235, 5211, 5280, 5239, 5559, 5535, 5604, 5563
4801, 5295, 5281, 5239, 5297, 5619, 5605, 5563, 5621
4802, 5240, 5266, 5191, 5220, 5564, 5590, 5515, 5544
4803, 5241, 5278, 5210, 5232, 5565, 5602, 5534, 5556
4804, 5195, 5225, 5254, 5271, 5519, 5549, 5578, 5595
4805, 5230, 5229, 5269, 5275, 5554, 5553, 5593, 5599
4806, 5243, 5270, 5194, 5224, 5567, 5594, 5518, 5548
4807, 5244, 5274, 5207, 5228, 5568, 5598, 5531, 5552
4808, 5245, 5252, 5226, 5196, 5569, 5576, 5550, 5520
4809, 5286, 5251, 5455, 5250, 5610, 5575, 5779, 5574
4810, 5252, 5287, 5285, 5272, 5576, 5611, 5609, 5596
4811, 5272, 5285, 5284, 5247, 5596, 5609, 5608, 5571
4812, 5249, 5250, 5455, 5456, 5573, 5574, 5779, 5780
4813, 5409, 5472, 5387, 5411, 5733, 5796, 5711, 5735
4814, 5455, 5251, 5204, 5203, 5779, 5575, 5528, 5527
4815, 5197, 5226, 5252, 5272, 5521, 5550, 5576, 5596
4816, 5273, 5253, 5206, 5205, 5597, 5577, 5530, 5529
4817, 5246, 5288, 5292, 5273, 5570, 5612, 5616, 5597
4818, 5290, 5245, 5271, 5296, 5614, 5569, 5595, 5620
4819, 5270, 5254, 5225, 5194, 5594, 5578, 5549, 5518
4820, 5306, 5243, 5255, 5310, 5630, 5567, 5579, 5634
4821, 5193, 5222, 5256, 5268, 5517, 5546, 5580, 5592
4822, 5435, 5365, 5336, 5436, 5759, 5689, 5660, 5760
4823, 5192, 5221, 5257, 5267, 5516, 5545, 5581, 5591
4824, 5332, 5467, 5460, 5289, 5656, 5791, 5784, 5613
4825, 5190, 5218, 5259, 5264, 5514, 5542, 5583, 5588
4826, 5214, 5236, 5327, 5282, 5538, 5560, 5651, 5606
4827, 5457, 5262, 5282, 5283, 5781, 5586, 5606, 5607
4828, 5323, 5331, 5459, 5324, 5647, 5655, 5783, 5648
4829, 5187, 5186, 5324, 5326, 5511, 5510, 5648, 5650
4830, 5237, 5328, 5458, 5325, 5561, 5652, 5782, 5649
4831, 5303, 5264, 5259, 5300, 5627, 5588, 5583, 5624
4832, 5336, 5291, 5460, 5467, 5660, 5615, 5784, 5791
4833, 5297, 5239, 5280, 5301, 5621, 5563, 5604, 5625
4834, 5357, 5316, 5312, 5351, 5681, 5640, 5636, 5675
4835, 5302, 5270, 5243, 5306, 5626, 5594, 5567, 5630
4836, 5469, 5290, 5296, 5333, 5793, 5614, 5620, 5657
4837, 5473, 5402, 5418, 5417, 5797, 5726, 5742, 5741
4838, 5284, 5461, 5248, 5247, 5608, 5785, 5572, 5571
4839, 5208, 5230, 5275, 5276, 5532, 5554, 5599, 5600
4840, 5364, 5335, 5334, 5408, 5688, 5659, 5658, 5732
4841, 5309, 5265, 5278, 5313, 5633, 5589, 5602, 5637
4842, 5211, 5234, 5279, 5280, 5535, 5558, 5603, 5604
4843, 5295, 5463, 5388, 5416, 5619, 5787, 5712, 5740
4844, 5283, 5282, 5327, 5362, 5607, 5606, 5651, 5686
4845, 5326, 5289, 5460, 5261, 5650, 5613, 5784, 5585
4846, 5245, 5290, 5287, 5252, 5569, 5614, 5611, 5576
4847, 5294, 5253, 5273, 5292, 5618, 5577, 5597, 5616
4848, 5299, 5244, 5253, 5294, 5623, 5568, 5577, 5618
4849, 5304, 5274, 5244, 5299, 5628, 5598, 5568, 5623
4850, 5307, 5269, 5274, 5304, 5631, 5593, 5598, 5628
4851, 5293, 5238, 5263, 5291, 5617, 5562, 5587, 5615
4852, 5300, 5259, 5238, 5293, 5624, 5583, 5562, 5617
4853, 5296, 5271, 5254, 5298, 5620, 5595, 5578, 5622
4854, 5312, 5240, 5258, 5308, 5636, 5564, 5582, 5632
4855, 5311, 5275, 5269, 5307, 5635, 5599, 5593, 5631
4856, 5316, 5266, 5240, 5312, 5640, 5590, 5564, 5636
4857, 5315, 5276, 5275, 5311, 5639, 5600, 5599, 5635
4858, 5344, 5304, 5299, 5340, 5668, 5628, 5623, 5664
4859, 5405, 5415, 5424, 5479, 5729, 5739, 5748, 5803
4860, 5345, 5303, 5300, 5342, 5669, 5627, 5624, 5666
4861, 5353, 5311, 5307, 5349, 5677, 5635, 5631, 5673
4862, 5317, 5242, 5276, 5315, 5641, 5566, 5600, 5639
4863, 5318, 5257, 5266, 5316, 5642, 5581, 5590, 5640
4864, 5436, 5336, 5467, 5332, 5760, 5660, 5791, 5656
4865, 5469, 5333, 5475, 5363, 5793, 5657, 5799, 5687
4866, 5322, 5267, 5257, 5318, 5646, 5591, 5581, 5642
4867, 5321, 5277, 5242, 5317, 5645, 5601, 5566, 5641
4868, 5310, 5255, 5268, 5314, 5634, 5579, 5592, 5638
4869, 5402, 5473, 5407, 5477, 5726, 5797, 5731, 5801
4870, 5345, 5342, 5371, 5481, 5669, 5666, 5695, 5805
4871, 5241, 5319, 5313, 5278, 5565, 5643, 5637, 5602
4872, 5305, 5343, 5339, 5301, 5629, 5667, 5663, 5625
4873, 5256, 5320, 5314, 5268, 5580, 5644, 5638, 5592
4874, 5338, 5298, 5302, 5341, 5662, 5622, 5626, 5665
4875, 5378, 5351, 5347, 5375, 5702, 5675, 5671, 5699
4876, 5348, 5309, 5313, 5352, 5672, 5633, 5637, 5676
4877, 5346, 5310, 5314, 5350, 5670, 5634, 5638, 5674
4878, 5476, 5341, 5302, 5306, 5800, 5665, 5626, 5630
4879, 5319, 5241, 5277, 5321, 5643, 5565, 5601, 5645
4880, 5406, 5414, 5501, 5497, 5730, 5738, 5825, 5821
4881, 5320, 5256, 5267, 5322, 5644, 5580, 5591, 5646
4882, 5368, 5338, 5341, 5476, 5692, 5662, 5665, 5800
4883, 5343, 5305, 5309, 5348, 5667, 5629, 5633, 5672
4884, 5476, 5306, 5310, 5346, 5800, 5630, 5634, 5670
4885, 5427, 5331, 5458, 5465, 5751, 5655, 5782, 5789
4886, 5332, 5289, 5459, 5466, 5656, 5613, 5783, 5790
4887, 5236, 5213, 5260, 5327, 5560, 5537, 5584, 5651
4888, 5424, 5420, 5464, 5410, 5748, 5744, 5788, 5734
4889, 5420, 5328, 5457, 5464, 5744, 5652, 5781, 5788
4890, 5290, 5469, 5329, 5287, 5614, 5793, 5653, 5611
4891, 5462, 5387, 5472, 5401, 5786, 5711, 5796, 5725
4892, 5334, 5292, 5288, 5330, 5658, 5616, 5612, 5654
4893, 5334, 5335, 5294, 5292, 5658, 5659, 5618, 5616
4894, 5324, 5459, 5289, 5326, 5648, 5783, 5613, 5650
4895, 5429, 5332, 5466, 5427, 5753, 5656, 5790, 5751
4896, 5468, 5293, 5291, 5336, 5792, 5617, 5615, 5660
4897, 5349, 5307, 5304, 5344, 5673, 5631, 5628, 5668
4898, 5355, 5315, 5311, 5353, 5679, 5639, 5635, 5677
4899, 5351, 5312, 5308, 5347, 5675, 5636, 5632, 5671
4900, 5337, 5297, 5301, 5339, 5661, 5621, 5625, 5663
4901, 5463, 5295, 5297, 5337, 5787, 5619, 5621, 5661
4902, 5363, 5474, 5329, 5469, 5687, 5798, 5653, 5793
4903, 5336, 5365, 5480, 5468, 5660, 5689, 5804, 5792
4904, 5359, 5317, 5315, 5355, 5683, 5641, 5639, 5679
4905, 5333, 5338, 5368, 5475, 5657, 5662, 5692, 5799
4906, 5371, 5342, 5468, 5480, 5695, 5666, 5792, 5804
4907, 5360, 5318, 5316, 5357, 5684, 5642, 5640, 5681
4908, 5335, 5364, 5367, 5340, 5659, 5688, 5691, 5664
4909, 5380, 5353, 5349, 5374, 5704, 5677, 5673, 5698
4910, 5358, 5321, 5317, 5359, 5682, 5645, 5641, 5683
4911, 5361, 5322, 5318, 5360, 5685, 5646, 5642, 5684
4912, 5385, 5360, 5357, 5381, 5709, 5684, 5681, 5705
4913, 5320, 5356, 5350, 5314, 5644, 5680, 5674, 5638
4914, 5395, 5385, 5381, 5492, 5719, 5709, 5705, 5816
4915, 5319, 5354, 5352, 5313, 5643, 5678, 5676, 5637
4916, 5366, 5339, 5343, 5478, 5690, 5663, 5667, 5802
4917, 5340, 5367, 5370, 5344, 5664, 5691, 5694, 5668
4918, 5493, 5370, 5367, 5389, 5817, 5694, 5691, 5713
4919, 5406, 5369, 5373, 5391, 5730, 5693, 5697, 5715
4920, 5478, 5343, 5348, 5369, 5802, 5667, 5672, 5693
4921, 5321, 5358, 5354, 5319, 5645, 5682, 5678, 5643
4922, 5352, 5373, 5369, 5348, 5676, 5697, 5693, 5672
4923, 5358, 5384, 5377, 5354, 5682, 5708, 5701, 5678
4924, 5322, 5361, 5356, 5320, 5646, 5685, 5680, 5644
4925, 5350, 5376, 5372, 5346, 5674, 5700, 5696, 5670
4926, 5354, 5377, 5373, 5352, 5678, 5701, 5697, 5676
4927, 5374, 5393, 5485, 5380, 5698, 5717, 5809, 5704
4928, 5356, 5379, 5376, 5350, 5680, 5703, 5700, 5674
4929, 5404, 5363, 5475, 5368, 5728, 5687, 5799, 5692
4930, 5374, 5349, 5344, 5370, 5698, 5673, 5668, 5694
4931, 5400, 5403, 5463, 5337, 5724, 5727, 5787, 5661
4932, 5400, 5337, 5339, 5366, 5724, 5661, 5663, 5690
4933, 5383, 5355, 5353, 5380, 5707, 5679, 5677, 5704
4934, 5364, 5425, 5389, 5367, 5688, 5749, 5713, 5691
4935, 5368, 5476, 5346, 5372, 5692, 5800, 5670, 5696
4936, 5422, 5484, 5482, 5483, 5746, 5808, 5806, 5807
4937, 5488, 5392, 5371, 5442, 5812, 5716, 5695, 5766
4938, 5386, 5359, 5355, 5383, 5710, 5683, 5679, 5707
4939, 5442, 5371, 5480, 5365, 5766, 5695, 5804, 5689
4940, 5381, 5357, 5351, 5378, 5705, 5681, 5675, 5702
4941, 5494, 5422, 5412, 5430, 5818, 5746, 5736, 5754
4942, 5454, 5507, 5498, 5449, 5778, 5831, 5822, 5773
4943, 5439, 5487, 5396, 5441, 5763, 5811, 5720, 5765
4944, 5392, 5375, 5481, 5371, 5716, 5699, 5805, 5695
4945, 5382, 5361, 5360, 5385, 5706, 5685, 5684, 5709
4946, 5394, 5390, 5372, 5376, 5718, 5714, 5696, 5700
4947, 5487, 5377, 5384, 5396, 5811, 5701, 5708, 5720
4948, 5377, 5487, 5391, 5373, 5701, 5811, 5715, 5697
4949, 5448, 5485, 5393, 5493, 5772, 5809, 5717, 5817
4950, 5361, 5382, 5379, 5356, 5685, 5706, 5703, 5680
4951, 5379, 5382, 5397, 5491, 5703, 5706, 5721, 5815
4952, 5379, 5491, 5394, 5376, 5703, 5815, 5718, 5700
4953, 5384, 5358, 5359, 5386, 5708, 5682, 5683, 5710
4954, 5434, 5423, 5499, 5432, 5758, 5747, 5823, 5756
4955, 5409, 5411, 5461, 5284, 5733, 5735, 5785, 5608
4956, 5286, 5250, 5387, 5462, 5610, 5574, 5711, 5786
4957, 5425, 5413, 5426, 5443, 5749, 5737, 5750, 5767
4958, 5393, 5374, 5370, 5493, 5717, 5698, 5694, 5817
4959, 5390, 5404, 5368, 5372, 5714, 5728, 5692, 5696
4960, 5406, 5497, 5478, 5369, 5730, 5821, 5802, 5693
4961, 5392, 5489, 5378, 5375, 5716, 5813, 5702, 5699
4962, 5486, 5386, 5383, 5398, 5810, 5710, 5707, 5722
4963, 5503, 5454, 5445, 5505, 5827, 5778, 5769, 5829
4964, 5440, 5394, 5491, 5452, 5764, 5718, 5815, 5776
4965, 5382, 5385, 5395, 5397, 5706, 5709, 5719, 5721
4966, 5386, 5486, 5396, 5384, 5710, 5810, 5720, 5708
4967, 5439, 5506, 5499, 5500, 5763, 5830, 5823, 5824
4968, 5453, 5398, 5485, 5448, 5777, 5722, 5809, 5772
4969, 5472, 5409, 5477, 5407, 5796, 5733, 5801, 5731
4970, 5471, 5417, 5413, 5408, 5795, 5741, 5737, 5732
4971, 5423, 5421, 5501, 5414, 5747, 5745, 5825, 5738
4972, 5363, 5482, 5402, 5474, 5687, 5806, 5726, 5798
4973, 5418, 5484, 5422, 5426, 5742, 5808, 5746, 5750
4974, 5435, 5428, 5421, 5431, 5759, 5752, 5745, 5755
4975, 5490, 5403, 5400, 5366, 5814, 5727, 5724, 5690
4976, 5483, 5482, 5363, 5404, 5807, 5806, 5687, 5728
4977, 5464, 5457, 5283, 5410, 5788, 5781, 5607, 5734
4978, 5479, 5424, 5410, 5419, 5803, 5748, 5734, 5743
4979, 5409, 5470, 5399, 5477, 5733, 5794, 5723, 5801
4980, 5471, 5408, 5334, 5330, 5795, 5732, 5658, 5654
4981, 5425, 5364, 5408, 5413, 5749, 5688, 5732, 5737
4982, 5473, 5401, 5472, 5407, 5797, 5725, 5796, 5731
4983, 5420, 5465, 5458, 5328, 5744, 5789, 5782, 5652
4984, 5465, 5420, 5429, 5427, 5789, 5744, 5753, 5751
4985, 5394, 5412, 5495, 5390, 5718, 5736, 5819, 5714
4986, 5488, 5434, 5432, 5438, 5812, 5758, 5756, 5762
4987, 5500, 5414, 5406, 5391, 5824, 5738, 5730, 5715
4988, 5428, 5435, 5436, 5433, 5752, 5759, 5760, 5757
4989, 5417, 5471, 5401, 5473, 5741, 5795, 5725, 5797
4990, 5412, 5422, 5483, 5495, 5736, 5746, 5807, 5819
4991, 5413, 5417, 5418, 5426, 5737, 5741, 5742, 5750
4992, 5410, 5283, 5362, 5419, 5734, 5607, 5686, 5743
4993, 5332, 5429, 5433, 5436, 5656, 5753, 5757, 5760
4994, 5421, 5428, 5415, 5496, 5745, 5752, 5739, 5820
4995, 5365, 5435, 5431, 5442, 5689, 5759, 5755, 5766
4996, 5448, 5493, 5389, 5437, 5772, 5817, 5713, 5761
4997, 5497, 5501, 5421, 5496, 5821, 5825, 5745, 5820
4998, 5388, 5405, 5479, 5419, 5712, 5729, 5803, 5743
4999, 5437, 5389, 5425, 5443, 5761, 5713, 5749, 5767
5000, 5427, 5466, 5459, 5331, 5751, 5790, 5783, 5655
5001, 5428, 5433, 5424, 5415, 5752, 5757, 5748, 5739
5002, 5433, 5429, 5420, 5424, 5757, 5753, 5744, 5748
5003, 5437, 5430, 5440, 5444, 5761, 5754, 5764, 5768
5004, 5394, 5440, 5430, 5412, 5718, 5764, 5754, 5736
5005, 5488, 5442, 5431, 5434, 5812, 5766, 5755, 5758
5006, 5434, 5431, 5421, 5423, 5758, 5755, 5745, 5747
5007, 5505, 5445, 5438, 5432, 5829, 5769, 5762, 5756
5008, 5441, 5505, 5506, 5439, 5765, 5829, 5830, 5763
5009, 5443, 5426, 5422, 5494, 5767, 5750, 5746, 5818
5010, 5451, 5448, 5437, 5444, 5775, 5772, 5761, 5768
5011, 5492, 5489, 5438, 5449, 5816, 5813, 5762, 5773
5012, 5508, 5507, 5447, 5446, 5832, 5831, 5771, 5770
5013, 5453, 5502, 5441, 5504, 5777, 5826, 5765, 5828
5014, 5449, 5438, 5445, 5454, 5773, 5762, 5769, 5778
5015, 5443, 5494, 5430, 5437, 5767, 5818, 5754, 5761
5016, 5446, 5447, 5451, 5444, 5770, 5771, 5775, 5768
5017, 5507, 5508, 5450, 5498, 5831, 5832, 5774, 5822
5018, 5452, 5446, 5444, 5440, 5776, 5770, 5768, 5764
5019, 5448, 5451, 5502, 5453, 5772, 5775, 5826, 5777
5020, 5451, 5447, 5503, 5502, 5775, 5771, 5827, 5826
5021, 5392, 5488, 5438, 5489, 5716, 5812, 5762, 5813
5022, 5498, 5450, 5397, 5395, 5822, 5774, 5721, 5719
5023, 5452, 5491, 5397, 5450, 5776, 5815, 5721, 5774
5024, 5504, 5486, 5398, 5453, 5828, 5810, 5722, 5777
5025, 5503, 5447, 5507, 5454, 5827, 5771, 5831, 5778
5026, 5203, 5202, 5456, 5455, 5527, 5526, 5780, 5779
5027, 5331, 5323, 5325, 5458, 5655, 5647, 5649, 5782
5028, 5291, 5263, 5261, 5460, 5615, 5587, 5585, 5784
5029, 5471, 5330, 5462, 5401, 5795, 5654, 5786, 5725
5030, 5405, 5388, 5463, 5403, 5729, 5712, 5787, 5727
5031, 5342, 5300, 5293, 5468, 5666, 5624, 5617, 5792
5032, 5329, 5474, 5399, 5470, 5653, 5798, 5723, 5794
5033, 5409, 5284, 5285, 5470, 5733, 5608, 5609, 5794
5034, 5402, 5477, 5399, 5474, 5726, 5801, 5723, 5798
5035, 5490, 5366, 5478, 5497, 5814, 5690, 5802, 5821
5036, 5375, 5347, 5345, 5481, 5699, 5671, 5669, 5805
5037, 5484, 5418, 5402, 5482, 5808, 5742, 5726, 5806
5038, 5398, 5383, 5380, 5485, 5722, 5707, 5704, 5809
5039, 5441, 5396, 5486, 5504, 5765, 5720, 5810, 5828
5040, 5439, 5500, 5391, 5487, 5763, 5824, 5715, 5811
5041, 5489, 5492, 5381, 5378, 5813, 5816, 5705, 5702
5042, 5497, 5496, 5403, 5490, 5821, 5820, 5727, 5814
5043, 5403, 5496, 5415, 5405, 5727, 5820, 5739, 5729
5044, 5483, 5404, 5390, 5495, 5807, 5728, 5714, 5819
5045, 5498, 5395, 5492, 5449, 5822, 5719, 5816, 5773
5046, 5500, 5499, 5423, 5414, 5824, 5823, 5747, 5738
5047, 5505, 5432, 5499, 5506, 5829, 5756, 5823, 5830
5048, 5505, 5441, 5502, 5503, 5829, 5765, 5826, 5827
5049, 5446, 5452, 5450, 5508, 5770, 5776, 5774, 5832
5050, 5649, 5647, 5509, 5524, 5973, 5971, 5833, 5848
5051, 5561, 5649, 5524, 5540, 5885, 5973, 5848, 5864
5052, 5510, 5509, 5647, 5648, 5834, 5833, 5971, 5972
5053, 5650, 5585, 5541, 5511, 5974, 5909, 5865, 5835
5054, 5652, 5561, 5586, 5781, 5976, 5885, 5910, 6105
5055, 5743, 5686, 5740, 5712, 6067, 6010, 6064, 6036
5056, 5632, 5582, 5588, 5627, 5956, 5906, 5912, 5951
5057, 5590, 5581, 5545, 5515, 5914, 5905, 5869, 5839
5058, 5622, 5578, 5594, 5626, 5946, 5902, 5918, 5950
5059, 5533, 5555, 5566, 5601, 5857, 5879, 5890, 5925
5060, 5629, 5603, 5589, 5633, 5953, 5927, 5913, 5957
5061, 5610, 5786, 5654, 5612, 5934, 6110, 5978, 5936
5062, 5522, 5521, 5596, 5571, 5846, 5845, 5920, 5895
5063, 5570, 5597, 5529, 5551, 5894, 5921, 5853, 5875
5064, 5523, 5522, 5571, 5572, 5847, 5846, 5895, 5896
5065, 5526, 5525, 5573, 5780, 5850, 5849, 5897, 6104
5066, 5735, 5573, 5572, 5785, 6059, 5897, 5896, 6109
5067, 5573, 5735, 5711, 5574, 5897, 6059, 6035, 5898
5068, 5575, 5570, 5551, 5528, 5899, 5894, 5875, 5852
5069, 5552, 5530, 5577, 5568, 5876, 5854, 5901, 5892
5070, 5653, 5794, 5609, 5611, 5977, 6118, 5933, 5935
5071, 5657, 5620, 5622, 5662, 5981, 5944, 5946, 5986
5072, 5592, 5579, 5547, 5517, 5916, 5903, 5871, 5841
5073, 5671, 5632, 5627, 5669, 5995, 5956, 5951, 5993
5074, 5582, 5564, 5544, 5543, 5906, 5888, 5868, 5867
5075, 5584, 5740, 5686, 5651, 5908, 6064, 6010, 5975
5076, 5512, 5541, 5585, 5587, 5836, 5865, 5909, 5911
5077, 5586, 5561, 5540, 5539, 5910, 5885, 5864, 5863
5078, 5587, 5562, 5513, 5512, 5911, 5886, 5837, 5836
5079, 5563, 5605, 5536, 5559, 5887, 5929, 5860, 5883
5080, 5625, 5604, 5603, 5629, 5949, 5928, 5927, 5953
5081, 5546, 5516, 5591, 5580, 5870, 5840, 5915, 5904
5082, 5548, 5547, 5579, 5567, 5872, 5871, 5903, 5891
5083, 5664, 5623, 5618, 5659, 5988, 5947, 5942, 5983
5084, 5520, 5519, 5595, 5569, 5844, 5843, 5919, 5893
5085, 5523, 5572, 5573, 5525, 5847, 5896, 5897, 5849
5086, 5575, 5610, 5612, 5570, 5899, 5934, 5936, 5894
5087, 5598, 5593, 5553, 5531, 5922, 5917, 5877, 5855
5088, 5555, 5532, 5600, 5566, 5879, 5856, 5924, 5890
5089, 5556, 5533, 5601, 5565, 5880, 5857, 5925, 5889
5090, 5602, 5589, 5557, 5534, 5926, 5913, 5881, 5858
5091, 5558, 5557, 5589, 5603, 5882, 5881, 5913, 5927
5092, 5740, 5584, 5605, 5619, 6064, 5908, 5929, 5943
5093, 5605, 5584, 5537, 5536, 5929, 5908, 5861, 5860
5094, 5606, 5586, 5539, 5538, 5930, 5910, 5863, 5862
5095, 5562, 5583, 5542, 5513, 5886, 5907, 5866, 5837
5096, 5543, 5514, 5588, 5582, 5867, 5838, 5912, 5906
5097, 5559, 5535, 5604, 5563, 5883, 5859, 5928, 5887
5098, 5619, 5605, 5563, 5621, 5943, 5929, 5887, 5945
5099, 5564, 5590, 5515, 5544, 5888, 5914, 5839, 5868
5100, 5565, 5602, 5534, 5556, 5889, 5926, 5858, 5880
5101, 5519, 5549, 5578, 5595, 5843, 5873, 5902, 5919
5102, 5554, 5553, 5593, 5599, 5878, 5877, 5917, 5923
5103, 5567, 5594, 5518, 5548, 5891, 5918, 5842, 5872
5104, 5568, 5598, 5531, 5552, 5892, 5922, 5855, 5876
5105, 5569, 5576, 5550, 5520, 5893, 5900, 5874, 5844
5106, 5610, 5575, 5779, 5574, 5934, 5899, 6103, 5898
5107, 5576, 5611, 5609, 5596, 5900, 5935, 5933, 5920
5108, 5596, 5609, 5608, 5571, 5920, 5933, 5932, 5895
5109, 5573, 5574, 5779, 5780, 5897, 5898, 6103, 6104
5110, 5733, 5796, 5711, 5735, 6057, 6120, 6035, 6059
5111, 5779, 5575, 5528, 5527, 6103, 5899, 5852, 5851
5112, 5521, 5550, 5576, 5596, 5845, 5874, 5900, 5920
5113, 5597, 5577, 5530, 5529, 5921, 5901, 5854, 5853
5114, 5570, 5612, 5616, 5597, 5894, 5936, 5940, 5921
5115, 5614, 5569, 5595, 5620, 5938, 5893, 5919, 5944
5116, 5594, 5578, 5549, 5518, 5918, 5902, 5873, 5842
5117, 5630, 5567, 5579, 5634, 5954, 5891, 5903, 5958
5118, 5517, 5546, 5580, 5592, 5841, 5870, 5904, 5916
5119, 5759, 5689, 5660, 5760, 6083, 6013, 5984, 6084
5120, 5516, 5545, 5581, 5591, 5840, 5869, 5905, 5915
5121, 5656, 5791, 5784, 5613, 5980, 6115, 6108, 5937
5122, 5514, 5542, 5583, 5588, 5838, 5866, 5907, 5912
5123, 5538, 5560, 5651, 5606, 5862, 5884, 5975, 5930
5124, 5781, 5586, 5606, 5607, 6105, 5910, 5930, 5931
5125, 5647, 5655, 5783, 5648, 5971, 5979, 6107, 5972
5126, 5511, 5510, 5648, 5650, 5835, 5834, 5972, 5974
5127, 5561, 5652, 5782, 5649, 5885, 5976, 6106, 5973
5128, 5627, 5588, 5583, 5624, 5951, 5912, 5907, 5948
5129, 5660, 5615, 5784, 5791, 5984, 5939, 6108, 6115
5130, 5621, 5563, 5604, 5625, 5945, 5887, 5928, 5949
5131, 5681, 5640, 5636, 5675, 6005, 5964, 5960, 5999
5132, 5626, 5594, 5567, 5630, 5950, 5918, 5891, 5954
5133, 5793, 5614, 5620, 5657, 6117, 5938, 5944, 5981
5134, 5797, 5726, 5742, 5741, 6121, 6050, 6066, 6065
5135, 5608, 5785, 5572, 5571, 5932, 6109, 5896, 5895
5136, 5532, 5554, 5599, 5600, 5856, 5878, 5923, 5924
5137, 5688, 5659, 5658, 5732, 6012, 5983, 5982, 6056
5138, 5633, 5589, 5602, 5637, 5957, 5913, 5926, 5961
5139, 5535, 5558, 5603, 5604, 5859, 5882, 5927, 5928
5140, 5619, 5787, 5712, 5740, 5943, 6111, 6036, 6064
5141, 5607, 5606, 5651, 5686, 5931, 5930, 5975, 6010
5142, 5650, 5613, 5784, 5585, 5974, 5937, 6108, 5909
5143, 5569, 5614, 5611, 5576, 5893, 5938, 5935, 5900
5144, 5618, 5577, 5597, 5616, 5942, 5901, 5921, 5940
5145, 5623, 5568, 5577, 5618, 5947, 5892, 5901, 5942
5146, 5628, 5598, 5568, 5623, 5952, 5922, 5892, 5947
5147, 5631, 5593, 5598, 5628, 5955, 5917, 5922, 5952
5148, 5617, 5562, 5587, 5615, 5941, 5886, 5911, 5939
5149, 5624, 5583, 5562, 5617, 5948, 5907, 5886, 5941
5150, 5620, 5595, 5578, 5622, 5944, 5919, 5902, 5946
5151, 5636, 5564, 5582, 5632, 5960, 5888, 5906, 5956
5152, 5635, 5599, 5593, 5631, 5959, 5923, 5917, 5955
5153, 5640, 5590, 5564, 5636, 5964, 5914, 5888, 5960
5154, 5639, 5600, 5599, 5635, 5963, 5924, 5923, 5959
5155, 5668, 5628, 5623, 5664, 5992, 5952, 5947, 5988
5156, 5729, 5739, 5748, 5803, 6053, 6063, 6072, 6127
5157, 5669, 5627, 5624, 5666, 5993, 5951, 5948, 5990
5158, 5677, 5635, 5631, 5673, 6001, 5959, 5955, 5997
5159, 5641, 5566, 5600, 5639, 5965, 5890, 5924, 5963
5160, 5642, 5581, 5590, 5640, 5966, 5905, 5914, 5964
5161, 5760, 5660, 5791, 5656, 6084, 5984, 6115, 5980
5162, 5793, 5657, 5799, 5687, 6117, 5981, 6123, 6011
5163, 5646, 5591, 5581, 5642, 5970, 5915, 5905, 5966
5164, 5645, 5601, 5566, 5641, 5969, 5925, 5890, 5965
5165, 5634, 5579, 5592, 5638, 5958, 5903, 5916, 5962
5166, 5726, 5797, 5731, 5801, 6050, 6121, 6055, 6125
5167, 5669, 5666, 5695, 5805, 5993, 5990, 6019, 6129
5168, 5565, 5643, 5637, 5602, 5889, 5967, 5961, 5926
5169, 5629, 5667, 5663, 5625, 5953, 5991, 5987, 5949
5170, 5580, 5644, 5638, 5592, 5904, 5968, 5962, 5916
5171, 5662, 5622, 5626, 5665, 5986, 5946, 5950, 5989
5172, 5702, 5675, 5671, 5699, 6026, 5999, 5995, 6023
5173, 5672, 5633, 5637, 5676, 5996, 5957, 5961, 6000
5174, 5670, 5634, 5638, 5674, 5994, 5958, 5962, 5998
5175, 5800, 5665, 5626, 5630, 6124, 5989, 5950, 5954
5176, 5643, 5565, 5601, 5645, 5967, 5889, 5925, 5969
5177, 5730, 5738, 5825, 5821, 6054, 6062, 6149, 6145
5178, 5644, 5580, 5591, 5646, 5968, 5904, 5915, 5970
5179, 5692, 5662, 5665, 5800, 6016, 5986, 5989, 6124
5180, 5667, 5629, 5633, 5672, 5991, 5953, 5957, 5996
5181, 5800, 5630, 5634, 5670, 6124, 5954, 5958, 5994
5182, 5751, 5655, 5782, 5789, 6075, 5979, 6106, 6113
5183, 5656, 5613, 5783, 5790, 5980, 5937, 6107, 6114
5184, 5560, 5537, 5584, 5651, 5884, 5861, 5908, 5975
5185, 5748, 5744, 5788, 5734, 6072, 6068, 6112, 6058
5186, 5744, 5652, 5781, 5788, 6068, 5976, 6105, 6112
5187, 5614, 5793, 5653, 5611, 5938, 6117, 5977, 5935
5188, 5786, 5711, 5796, 5725, 6110, 6035, 6120, 6049
5189, 5658, 5616, 5612, 5654, 5982, 5940, 5936, 5978
5190, 5658, 5659, 5618, 5616, 5982, 5983, 5942, 5940
5191, 5648, 5783, 5613, 5650, 5972, 6107, 5937, 5974
5192, 5753, 5656, 5790, 5751, 6077, 5980, 6114, 6075
5193, 5792, 5617, 5615, 5660, 6116, 5941, 5939, 5984
5194, 5673, 5631, 5628, 5668, 5997, 5955, 5952, 5992
5195, 5679, 5639, 5635, 5677, 6003, 5963, 5959, 6001
5196, 5675, 5636, 5632, 5671, 5999, 5960, 5956, 5995
5197, 5661, 5621, 5625, 5663, 5985, 5945, 5949, 5987
5198, 5787, 5619, 5621, 5661, 6111, 5943, 5945, 5985
5199, 5687, 5798, 5653, 5793, 6011, 6122, 5977, 6117
5200, 5660, 5689, 5804, 5792, 5984, 6013, 6128, 6116
5201, 5683, 5641, 5639, 5679, 6007, 5965, 5963, 6003
5202, 5657, 5662, 5692, 5799, 5981, 5986, 6016, 6123
5203, 5695, 5666, 5792, 5804, 6019, 5990, 6116, 6128
5204, 5684, 5642, 5640, 5681, 6008, 5966, 5964, 6005
5205, 5659, 5688, 5691, 5664, 5983, 6012, 6015, 5988
5206, 5704, 5677, 5673, 5698, 6028, 6001, 5997, 6022
5207, 5682, 5645, 5641, 5683, 6006, 5969, 5965, 6007
5208, 5685, 5646, 5642, 5684, 6009, 5970, 5966, 6008
5209, 5709, 5684, 5681, 5705, 6033, 6008, 6005, 6029
5210, 5644, 5680, 5674, 5638, 5968, 6004, 5998, 5962
5211, 5719, 5709, 5705, 5816, 6043, 6033, 6029, 6140
5212, 5643, 5678, 5676, 5637, 5967, 6002, 6000, 5961
5213, 5690, 5663, 5667, 5802, 6014, 5987, 5991, 6126
5214, 5664, 5691, 5694, 5668, 5988, 6015, 6018, 5992
5215, 5817, 5694, 5691, 5713, 6141, 6018, 6015, 6037
5216, 5730, 5693, 5697, 5715, 6054, 6017, 6021, 6039
5217, 5802, 5667, 5672, 5693, 6126, 5991, 5996, 6017
5218, 5645, 5682, 5678, 5643, 5969, 6006, 6002, 5967
5219, 5676, 5697, 5693, 5672, 6000, 6021, 6017, 5996
5220, 5682, 5708, 5701, 5678, 6006, 6032, 6025, 6002
5221, 5646, 5685, 5680, 5644, 5970, 6009, 6004, 5968
5222, 5674, 5700, 5696, 5670, 5998, 6024, 6020, 5994
5223, 5678, 5701, 5697, 5676, 6002, 6025, 6021, 6000
5224, 5698, 5717, 5809, 5704, 6022, 6041, 6133, 6028
5225, 5680, 5703, 5700, 5674, 6004, 6027, 6024, 5998
5226, 5728, 5687, 5799, 5692, 6052, 6011, 6123, 6016
5227, 5698, 5673, 5668, 5694, 6022, 5997, 5992, 6018
5228, 5724, 5727, 5787, 5661, 6048, 6051, 6111, 5985
5229, 5724, 5661, 5663, 5690, 6048, 5985, 5987, 6014
5230, 5707, 5679, 5677, 5704, 6031, 6003, 6001, 6028
5231, 5688, 5749, 5713, 5691, 6012, 6073, 6037, 6015
5232, 5692, 5800, 5670, 5696, 6016, 6124, 5994, 6020
5233, 5746, 5808, 5806, 5807, 6070, 6132, 6130, 6131
5234, 5812, 5716, 5695, 5766, 6136, 6040, 6019, 6090
5235, 5710, 5683, 5679, 5707, 6034, 6007, 6003, 6031
5236, 5766, 5695, 5804, 5689, 6090, 6019, 6128, 6013
5237, 5705, 5681, 5675, 5702, 6029, 6005, 5999, 6026
5238, 5818, 5746, 5736, 5754, 6142, 6070, 6060, 6078
5239, 5778, 5831, 5822, 5773, 6102, 6155, 6146, 6097
5240, 5763, 5811, 5720, 5765, 6087, 6135, 6044, 6089
5241, 5716, 5699, 5805, 5695, 6040, 6023, 6129, 6019
5242, 5706, 5685, 5684, 5709, 6030, 6009, 6008, 6033
5243, 5718, 5714, 5696, 5700, 6042, 6038, 6020, 6024
5244, 5811, 5701, 5708, 5720, 6135, 6025, 6032, 6044
5245, 5701, 5811, 5715, 5697, 6025, 6135, 6039, 6021
5246, 5772, 5809, 5717, 5817, 6096, 6133, 6041, 6141
5247, 5685, 5706, 5703, 5680, 6009, 6030, 6027, 6004
5248, 5703, 5706, 5721, 5815, 6027, 6030, 6045, 6139
5249, 5703, 5815, 5718, 5700, 6027, 6139, 6042, 6024
5250, 5708, 5682, 5683, 5710, 6032, 6006, 6007, 6034
5251, 5758, 5747, 5823, 5756, 6082, 6071, 6147, 6080
5252, 5733, 5735, 5785, 5608, 6057, 6059, 6109, 5932
5253, 5610, 5574, 5711, 5786, 5934, 5898, 6035, 6110
5254, 5749, 5737, 5750, 5767, 6073, 6061, 6074, 6091
5255, 5717, 5698, 5694, 5817, 6041, 6022, 6018, 6141
5256, 5714, 5728, 5692, 5696, 6038, 6052, 6016, 6020
5257, 5730, 5821, 5802, 5693, 6054, 6145, 6126, 6017
5258, 5716, 5813, 5702, 5699, 6040, 6137, 6026, 6023
5259, 5810, 5710, 5707, 5722, 6134, 6034, 6031, 6046
5260, 5827, 5778, 5769, 5829, 6151, 6102, 6093, 6153
5261, 5764, 5718, 5815, 5776, 6088, 6042, 6139, 6100
5262, 5706, 5709, 5719, 5721, 6030, 6033, 6043, 6045
5263, 5710, 5810, 5720, 5708, 6034, 6134, 6044, 6032
5264, 5763, 5830, 5823, 5824, 6087, 6154, 6147, 6148
5265, 5777, 5722, 5809, 5772, 6101, 6046, 6133, 6096
5266, 5796, 5733, 5801, 5731, 6120, 6057, 6125, 6055
5267, 5795, 5741, 5737, 5732, 6119, 6065, 6061, 6056
5268, 5747, 5745, 5825, 5738, 6071, 6069, 6149, 6062
5269, 5687, 5806, 5726, 5798, 6011, 6130, 6050, 6122
5270, 5742, 5808, 5746, 5750, 6066, 6132, 6070, 6074
5271, 5759, 5752, 5745, 5755, 6083, 6076, 6069, 6079
5272, 5814, 5727, 5724, 5690, 6138, 6051, 6048, 6014
5273, 5807, 5806, 5687, 5728, 6131, 6130, 6011, 6052
5274, 5788, 5781, 5607, 5734, 6112, 6105, 5931, 6058
5275, 5803, 5748, 5734, 5743, 6127, 6072, 6058, 6067
5276, 5733, 5794, 5723, 5801, 6057, 6118, 6047, 6125
5277, 5795, 5732, 5658, 5654, 6119, 6056, 5982, 5978
5278, 5749, 5688, 5732, 5737, 6073, 6012, 6056, 6061
5279, 5797, 5725, 5796, 5731, 6121, 6049, 6120, 6055
5280, 5744, 5789, 5782, 5652, 6068, 6113, 6106, 5976
5281, 5789, 5744, 5753, 5751, 6113, 6068, 6077, 6075
5282, 5718, 5736, 5819, 5714, 6042, 6060, 6143, 6038
5283, 5812, 5758, 5756, 5762, 6136, 6082, 6080, 6086
5284, 5824, 5738, 5730, 5715, 6148, 6062, 6054, 6039
5285, 5752, 5759, 5760, 5757, 6076, 6083, 6084, 6081
5286, 5741, 5795, 5725, 5797, 6065, 6119, 6049, 6121
5287, 5736, 5746, 5807, 5819, 6060, 6070, 6131, 6143
5288, 5737, 5741, 5742, 5750, 6061, 6065, 6066, 6074
5289, 5734, 5607, 5686, 5743, 6058, 5931, 6010, 6067
5290, 5656, 5753, 5757, 5760, 5980, 6077, 6081, 6084
5291, 5745, 5752, 5739, 5820, 6069, 6076, 6063, 6144
5292, 5689, 5759, 5755, 5766, 6013, 6083, 6079, 6090
5293, 5772, 5817, 5713, 5761, 6096, 6141, 6037, 6085
5294, 5821, 5825, 5745, 5820, 6145, 6149, 6069, 6144
5295, 5712, 5729, 5803, 5743, 6036, 6053, 6127, 6067
5296, 5761, 5713, 5749, 5767, 6085, 6037, 6073, 6091
5297, 5751, 5790, 5783, 5655, 6075, 6114, 6107, 5979
5298, 5752, 5757, 5748, 5739, 6076, 6081, 6072, 6063
5299, 5757, 5753, 5744, 5748, 6081, 6077, 6068, 6072
5300, 5761, 5754, 5764, 5768, 6085, 6078, 6088, 6092
5301, 5718, 5764, 5754, 5736, 6042, 6088, 6078, 6060
5302, 5812, 5766, 5755, 5758, 6136, 6090, 6079, 6082
5303, 5758, 5755, 5745, 5747, 6082, 6079, 6069, 6071
5304, 5829, 5769, 5762, 5756, 6153, 6093, 6086, 6080
5305, 5765, 5829, 5830, 5763, 6089, 6153, 6154, 6087
5306, 5767, 5750, 5746, 5818, 6091, 6074, 6070, 6142
5307, 5775, 5772, 5761, 5768, 6099, 6096, 6085, 6092
5308, 5816, 5813, 5762, 5773, 6140, 6137, 6086, 6097
5309, 5832, 5831, 5771, 5770, 6156, 6155, 6095, 6094
5310, 5777, 5826, 5765, 5828, 6101, 6150, 6089, 6152
5311, 5773, 5762, 5769, 5778, 6097, 6086, 6093, 6102
5312, 5767, 5818, 5754, 5761, 6091, 6142, 6078, 6085
5313, 5770, 5771, 5775, 5768, 6094, 6095, 6099, 6092
5314, 5831, 5832, 5774, 5822, 6155, 6156, 6098, 6146
5315, 5776, 5770, 5768, 5764, 6100, 6094, 6092, 6088
5316, 5772, 5775, 5826, 5777, 6096, 6099, 6150, 6101
5317, 5775, 5771, 5827, 5826, 6099, 6095, 6151, 6150
5318, 5716, 5812, 5762, 5813, 6040, 6136, 6086, 6137
5319, 5822, 5774, 5721, 5719, 6146, 6098, 6045, 6043
5320, 5776, 5815, 5721, 5774, 6100, 6139, 6045, 6098
5321, 5828, 5810, 5722, 5777, 6152, 6134, 6046, 6101
5322, 5827, 5771, 5831, 5778, 6151, 6095, 6155, 6102
5323, 5527, 5526, 5780, 5779, 5851, 5850, 6104, 6103
5324, 5655, 5647, 5649, 5782, 5979, 5971, 5973, 6106
5325, 5615, 5587, 5585, 5784, 5939, 5911, 5909, 6108
5326, 5795, 5654, 5786, 5725, 6119, 5978, 6110, 6049
5327, 5729, 5712, 5787, 5727, 6053, 6036, 6111, 6051
5328, 5666, 5624, 5617, 5792, 5990, 5948, 5941, 6116
5329, 5653, 5798, 5723, 5794, 5977, 6122, 6047, 6118
5330, 5733, 5608, 5609, 5794, 6057, 5932, 5933, 6118
5331, 5726, 5801, 5723, 5798, 6050, 6125, 6047, 6122
5332, 5814, 5690, 5802, 5821, 6138, 6014, 6126, 6145
5333, 5699, 5671, 5669, 5805, 6023, 5995, 5993, 6129
5334, 5808, 5742, 5726, 5806, 6132, 6066, 6050, 6130
5335, 5722, 5707, 5704, 5809, 6046, 6031, 6028, 6133
5336, 5765, 5720, 5810, 5828, 6089, 6044, 6134, 6152
5337, 5763, 5824, 5715, 5811, 6087, 6148, 6039, 6135
5338, 5813, 5816, 5705, 5702, 6137, 6140, 6029, 6026
5339, 5821, 5820, 5727, 5814, 6145, 6144, 6051, 6138
5340, 5727, 5820, 5739, 5729, 6051, 6144, 6063, 6053
5341, 5807, 5728, 5714, 5819, 6131, 6052, 6038, 6143
5342, 5822, 5719, 5816, 5773, 6146, 6043, 6140, 6097
5343, 5824, 5823, 5747, 5738, 6148, 6147, 6071, 6062
5344, 5829, 5756, 5823, 5830, 6153, 6080, 6147, 6154
5345, 5829, 5765, 5826, 5827, 6153, 6089, 6150, 6151
5346, 5770, 5776, 5774, 5832, 6094, 6100, 6098, 6156
5347, 5973, 5971, 5833, 5848, 6297, 6295, 6157, 6172
5348, 5885, 5973, 5848, 5864, 6209, 6297, 6172, 6188
5349, 5834, 5833, 5971, 5972, 6158, 6157, 6295, 6296
5350, 5974, 5909, 5865, 5835, 6298, 6233, 6189, 6159
5351, 5976, 5885, 5910, 6105, 6300, 6209, 6234, 6429
5352, 6067, 6010, 6064, 6036, 6391, 6334, 6388, 6360
5353, 5956, 5906, 5912, 5951, 6280, 6230, 6236, 6275
5354, 5914, 5905, 5869, 5839, 6238, 6229, 6193, 6163
5355, 5946, 5902, 5918, 5950, 6270, 6226, 6242, 6274
5356, 5857, 5879, 5890, 5925, 6181, 6203, 6214, 6249
5357, 5953, 5927, 5913, 5957, 6277, 6251, 6237, 6281
5358, 5934, 6110, 5978, 5936, 6258, 6434, 6302, 6260
5359, 5846, 5845, 5920, 5895, 6170, 6169, 6244, 6219
5360, 5894, 5921, 5853, 5875, 6218, 6245, 6177, 6199
5361, 5847, 5846, 5895, 5896, 6171, 6170, 6219, 6220
5362, 5850, 5849, 5897, 6104, 6174, 6173, 6221, 6428
5363, 6059, 5897, 5896, 6109, 6383, 6221, 6220, 6433
5364, 5897, 6059, 6035, 5898, 6221, 6383, 6359, 6222
5365, 5899, 5894, 5875, 5852, 6223, 6218, 6199, 6176
5366, 5876, 5854, 5901, 5892, 6200, 6178, 6225, 6216
5367, 5977, 6118, 5933, 5935, 6301, 6442, 6257, 6259
5368, 5981, 5944, 5946, 5986, 6305, 6268, 6270, 6310
5369, 5916, 5903, 5871, 5841, 6240, 6227, 6195, 6165
5370, 5995, 5956, 5951, 5993, 6319, 6280, 6275, 6317
5371, 5906, 5888, 5868, 5867, 6230, 6212, 6192, 6191
5372, 5908, 6064, 6010, 5975, 6232, 6388, 6334, 6299
5373, 5836, 5865, 5909, 5911, 6160, 6189, 6233, 6235
5374, 5910, 5885, 5864, 5863, 6234, 6209, 6188, 6187
5375, 5911, 5886, 5837, 5836, 6235, 6210, 6161, 6160
5376, 5887, 5929, 5860, 5883, 6211, 6253, 6184, 6207
5377, 5949, 5928, 5927, 5953, 6273, 6252, 6251, 6277
5378, 5870, 5840, 5915, 5904, 6194, 6164, 6239, 6228
5379, 5872, 5871, 5903, 5891, 6196, 6195, 6227, 6215
5380, 5988, 5947, 5942, 5983, 6312, 6271, 6266, 6307
5381, 5844, 5843, 5919, 5893, 6168, 6167, 6243, 6217
5382, 5847, 5896, 5897, 5849, 6171, 6220, 6221, 6173
5383, 5899, 5934, 5936, 5894, 6223, 6258, 6260, 6218
5384, 5922, 5917, 5877, 5855, 6246, 6241, 6201, 6179
5385, 5879, 5856, 5924, 5890, 6203, 6180, 6248, 6214
5386, 5880, 5857, 5925, 5889, 6204, 6181, 6249, 6213
5387, 5926, 5913, 5881, 5858, 6250, 6237, 6205, 6182
5388, 5882, 5881, 5913, 5927, 6206, 6205, 6237, 6251
5389, 6064, 5908, 5929, 5943, 6388, 6232, 6253, 6267
5390, 5929, 5908, 5861, 5860, 6253, 6232, 6185, 6184
5391, 5930, 5910, 5863, 5862, 6254, 6234, 6187, 6186
5392, 5886, 5907, 5866, 5837, 6210, 6231, 6190, 6161
5393, 5867, 5838, 5912, 5906, 6191, 6162, 6236, 6230
5394, 5883, 5859, 5928, 5887, 6207, 6183, 6252, 6211
5395, 5943, 5929, 5887, 5945, 6267, 6253, 6211, 6269
5396, 5888, 5914, 5839, 5868, 6212, 6238, 6163, 6192
5397, 5889, 5926, 5858, 5880, 6213, 6250, 6182, 6204
5398, 5843, 5873, 5902, 5919, 6167, 6197, 6226, 6243
5399, 5878, 5877, 5917, 5923, 6202, 6201, 6241, 6247
5400, 5891, 5918, 5842, 5872, 6215, 6242, 6166, 6196
5401, 5892, 5922, 5855, 5876, 6216, 6246, 6179, 6200
5402, 5893, 5900, 5874, 5844, 6217, 6224, 6198, 6168
5403, 5934, 5899, 6103, 5898, 6258, 6223, 6427, 6222
5404, 5900, 5935, 5933, 5920, 6224, 6259, 6257, 6244
5405, 5920, 5933, 5932, 5895, 6244, 6257, 6256, 6219
5406, 5897, 5898, 6103, 6104, 6221, 6222, 6427, 6428
5407, 6057, 6120, 6035, 6059, 6381, 6444, 6359, 6383
5408, 6103, 5899, 5852, 5851, 6427, 6223, 6176, 6175
5409, 5845, 5874, 5900, 5920, 6169, 6198, 6224, 6244
5410, 5921, 5901, 5854, 5853, 6245, 6225, 6178, 6177
5411, 5894, 5936, 5940, 5921, 6218, 6260, 6264, 6245
5412, 5938, 5893, 5919, 5944, 6262, 6217, 6243, 6268
5413, 5918, 5902, 5873, 5842, 6242, 6226, 6197, 6166
5414, 5954, 5891, 5903, 5958, 6278, 6215, 6227, 6282
5415, 5841, 5870, 5904, 5916, 6165, 6194, 6228, 6240
5416, 6083, 6013, 5984, 6084, 6407, 6337, 6308, 6408
5417, 5840, 5869, 5905, 5915, 6164, 6193, 6229, 6239
5418, 5980, 6115, 6108, 5937, 6304, 6439, 6432, 6261
5419, 5838, 5866, 5907, 5912, 6162, 6190, 6231, 6236
5420, 5862, 5884, 5975, 5930, 6186, 6208, 6299, 6254
5421, 6105, 5910, 5930, 5931, 6429, 6234, 6254, 6255
5422, 5971, 5979, 6107, 5972, 6295, 6303, 6431, 6296
5423, 5835, 5834, 5972, 5974, 6159, 6158, 6296, 6298
5424, 5885, 5976, 6106, 5973, 6209, 6300, 6430, 6297
5425, 5951, 5912, 5907, 5948, 6275, 6236, 6231, 6272
5426, 5984, 5939, 6108, 6115, 6308, 6263, 6432, 6439
5427, 5945, 5887, 5928, 5949, 6269, 6211, 6252, 6273
5428, 6005, 5964, 5960, 5999, 6329, 6288, 6284, 6323
5429, 5950, 5918, 5891, 5954, 6274, 6242, 6215, 6278
5430, 6117, 5938, 5944, 5981, 6441, 6262, 6268, 6305
5431, 6121, 6050, 6066, 6065, 6445, 6374, 6390, 6389
5432, 5932, 6109, 5896, 5895, 6256, 6433, 6220, 6219
5433, 5856, 5878, 5923, 5924, 6180, 6202, 6247, 6248
5434, 6012, 5983, 5982, 6056, 6336, 6307, 6306, 6380
5435, 5957, 5913, 5926, 5961, 6281, 6237, 6250, 6285
5436, 5859, 5882, 5927, 5928, 6183, 6206, 6251, 6252
5437, 5943, 6111, 6036, 6064, 6267, 6435, 6360, 6388
5438, 5931, 5930, 5975, 6010, 6255, 6254, 6299, 6334
5439, 5974, 5937, 6108, 5909, 6298, 6261, 6432, 6233
5440, 5893, 5938, 5935, 5900, 6217, 6262, 6259, 6224
5441, 5942, 5901, 5921, 5940, 6266, 6225, 6245, 6264
5442, 5947, 5892, 5901, 5942, 6271, 6216, 6225, 6266
5443, 5952, 5922, 5892, 5947, 6276, 6246, 6216, 6271
5444, 5955, 5917, 5922, 5952, 6279, 6241, 6246, 6276
5445, 5941, 5886, 5911, 5939, 6265, 6210, 6235, 6263
5446, 5948, 5907, 5886, 5941, 6272, 6231, 6210, 6265
5447, 5944, 5919, 5902, 5946, 6268, 6243, 6226, 6270
5448, 5960, 5888, 5906, 5956, 6284, 6212, 6230, 6280
5449, 5959, 5923, 5917, 5955, 6283, 6247, 6241, 6279
5450, 5964, 5914, 5888, 5960, 6288, 6238, 6212, 6284
5451, 5963, 5924, 5923, 5959, 6287, 6248, 6247, 6283
5452, 5992, 5952, 5947, 5988, 6316, 6276, 6271, 6312
5453, 6053, 6063, 6072, 6127, 6377, 6387, 6396, 6451
5454, 5993, 5951, 5948, 5990, 6317, 6275, 6272, 6314
5455, 6001, 5959, 5955, 5997, 6325, 6283, 6279, 6321
5456, 5965, 5890, 5924, 5963, 6289, 6214, 6248, 6287
5457, 5966, 5905, 5914, 5964, 6290, 6229, 6238, 6288
5458, 6084, 5984, 6115, 5980, 6408, 6308, 6439, 6304
5459, 6117, 5981, 6123, 6011, 6441, 6305, 6447, 6335
5460, 5970, 5915, 5905, 5966, 6294, 6239, 6229, 6290
5461, 5969, 5925, 5890, 5965, 6293, 6249, 6214, 6289
5462, 5958, 5903, 5916, 5962, 6282, 6227, 6240, 6286
5463, 6050, 6121, 6055, 6125, 6374, 6445, 6379, 6449
5464, 5993, 5990, 6019, 6129, 6317, 6314, 6343, 6453
5465, 5889, 5967, 5961, 5926, 6213, 6291, 6285, 6250
5466, 5953, 5991, 5987, 5949, 6277, 6315, 6311, 6273
5467, 5904, 5968, 5962, 5916, 6228, 6292, 6286, 6240
5468, 5986, 5946, 5950, 5989, 6310, 6270, 6274, 6313
5469, 6026, 5999, 5995, 6023, 6350, 6323, 6319, 6347
5470, 5996, 5957, 5961, 6000, 6320, 6281, 6285, 6324
5471, 5994, 5958, 5962, 5998, 6318, 6282, 6286, 6322
5472, 6124, 5989, 5950, 5954, 6448, 6313, 6274, 6278
5473, 5967, 5889, 5925, 5969, 6291, 6213, 6249, 6293
5474, 6054, 6062, 6149, 6145, 6378, 6386, 6473, 6469
5475, 5968, 5904, 5915, 5970, 6292, 6228, 6239, 6294
5476, 6016, 5986, 5989, 6124, 6340, 6310, 6313, 6448
5477, 5991, 5953, 5957, 5996, 6315, 6277, 6281, 6320
5478, 6124, 5954, 5958, 5994, 6448, 6278, 6282, 6318
5479, 6075, 5979, 6106, 6113, 6399, 6303, 6430, 6437
5480, 5980, 5937, 6107, 6114, 6304, 6261, 6431, 6438
5481, 5884, 5861, 5908, 5975, 6208, 6185, 6232, 6299
5482, 6072, 6068, 6112, 6058, 6396, 6392, 6436, 6382
5483, 6068, 5976, 6105, 6112, 6392, 6300, 6429, 6436
5484, 5938, 6117, 5977, 5935, 6262, 6441, 6301, 6259
5485, 6110, 6035, 6120, 6049, 6434, 6359, 6444, 6373
5486, 5982, 5940, 5936, 5978, 6306, 6264, 6260, 6302
5487, 5982, 5983, 5942, 5940, 6306, 6307, 6266, 6264
5488, 5972, 6107, 5937, 5974, 6296, 6431, 6261, 6298
5489, 6077, 5980, 6114, 6075, 6401, 6304, 6438, 6399
5490, 6116, 5941, 5939, 5984, 6440, 6265, 6263, 6308
5491, 5997, 5955, 5952, 5992, 6321, 6279, 6276, 6316
5492, 6003, 5963, 5959, 6001, 6327, 6287, 6283, 6325
5493, 5999, 5960, 5956, 5995, 6323, 6284, 6280, 6319
5494, 5985, 5945, 5949, 5987, 6309, 6269, 6273, 6311
5495, 6111, 5943, 5945, 5985, 6435, 6267, 6269, 6309
5496, 6011, 6122, 5977, 6117, 6335, 6446, 6301, 6441
5497, 5984, 6013, 6128, 6116, 6308, 6337, 6452, 6440
5498, 6007, 5965, 5963, 6003, 6331, 6289, 6287, 6327
5499, 5981, 5986, 6016, 6123, 6305, 6310, 6340, 6447
5500, 6019, 5990, 6116, 6128, 6343, 6314, 6440, 6452
5501, 6008, 5966, 5964, 6005, 6332, 6290, 6288, 6329
5502, 5983, 6012, 6015, 5988, 6307, 6336, 6339, 6312
5503, 6028, 6001, 5997, 6022, 6352, 6325, 6321, 6346
5504, 6006, 5969, 5965, 6007, 6330, 6293, 6289, 6331
5505, 6009, 5970, 5966, 6008, 6333, 6294, 6290, 6332
5506, 6033, 6008, 6005, 6029, 6357, 6332, 6329, 6353
5507, 5968, 6004, 5998, 5962, 6292, 6328, 6322, 6286
5508, 6043, 6033, 6029, 6140, 6367, 6357, 6353, 6464
5509, 5967, 6002, 6000, 5961, 6291, 6326, 6324, 6285
5510, 6014, 5987, 5991, 6126, 6338, 6311, 6315, 6450
5511, 5988, 6015, 6018, 5992, 6312, 6339, 6342, 6316
5512, 6141, 6018, 6015, 6037, 6465, 6342, 6339, 6361
5513, 6054, 6017, 6021, 6039, 6378, 6341, 6345, 6363
5514, 6126, 5991, 5996, 6017, 6450, 6315, 6320, 6341
5515, 5969, 6006, 6002, 5967, 6293, 6330, 6326, 6291
5516, 6000, 6021, 6017, 5996, 6324, 6345, 6341, 6320
5517, 6006, 6032, 6025, 6002, 6330, 6356, 6349, 6326
5518, 5970, 6009, 6004, 5968, 6294, 6333, 6328, 6292
5519, 5998, 6024, 6020, 5994, 6322, 6348, 6344, 6318
5520, 6002, 6025, 6021, 6000, 6326, 6349, 6345, 6324
5521, 6022, 6041, 6133, 6028, 6346, 6365, 6457, 6352
5522, 6004, 6027, 6024, 5998, 6328, 6351, 6348, 6322
5523, 6052, 6011, 6123, 6016, 6376, 6335, 6447, 6340
5524, 6022, 5997, 5992, 6018, 6346, 6321, 6316, 6342
5525, 6048, 6051, 6111, 5985, 6372, 6375, 6435, 6309
5526, 6048, 5985, 5987, 6014, 6372, 6309, 6311, 6338
5527, 6031, 6003, 6001, 6028, 6355, 6327, 6325, 6352
5528, 6012, 6073, 6037, 6015, 6336, 6397, 6361, 6339
5529, 6016, 6124, 5994, 6020, 6340, 6448, 6318, 6344
5530, 6070, 6132, 6130, 6131, 6394, 6456, 6454, 6455
5531, 6136, 6040, 6019, 6090, 6460, 6364, 6343, 6414
5532, 6034, 6007, 6003, 6031, 6358, 6331, 6327, 6355
5533, 6090, 6019, 6128, 6013, 6414, 6343, 6452, 6337
5534, 6029, 6005, 5999, 6026, 6353, 6329, 6323, 6350
5535, 6142, 6070, 6060, 6078, 6466, 6394, 6384, 6402
5536, 6102, 6155, 6146, 6097, 6426, 6479, 6470, 6421
5537, 6087, 6135, 6044, 6089, 6411, 6459, 6368, 6413
5538, 6040, 6023, 6129, 6019, 6364, 6347, 6453, 6343
5539, 6030, 6009, 6008, 6033, 6354, 6333, 6332, 6357
5540, 6042, 6038, 6020, 6024, 6366, 6362, 6344, 6348
5541, 6135, 6025, 6032, 6044, 6459, 6349, 6356, 6368
5542, 6025, 6135, 6039, 6021, 6349, 6459, 6363, 6345
5543, 6096, 6133, 6041, 6141, 6420, 6457, 6365, 6465
5544, 6009, 6030, 6027, 6004, 6333, 6354, 6351, 6328
5545, 6027, 6030, 6045, 6139, 6351, 6354, 6369, 6463
5546, 6027, 6139, 6042, 6024, 6351, 6463, 6366, 6348
5547, 6032, 6006, 6007, 6034, 6356, 6330, 6331, 6358
5548, 6082, 6071, 6147, 6080, 6406, 6395, 6471, 6404
5549, 6057, 6059, 6109, 5932, 6381, 6383, 6433, 6256
5550, 5934, 5898, 6035, 6110, 6258, 6222, 6359, 6434
5551, 6073, 6061, 6074, 6091, 6397, 6385, 6398, 6415
5552, 6041, 6022, 6018, 6141, 6365, 6346, 6342, 6465
5553, 6038, 6052, 6016, 6020, 6362, 6376, 6340, 6344
5554, 6054, 6145, 6126, 6017, 6378, 6469, 6450, 6341
5555, 6040, 6137, 6026, 6023, 6364, 6461, 6350, 6347
5556, 6134, 6034, 6031, 6046, 6458, 6358, 6355, 6370
5557, 6151, 6102, 6093, 6153, 6475, 6426, 6417, 6477
5558, 6088, 6042, 6139, 6100, 6412, 6366, 6463, 6424
5559, 6030, 6033, 6043, 6045, 6354, 6357, 6367, 6369
5560, 6034, 6134, 6044, 6032, 6358, 6458, 6368, 6356
5561, 6087, 6154, 6147, 6148, 6411, 6478, 6471, 6472
5562, 6101, 6046, 6133, 6096, 6425, 6370, 6457, 6420
5563, 6120, 6057, 6125, 6055, 6444, 6381, 6449, 6379
5564, 6119, 6065, 6061, 6056, 6443, 6389, 6385, 6380
5565, 6071, 6069, 6149, 6062, 6395, 6393, 6473, 6386
5566, 6011, 6130, 6050, 6122, 6335, 6454, 6374, 6446
5567, 6066, 6132, 6070, 6074, 6390, 6456, 6394, 6398
5568, 6083, 6076, 6069, 6079, 6407, 6400, 6393, 6403
5569, 6138, 6051, 6048, 6014, 6462, 6375, 6372, 6338
5570, 6131, 6130, 6011, 6052, 6455, 6454, 6335, 6376
5571, 6112, 6105, 5931, 6058, 6436, 6429, 6255, 6382
5572, 6127, 6072, 6058, 6067, 6451, 6396, 6382, 6391
5573, 6057, 6118, 6047, 6125, 6381, 6442, 6371, 6449
5574, 6119, 6056, 5982, 5978, 6443, 6380, 6306, 6302
5575, 6073, 6012, 6056, 6061, 6397, 6336, 6380, 6385
5576, 6121, 6049, 6120, 6055, 6445, 6373, 6444, 6379
5577, 6068, 6113, 6106, 5976, 6392, 6437, 6430, 6300
5578, 6113, 6068, 6077, 6075, 6437, 6392, 6401, 6399
5579, 6042, 6060, 6143, 6038, 6366, 6384, 6467, 6362
5580, 6136, 6082, 6080, 6086, 6460, 6406, 6404, 6410
5581, 6148, 6062, 6054, 6039, 6472, 6386, 6378, 6363
5582, 6076, 6083, 6084, 6081, 6400, 6407, 6408, 6405
5583, 6065, 6119, 6049, 6121, 6389, 6443, 6373, 6445
5584, 6060, 6070, 6131, 6143, 6384, 6394, 6455, 6467
5585, 6061, 6065, 6066, 6074, 6385, 6389, 6390, 6398
5586, 6058, 5931, 6010, 6067, 6382, 6255, 6334, 6391
5587, 5980, 6077, 6081, 6084, 6304, 6401, 6405, 6408
5588, 6069, 6076, 6063, 6144, 6393, 6400, 6387, 6468
5589, 6013, 6083, 6079, 6090, 6337, 6407, 6403, 6414
5590, 6096, 6141, 6037, 6085, 6420, 6465, 6361, 6409
5591, 6145, 6149, 6069, 6144, 6469, 6473, 6393, 6468
5592, 6036, 6053, 6127, 6067, 6360, 6377, 6451, 6391
5593, 6085, 6037, 6073, 6091, 6409, 6361, 6397, 6415
5594, 6075, 6114, 6107, 5979, 6399, 6438, 6431, 6303
5595, 6076, 6081, 6072, 6063, 6400, 6405, 6396, 6387
5596, 6081, 6077, 6068, 6072, 6405, 6401, 6392, 6396
5597, 6085, 6078, 6088, 6092, 6409, 6402, 6412, 6416
5598, 6042, 6088, 6078, 6060, 6366, 6412, 6402, 6384
5599, 6136, 6090, 6079, 6082, 6460, 6414, 6403, 6406
5600, 6082, 6079, 6069, 6071, 6406, 6403, 6393, 6395
5601, 6153, 6093, 6086, 6080, 6477, 6417, 6410, 6404
5602, 6089, 6153, 6154, 6087, 6413, 6477, 6478, 6411
5603, 6091, 6074, 6070, 6142, 6415, 6398, 6394, 6466
5604, 6099, 6096, 6085, 6092, 6423, 6420, 6409, 6416
5605, 6140, 6137, 6086, 6097, 6464, 6461, 6410, 6421
5606, 6156, 6155, 6095, 6094, 6480, 6479, 6419, 6418
5607, 6101, 6150, 6089, 6152, 6425, 6474, 6413, 6476
5608, 6097, 6086, 6093, 6102, 6421, 6410, 6417, 6426
5609, 6091, 6142, 6078, 6085, 6415, 6466, 6402, 6409
5610, 6094, 6095, 6099, 6092, 6418, 6419, 6423, 6416
5611, 6155, 6156, 6098, 6146, 6479, 6480, 6422, 6470
5612, 6100, 6094, 6092, 6088, 6424, 6418, 6416, 6412
5613, 6096, 6099, 6150, 6101, 6420, 6423, 6474, 6425
5614, 6099, 6095, 6151, 6150, 6423, 6419, 6475, 6474
5615, 6040, 6136, 6086, 6137, 6364, 6460, 6410, 6461
5616, 6146, 6098, 6045, 6043, 6470, 6422, 6369, 6367
5617, 6100, 6139, 6045, 6098, 6424, 6463, 6369, 6422
5618, 6152, 6134, 6046, 6101, 6476, 6458, 6370, 6425
5619, 6151, 6095, 6155, 6102, 6475, 6419, 6479, 6426
5620, 5851, 5850, 6104, 6103, 6175, 6174, 6428, 6427
5621, 5979, 5971, 5973, 6106, 6303, 6295, 6297, 6430
5622, 5939, 5911, 5909, 6108, 6263, 6235, 6233, 6432
5623, 6119, 5978, 6110, 6049, 6443, 6302, 6434, 6373
5624, 6053, 6036, 6111, 6051, 6377, 6360, 6435, 6375
5625, 5990, 5948, 5941, 6116, 6314, 6272, 6265, 6440
5626, 5977, 6122, 6047, 6118, 6301, 6446, 6371, 6442
5627, 6057, 5932, 5933, 6118, 6381, 6256, 6257, 6442
5628, 6050, 6125, 6047, 6122, 6374, 6449, 6371, 6446
5629, 6138, 6014, 6126, 6145, 6462, 6338, 6450, 6469
5630, 6023, 5995, 5993, 6129, 6347, 6319, 6317, 6453
5631, 6132, 6066, 6050, 6130, 6456, 6390, 6374, 6454
5632, 6046, 6031, 6028, 6133, 6370, 6355, 6352, 6457
5633, 6089, 6044, 6134, 6152, 6413, 6368, 6458, 6476
5634, 6087, 6148, 6039, 6135, 6411, 6472, 6363, 6459
5635, 6137, 6140, 6029, 6026, 6461, 6464, 6353, 6350
5636, 6145, 6144, 6051, 6138, 6469, 6468, 6375, 6462
5637, 6051, 6144, 6063, 6053, 6375, 6468, 6387, 6377
5638, 6131, 6052, 6038, 6143, 6455, 6376, 6362, 6467
5639, 6146, 6043, 6140, 6097, 6470, 6367, 6464, 6421
5640, 6148, 6147, 6071, 6062, 6472, 6471, 6395, 6386
5641, 6153, 6080, 6147, 6154, 6477, 6404, 6471, 6478
5642, 6153, 6089, 6150, 6151, 6477, 6413, 6474, 6475
5643, 6094, 6100, 6098, 6156, 6418, 6424, 6422, 6480
5644, 6297, 6295, 6157, 6172, 6621, 6619, 6481, 6496
5645, 6209, 6297, 6172, 6188, 6533, 6621, 6496, 6512
5646, 6158, 6157, 6295, 6296, 6482, 6481, 6619, 6620
5647, 6298, 6233, 6189, 6159, 6622, 6557, 6513, 6483
5648, 6300, 6209, 6234, 6429, 6624, 6533, 6558, 6753
5649, 6391, 6334, 6388, 6360, 6715, 6658, 6712, 6684
5650, 6280, 6230, 6236, 6275, 6604, 6554, 6560, 6599
5651, 6238, 6229, 6193, 6163, 6562, 6553, 6517, 6487
5652, 6270, 6226, 6242, 6274, 6594, 6550, 6566, 6598
5653, 6181, 6203, 6214, 6249, 6505, 6527, 6538, 6573
5654, 6277, 6251, 6237, 6281, 6601, 6575, 6561, 6605
5655, 6258, 6434, 6302, 6260, 6582, 6758, 6626, 6584
5656, 6170, 6169, 6244, 6219, 6494, 6493, 6568, 6543
5657, 6218, 6245, 6177, 6199, 6542, 6569, 6501, 6523
5658, 6171, 6170, 6219, 6220, 6495, 6494, 6543, 6544
5659, 6174, 6173, 6221, 6428, 6498, 6497, 6545, 6752
5660, 6383, 6221, 6220, 6433, 6707, 6545, 6544, 6757
5661, 6221, 6383, 6359, 6222, 6545, 6707, 6683, 6546
5662, 6223, 6218, 6199, 6176, 6547, 6542, 6523, 6500
5663, 6200, 6178, 6225, 6216, 6524, 6502, 6549, 6540
5664, 6301, 6442, 6257, 6259, 6625, 6766, 6581, 6583
5665, 6305, 6268, 6270, 6310, 6629, 6592, 6594, 6634
5666, 6240, 6227, 6195, 6165, 6564, 6551, 6519, 6489
5667, 6319, 6280, 6275, 6317, 6643, 6604, 6599, 6641
5668, 6230, 6212, 6192, 6191, 6554, 6536, 6516, 6515
5669, 6232, 6388, 6334, 6299, 6556, 6712, 6658, 6623
5670, 6160, 6189, 6233, 6235, 6484, 6513, 6557, 6559
5671, 6234, 6209, 6188, 6187, 6558, 6533, 6512, 6511
5672, 6235, 6210, 6161, 6160, 6559, 6534, 6485, 6484
5673, 6211, 6253, 6184, 6207, 6535, 6577, 6508, 6531
5674, 6273, 6252, 6251, 6277, 6597, 6576, 6575, 6601
5675, 6194, 6164, 6239, 6228, 6518, 6488, 6563, 6552
5676, 6196, 6195, 6227, 6215, 6520, 6519, 6551, 6539
5677, 6312, 6271, 6266, 6307, 6636, 6595, 6590, 6631
5678, 6168, 6167, 6243, 6217, 6492, 6491, 6567, 6541
5679, 6171, 6220, 6221, 6173, 6495, 6544, 6545, 6497
5680, 6223, 6258, 6260, 6218, 6547, 6582, 6584, 6542
5681, 6246, 6241, 6201, 6179, 6570, 6565, 6525, 6503
5682, 6203, 6180, 6248, 6214, 6527, 6504, 6572, 6538
5683, 6204, 6181, 6249, 6213, 6528, 6505, 6573, 6537
5684, 6250, 6237, 6205, 6182, 6574, 6561, 6529, 6506
5685, 6206, 6205, 6237, 6251, 6530, 6529, 6561, 6575
5686, 6388, 6232, 6253, 6267, 6712, 6556, 6577, 6591
5687, 6253, 6232, 6185, 6184, 6577, 6556, 6509, 6508
5688, 6254, 6234, 6187, 6186, 6578, 6558, 6511, 6510
5689, 6210, 6231, 6190, 6161, 6534, 6555, 6514, 6485
5690, 6191, 6162, 6236, 6230, 6515, 6486, 6560, 6554
5691, 6207, 6183, 6252, 6211, 6531, 6507, 6576, 6535
5692, 6267, 6253, 6211, 6269, 6591, 6577, 6535, 6593
5693, 6212, 6238, 6163, 6192, 6536, 6562, 6487, 6516
5694, 6213, 6250, 6182, 6204, 6537, 6574, 6506, 6528
5695, 6167, 6197, 6226, 6243, 6491, 6521, 6550, 6567
5696, 6202, 6201, 6241, 6247, 6526, 6525, 6565, 6571
5697, 6215, 6242, 6166, 6196, 6539, 6566, 6490, 6520
5698, 6216, 6246, 6179, 6200, 6540, 6570, 6503, 6524
5699, 6217, 6224, 6198, 6168, 6541, 6548, 6522, 6492
5700, 6258, 6223, 6427, 6222, 6582, 6547, 6751, 6546
5701, 6224, 6259, 6257, 6244, 6548, 6583, 6581, 6568
5702, 6244, 6257, 6256, 6219, 6568, 6581, 6580, 6543
5703, 6221, 6222, 6427, 6428, 6545, 6546, 6751, 6752
5704, 6381, 6444, 6359, 6383, 6705, 6768, 6683, 6707
5705, 6427, 6223, 6176, 6175, 6751, 6547, 6500, 6499
5706, 6169, 6198, 6224, 6244, 6493, 6522, 6548, 6568
5707, 6245, 6225, 6178, 6177, 6569, 6549, 6502, 6501
5708, 6218, 6260, 6264, 6245, 6542, 6584, 6588, 6569
5709, 6262, 6217, 6243, 6268, 6586, 6541, 6567, 6592
5710, 6242, 6226, 6197, 6166, 6566, 6550, 6521, 6490
5711, 6278, 6215, 6227, 6282, 6602, 6539, 6551, 6606
5712, 6165, 6194, 6228, 6240, 6489, 6518, 6552, 6564
5713, 6407, 6337, 6308, 6408, 6731, 6661, 6632, 6732
5714, 6164, 6193, 6229, 6239, 6488, 6517, 6553, 6563
5715, 6304, 6439, 6432, 6261, 6628, 6763, 6756, 6585
5716, 6162, 6190, 6231, 6236, 6486, 6514, 6555, 6560
5717, 6186, 6208, 6299, 6254, 6510, 6532, 6623, 6578
5718, 6429, 6234, 6254, 6255, 6753, 6558, 6578, 6579
5719, 6295, 6303, 6431, 6296, 6619, 6627, 6755, 6620
5720, 6159, 6158, 6296, 6298, 6483, 6482, 6620, 6622
5721, 6209, 6300, 6430, 6297, 6533, 6624, 6754, 6621
5722, 6275, 6236, 6231, 6272, 6599, 6560, 6555, 6596
5723, 6308, 6263, 6432, 6439, 6632, 6587, 6756, 6763
5724, 6269, 6211, 6252, 6273, 6593, 6535, 6576, 6597
5725, 6329, 6288, 6284, 6323, 6653, 6612, 6608, 6647
5726, 6274, 6242, 6215, 6278, 6598, 6566, 6539, 6602
5727, 6441, 6262, 6268, 6305, 6765, 6586, 6592, 6629
5728, 6445, 6374, 6390, 6389, 6769, 6698, 6714, 6713
5729, 6256, 6433, 6220, 6219, 6580, 6757, 6544, 6543
5730, 6180, 6202, 6247, 6248, 6504, 6526, 6571, 6572
5731, 6336, 6307, 6306, 6380, 6660, 6631, 6630, 6704
5732, 6281, 6237, 6250, 6285, 6605, 6561, 6574, 6609
5733, 6183, 6206, 6251, 6252, 6507, 6530, 6575, 6576
5734, 6267, 6435, 6360, 6388, 6591, 6759, 6684, 6712
5735, 6255, 6254, 6299, 6334, 6579, 6578, 6623, 6658
5736, 6298, 6261, 6432, 6233, 6622, 6585, 6756, 6557
5737, 6217, 6262, 6259, 6224, 6541, 6586, 6583, 6548
5738, 6266, 6225, 6245, 6264, 6590, 6549, 6569, 6588
5739, 6271, 6216, 6225, 6266, 6595, 6540, 6549, 6590
5740, 6276, 6246, 6216, 6271, 6600, 6570, 6540, 6595
5741, 6279, 6241, 6246, 6276, 6603, 6565, 6570, 6600
5742, 6265, 6210, 6235, 6263, 6589, 6534, 6559, 6587
5743, 6272, 6231, 6210, 6265, 6596, 6555, 6534, 6589
5744, 6268, 6243, 6226, 6270, 6592, 6567, 6550, 6594
5745, 6284, 6212, 6230, 6280, 6608, 6536, 6554, 6604
5746, 6283, 6247, 6241, 6279, 6607, 6571, 6565, 6603
5747, 6288, 6238, 6212, 6284, 6612, 6562, 6536, 6608
5748, 6287, 6248, 6247, 6283, 6611, 6572, 6571, 6607
5749, 6316, 6276, 6271, 6312, 6640, 6600, 6595, 6636
5750, 6377, 6387, 6396, 6451, 6701, 6711, 6720, 6775
5751, 6317, 6275, 6272, 6314, 6641, 6599, 6596, 6638
5752, 6325, 6283, 6279, 6321, 6649, 6607, 6603, 6645
5753, 6289, 6214, 6248, 6287, 6613, 6538, 6572, 6611
5754, 6290, 6229, 6238, 6288, 6614, 6553, 6562, 6612
5755, 6408, 6308, 6439, 6304, 6732, 6632, 6763, 6628
5756, 6441, 6305, 6447, 6335, 6765, 6629, 6771, 6659
5757, 6294, 6239, 6229, 6290, 6618, 6563, 6553, 6614
5758, 6293, 6249, 6214, 6289, 6617, 6573, 6538, 6613
5759, 6282, 6227, 6240, 6286, 6606, 6551, 6564, 6610
5760, 6374, 6445, 6379, 6449, 6698, 6769, 6703, 6773
5761, 6317, 6314, 6343, 6453, 6641, 6638, 6667, 6777
5762, 6213, 6291, 6285, 6250, 6537, 6615, 6609, 6574
5763, 6277, 6315, 6311, 6273, 6601, 6639, 6635, 6597
5764, 6228, 6292, 6286, 6240, 6552, 6616, 6610, 6564
5765, 6310, 6270, 6274, 6313, 6634, 6594, 6598, 6637
5766, 6350, 6323, 6319, 6347, 6674, 6647, 6643, 6671
5767, 6320, 6281, 6285, 6324, 6644, 6605, 6609, 6648
5768, 6318, 6282, 6286, 6322, 6642, 6606, 6610, 6646
5769, 6448, 6313, 6274, 6278, 6772, 6637, 6598, 6602
5770, 6291, 6213, 6249, 6293, 6615, 6537, 6573, 6617
5771, 6378, 6386, 6473, 6469, 6702, 6710, 6797, 6793
5772, 6292, 6228, 6239, 6294, 6616, 6552, 6563, 6618
5773, 6340, 6310, 6313, 6448, 6664, 6634, 6637, 6772
5774, 6315, 6277, 6281, 6320, 6639, 6601, 6605, 6644
5775, 6448, 6278, 6282, 6318, 6772, 6602, 6606, 6642
5776, 6399, 6303, 6430, 6437, 6723, 6627, 6754, 6761
5777, 6304, 6261, 6431, 6438, 6628, 6585, 6755, 6762
5778, 6208, 6185, 6232, 6299, 6532, 6509, 6556, 6623
5779, 6396, 6392, 6436, 6382, 6720, 6716, 6760, 6706
5780, 6392, 6300, 6429, 6436, 6716, 6624, 6753, 6760
5781, 6262, 6441, 6301, 6259, 6586, 6765, 6625, 6583
5782, 6434, 6359, 6444, 6373, 6758, 6683, 6768, 6697
5783, 6306, 6264, 6260, 6302, 6630, 6588, 6584, 6626
5784, 6306, 6307, 6266, 6264, 6630, 6631, 6590, 6588
5785, 6296, 6431, 6261, 6298, 6620, 6755, 6585, 6622
5786, 6401, 6304, 6438, 6399, 6725, 6628, 6762, 6723
5787, 6440, 6265, 6263, 6308, 6764, 6589, 6587, 6632
5788, 6321, 6279, 6276, 6316, 6645, 6603, 6600, 6640
5789, 6327, 6287, 6283, 6325, 6651, 6611, 6607, 6649
5790, 6323, 6284, 6280, 6319, 6647, 6608, 6604, 6643
5791, 6309, 6269, 6273, 6311, 6633, 6593, 6597, 6635
5792, 6435, 6267, 6269, 6309, 6759, 6591, 6593, 6633
5793, 6335, 6446, 6301, 6441, 6659, 6770, 6625, 6765
5794, 6308, 6337, 6452, 6440, 6632, 6661, 6776, 6764
5795, 6331, 6289, 6287, 6327, 6655, 6613, 6611, 6651
5796, 6305, 6310, 6340, 6447, 6629, 6634, 6664, 6771
5797, 6343, 6314, 6440, 6452, 6667, 6638, 6764, 6776
5798, 6332, 6290, 6288, 6329, 6656, 6614, 6612, 6653
5799, 6307, 6336, 6339, 6312, 6631, 6660, 6663, 6636
5800, 6352, 6325, 6321, 6346, 6676, 6649, 6645, 6670
5801, 6330, 6293, 6289, 6331, 6654, 6617, 6613, 6655
5802, 6333, 6294, 6290, 6332, 6657, 6618, 6614, 6656
5803, 6357, 6332, 6329, 6353, 6681, 6656, 6653, 6677
5804, 6292, 6328, 6322, 6286, 6616, 6652, 6646, 6610
5805, 6367, 6357, 6353, 6464, 6691, 6681, 6677, 6788
5806, 6291, 6326, 6324, 6285, 6615, 6650, 6648, 6609
5807, 6338, 6311, 6315, 6450, 6662, 6635, 6639, 6774
5808, 6312, 6339, 6342, 6316, 6636, 6663, 6666, 6640
5809, 6465, 6342, 6339, 6361, 6789, 6666, 6663, 6685
5810, 6378, 6341, 6345, 6363, 6702, 6665, 6669, 6687
5811, 6450, 6315, 6320, 6341, 6774, 6639, 6644, 6665
5812, 6293, 6330, 6326, 6291, 6617, 6654, 6650, 6615
5813, 6324, 6345, 6341, 6320, 6648, 6669, 6665, 6644
5814, 6330, 6356, 6349, 6326, 6654, 6680, 6673, 6650
5815, 6294, 6333, 6328, 6292, 6618, 6657, 6652, 6616
5816, 6322, 6348, 6344, 6318, 6646, 6672, 6668, 6642
5817, 6326, 6349, 6345, 6324, 6650, 6673, 6669, 6648
5818, 6346, 6365, 6457, 6352, 6670, 6689, 6781, 6676
5819, 6328, 6351, 6348, 6322, 6652, 6675, 6672, 6646
5820, 6376, 6335, 6447, 6340, 6700, 6659, 6771, 6664
5821, 6346, 6321, 6316, 6342, 6670, 6645, 6640, 6666
5822, 6372, 6375, 6435, 6309, 6696, 6699, 6759, 6633
5823, 6372, 6309, 6311, 6338, 6696, 6633, 6635, 6662
5824, 6355, 6327, 6325, 6352, 6679, 6651, 6649, 6676
5825, 6336, 6397, 6361, 6339, 6660, 6721, 6685, 6663
5826, 6340, 6448, 6318, 6344, 6664, 6772, 6642, 6668
5827, 6394, 6456, 6454, 6455, 6718, 6780, 6778, 6779
5828, 6460, 6364, 6343, 6414, 6784, 6688, 6667, 6738
5829, 6358, 6331, 6327, 6355, 6682, 6655, 6651, 6679
5830, 6414, 6343, 6452, 6337, 6738, 6667, 6776, 6661
5831, 6353, 6329, 6323, 6350, 6677, 6653, 6647, 6674
5832, 6466, 6394, 6384, 6402, 6790, 6718, 6708, 6726
5833, 6426, 6479, 6470, 6421, 6750, 6803, 6794, 6745
5834, 6411, 6459, 6368, 6413, 6735, 6783, 6692, 6737
5835, 6364, 6347, 6453, 6343, 6688, 6671, 6777, 6667
5836, 6354, 6333, 6332, 6357, 6678, 6657, 6656, 6681
5837, 6366, 6362, 6344, 6348, 6690, 6686, 6668, 6672
5838, 6459, 6349, 6356, 6368, 6783, 6673, 6680, 6692
5839, 6349, 6459, 6363, 6345, 6673, 6783, 6687, 6669
5840, 6420, 6457, 6365, 6465, 6744, 6781, 6689, 6789
5841, 6333, 6354, 6351, 6328, 6657, 6678, 6675, 6652
5842, 6351, 6354, 6369, 6463, 6675, 6678, 6693, 6787
5843, 6351, 6463, 6366, 6348, 6675, 6787, 6690, 6672
5844, 6356, 6330, 6331, 6358, 6680, 6654, 6655, 6682
5845, 6406, 6395, 6471, 6404, 6730, 6719, 6795, 6728
5846, 6381, 6383, 6433, 6256, 6705, 6707, 6757, 6580
5847, 6258, 6222, 6359, 6434, 6582, 6546, 6683, 6758
5848, 6397, 6385, 6398, 6415, 6721, 6709, 6722, 6739
5849, 6365, 6346, 6342, 6465, 6689, 6670, 6666, 6789
5850, 6362, 6376, 6340, 6344, 6686, 6700, 6664, 6668
5851, 6378, 6469, 6450, 6341, 6702, 6793, 6774, 6665
5852, 6364, 6461, 6350, 6347, 6688, 6785, 6674, 6671
5853, 6458, 6358, 6355, 6370, 6782, 6682, 6679, 6694
5854, 6475, 6426, 6417, 6477, 6799, 6750, 6741, 6801
5855, 6412, 6366, 6463, 6424, 6736, 6690, 6787, 6748
5856, 6354, 6357, 6367, 6369, 6678, 6681, 6691, 6693
5857, 6358, 6458, 6368, 6356, 6682, 6782, 6692, 6680
5858, 6411, 6478, 6471, 6472, 6735, 6802, 6795, 6796
5859, 6425, 6370, 6457, 6420, 6749, 6694, 6781, 6744
5860, 6444, 6381, 6449, 6379, 6768, 6705, 6773, 6703
5861, 6443, 6389, 6385, 6380, 6767, 6713, 6709, 6704
5862, 6395, 6393, 6473, 6386, 6719, 6717, 6797, 6710
5863, 6335, 6454, 6374, 6446, 6659, 6778, 6698, 6770
5864, 6390, 6456, 6394, 6398, 6714, 6780, 6718, 6722
5865, 6407, 6400, 6393, 6403, 6731, 6724, 6717, 6727
5866, 6462, 6375, 6372, 6338, 6786, 6699, 6696, 6662
5867, 6455, 6454, 6335, 6376, 6779, 6778, 6659, 6700
5868, 6436, 6429, 6255, 6382, 6760, 6753, 6579, 6706
5869, 6451, 6396, 6382, 6391, 6775, 6720, 6706, 6715
5870, 6381, 6442, 6371, 6449, 6705, 6766, 6695, 6773
5871, 6443, 6380, 6306, 6302, 6767, 6704, 6630, 6626
5872, 6397, 6336, 6380, 6385, 6721, 6660, 6704, 6709
5873, 6445, 6373, 6444, 6379, 6769, 6697, 6768, 6703
5874, 6392, 6437, 6430, 6300, 6716, 6761, 6754, 6624
5875, 6437, 6392, 6401, 6399, 6761, 6716, 6725, 6723
5876, 6366, 6384, 6467, 6362, 6690, 6708, 6791, 6686
5877, 6460, 6406, 6404, 6410, 6784, 6730, 6728, 6734
5878, 6472, 6386, 6378, 6363, 6796, 6710, 6702, 6687
5879, 6400, 6407, 6408, 6405, 6724, 6731, 6732, 6729
5880, 6389, 6443, 6373, 6445, 6713, 6767, 6697, 6769
5881, 6384, 6394, 6455, 6467, 6708, 6718, 6779, 6791
5882, 6385, 6389, 6390, 6398, 6709, 6713, 6714, 6722
5883, 6382, 6255, 6334, 6391, 6706, 6579, 6658, 6715
5884, 6304, 6401, 6405, 6408, 6628, 6725, 6729, 6732
5885, 6393, 6400, 6387, 6468, 6717, 6724, 6711, 6792
5886, 6337, 6407, 6403, 6414, 6661, 6731, 6727, 6738
5887, 6420, 6465, 6361, 6409, 6744, 6789, 6685, 6733
5888, 6469, 6473, 6393, 6468, 6793, 6797, 6717, 6792
5889, 6360, 6377, 6451, 6391, 6684, 6701, 6775, 6715
5890, 6409, 6361, 6397, 6415, 6733, 6685, 6721, 6739
5891, 6399, 6438, 6431, 6303, 6723, 6762, 6755, 6627
5892, 6400, 6405, 6396, 6387, 6724, 6729, 6720, 6711
5893, 6405, 6401, 6392, 6396, 6729, 6725, 6716, 6720
5894, 6409, 6402, 6412, 6416, 6733, 6726, 6736, 6740
5895, 6366, 6412, 6402, 6384, 6690, 6736, 6726, 6708
5896, 6460, 6414, 6403, 6406, 6784, 6738, 6727, 6730
5897, 6406, 6403, 6393, 6395, 6730, 6727, 6717, 6719
5898, 6477, 6417, 6410, 6404, 6801, 6741, 6734, 6728
5899, 6413, 6477, 6478, 6411, 6737, 6801, 6802, 6735
5900, 6415, 6398, 6394, 6466, 6739, 6722, 6718, 6790
5901, 6423, 6420, 6409, 6416, 6747, 6744, 6733, 6740
5902, 6464, 6461, 6410, 6421, 6788, 6785, 6734, 6745
5903, 6480, 6479, 6419, 6418, 6804, 6803, 6743, 6742
5904, 6425, 6474, 6413, 6476, 6749, 6798, 6737, 6800
5905, 6421, 6410, 6417, 6426, 6745, 6734, 6741, 6750
5906, 6415, 6466, 6402, 6409, 6739, 6790, 6726, 6733
5907, 6418, 6419, 6423, 6416, 6742, 6743, 6747, 6740
5908, 6479, 6480, 6422, 6470, 6803, 6804, 6746, 6794
5909, 6424, 6418, 6416, 6412, 6748, 6742, 6740, 6736
5910, 6420, 6423, 6474, 6425, 6744, 6747, 6798, 6749
5911, 6423, 6419, 6475, 6474, 6747, 6743, 6799, 6798
5912, 6364, 6460, 6410, 6461, 6688, 6784, 6734, 6785
5913, 6470, 6422, 6369, 6367, 6794, 6746, 6693, 6691
5914, 6424, 6463, 6369, 6422, 6748, 6787, 6693, 6746
5915, 6476, 6458, 6370, 6425, 6800, 6782, 6694, 6749
5916, 6475, 6419, 6479, 6426, 6799, 6743, 6803, 6750
5917, 6175, 6174, 6428, 6427, 6499, 6498, 6752, 6751
5918, 6303, 6295, 6297, 6430, 6627, 6619, 6621, 6754
5919, 6263, 6235, 6233, 6432, 6587, 6559, 6557, 6756
5920, 6443, 6302, 6434, 6373, 6767, 6626, 6758, 6697
5921, 6377, 6360, 6435, 6375, 6701, 6684, 6759, 6699
5922, 6314, 6272, 6265, 6440, 6638, 6596, 6589, 6764
5923, 6301, 6446, 6371, 6442, 6625, 6770, 6695, 6766
5924, 6381, 6256, 6257, 6442, 6705, 6580, 6581, 6766
5925, 6374, 6449, 6371, 6446, 6698, 6773, 6695, 6770
5926, 6462, 6338, 6450, 6469, 6786, 6662, 6774, 6793
5927, 6347, 6319, 6317, 6453, 6671, 6643, 6641, 6777
5928, 6456, 6390, 6374, 6454, 6780, 6714, 6698, 6778
5929, 6370, 6355, 6352, 6457, 6694, 6679, 6676, 6781
5930, 6413, 6368, 6458, 6476, 6737, 6692, 6782, 6800
5931, 6411, 6472, 6363, 6459, 6735, 6796, 6687, 6783
5932, 6461, 6464, 6353, 6350, 6785, 6788, 6677, 6674
5933, 6469, 6468, 6375, 6462, 6793, 6792, 6699, 6786
5934, 6375, 6468, 6387, 6377, 6699, 6792, 6711, 6701
5935, 6455, 6376, 6362, 6467, 6779, 6700, 6686, 6791
5936, 6470, 6367, 6464, 6421, 6794, 6691, 6788, 6745
5937, 6472, 6471, 6395, 6386, 6796, 6795, 6719, 6710
5938, 6477, 6404, 6471, 6478, 6801, 6728, 6795, 6802
5939, 6477, 6413, 6474, 6475, 6801, 6737, 6798, 6799
5940, 6418, 6424, 6422, 6480, 6742, 6748, 6746, 6804
*Nset, nset=contact
    1,    2,    3,    4,    5,    6,    7,    8,    9,   10,   11,   12,   13,   14,   15,   16
   17,   18,   19,   20,   21,   22,   23,   24,   25,   26,   27,   28,   29,   30,   31,   32
   33,   34,   35,   36,   37,   38,   39,   40,   41,   42,   43,   44,   45,   46,   47,   48
   49,   50,   51,   52,  325,  326,  327,  328,  329,  330,  331,  332,  333,  334,  335,  336
  337,  338,  339,  340,  341,  342,  343,  344,  345,  346,  347,  348,  349,  350,  351,  352
  353,  354,  355,  356,  357,  358,  359,  360,  361,  362,  363,  364,  365,  366,  367,  368
  369,  370,  371,  372,  373,  374,  375,  376,  649,  650,  651,  652,  653,  654,  655,  656
  657,  658,  659,  660,  661,  662,  663,  664,  665,  666,  667,  668,  669,  670,  671,  672
  673,  674,  675,  676,  677,  678,  679,  680,  681,  682,  683,  684,  685,  686,  687,  688
  689,  690,  691,  692,  693,  694,  695,  696,  697,  698,  699,  700,  973,  974,  975,  976
  977,  978,  979,  980,  981,  982,  983,  984,  985,  986,  987,  988,  989,  990,  991,  992
  993,  994,  995,  996,  997,  998,  999, 1000, 1001, 1002, 1003, 1004, 1005, 1006, 1007, 1008
 1009, 1010, 1011, 1012, 1013, 1014, 1015, 1016, 1017, 1018, 1019, 1020, 1021, 1022, 1023, 1024
 1297, 1298, 1299, 1300, 1301, 1302, 1303, 1304, 1305, 1306, 1307, 1308, 1309, 1310, 1311, 1312
 1313, 1314, 1315, 1316, 1317, 1318, 1319, 1320, 1321, 1322, 1323, 1324, 1325, 1326, 1327, 1328
 1329, 1330, 1331, 1332, 1333, 1334, 1335, 1336, 1337, 1338, 1339, 1340, 1341, 1342, 1343, 1344
 1345, 1346, 1347, 1348, 1621, 1622, 1623, 1624, 1625, 1626, 1627, 1628, 1629, 1630, 1631, 1632
 1633, 1634, 1635, 1636, 1637, 1638, 1639, 1640, 1641, 1642, 1643, 1644, 1645, 1646, 1647, 1648
 1649, 1650, 1651, 1652, 1653, 1654, 1655, 1656, 1657, 1658, 1659, 1660, 1661, 1662, 1663, 1664
 1665, 1666, 1667, 1668, 1669, 1670, 1671, 1672, 1945, 1946, 1947, 1948, 1949, 1950, 1951, 1952
 1953, 1954, 1955, 1956, 1957, 1958, 1959, 1960, 1961, 1962, 1963, 1964, 1965, 1966, 1967, 1968
 1969, 1970, 1971, 1972, 1973, 1974, 1975, 1976, 1977, 1978, 1979, 1980, 1981, 1982, 1983, 1984
 1985, 1986, 1987, 1988, 1989, 1990, 1991, 1992, 1993, 1994, 1995, 1996, 2269, 2270, 2271, 2272
 2273, 2274, 2275, 2276, 2277, 2278, 2279, 2280, 2281, 2282, 2283, 2284, 2285, 2286, 2287, 2288
 2289, 2290, 2291, 2292, 2293, 2294, 2295, 2296, 2297, 2298, 2299, 2300, 2301, 2302, 2303, 2304
 2305, 2306, 2307, 2308, 2309, 2310, 2311, 2312, 2313, 2314, 2315, 2316, 2317, 2318, 2319, 2320
 2593, 2594, 2595, 2596, 2597, 2598, 2599, 2600, 2601, 2602, 2603, 2604, 2605, 2606, 2607, 2608
 2609, 2610, 2611, 2612, 2613, 2614, 2615, 2616, 2617, 2618, 2619, 2620, 2621, 2622, 2623, 2624
 2625, 2626, 2627, 2628, 2629, 2630, 2631, 2632, 2633, 2634, 2635, 2636, 2637, 2638, 2639, 2640
 2641, 2642, 2643, 2644, 2917, 2918, 2919, 2920, 2921, 2922, 2923, 2924, 2925, 2926, 2927, 2928
 2929, 2930, 2931, 2932, 2933, 2934, 2935, 2936, 2937, 2938, 2939, 2940, 2941, 2942, 2943, 2944
 2945, 2946, 2947, 2948, 2949, 2950, 2951, 2952, 2953, 2954, 2955, 2956, 2957, 2958, 2959, 2960
 2961, 2962, 2963, 2964, 2965, 2966, 2967, 2968, 3241, 3242, 3243, 3244, 3245, 3246, 3247, 3248
 3249, 3250, 3251, 3252, 3253, 3254, 3255, 3256, 3257, 3258, 3259, 3260, 3261, 3262, 3263, 3264
 3265, 3266, 3267, 3268, 3269, 3270, 3271, 3272, 3273, 3274, 3275, 3276, 3277, 3278, 3279, 3280
 3281, 3282, 3283, 3284, 3285, 3286, 3287, 3288, 3289, 3290, 3291, 3292, 3565, 3566, 3567, 3568
 3569, 3570, 3571, 3572, 3573, 3574, 3575, 3576, 3577, 3578, 3579, 3580, 3581, 3582, 3583, 3584
 3585, 3586, 3587, 3588, 3589, 3590, 3591, 3592, 3593, 3594, 3595, 3596, 3597, 3598, 3599, 3600
 3601, 3602, 3603, 3604, 3605, 3606, 3607, 3608, 3609, 3610, 3611, 3612, 3613, 3614, 3615, 3616
 3889, 3890, 3891, 3892, 3893, 3894, 3895, 3896, 3897, 3898, 3899, 3900, 3901, 3902, 3903, 3904
 3905, 3906, 3907, 3908, 3909, 3910, 3911, 3912, 3913, 3914, 3915, 3916, 3917, 3918, 3919, 3920
 3921, 3922, 3923, 3924, 3925, 3926, 3927, 3928, 3929, 3930, 3931, 3932, 3933, 3934, 3935, 3936
 3937, 3938, 3939, 3940, 4213, 4214, 4215, 4216, 4217, 4218, 4219, 4220, 4221, 4222, 4223, 4224
 4225, 4226, 4227, 4228, 4229, 4230, 4231, 4232, 4233, 4234, 4235, 4236, 4237, 4238, 4239, 4240
 4241, 4242, 4243, 4244, 4245, 4246, 4247, 4248, 4249, 4250, 4251, 4252, 4253, 4254, 4255, 4256
 4257, 4258, 4259, 4260, 4261, 4262, 4263, 4264, 4537, 4538, 4539, 4540, 4541, 4542, 4543, 4544
 4545, 4546, 4547, 4548, 4549, 4550, 4551, 4552, 4553, 4554, 4555, 4556, 4557, 4558, 4559, 4560
 4561, 4562, 4563, 4564, 4565, 4566, 4567, 4568, 4569, 4570, 4571, 4572, 4573, 4574, 4575, 4576
 4577, 4578, 4579, 4580, 4581, 4582, 4583, 4584, 4585, 4586, 4587, 4588, 4861, 4862, 4863, 4864
 4865, 4866, 4867, 4868, 4869, 4870, 4871, 4872, 4873, 4874, 4875, 4876, 4877, 4878, 4879, 4880
 4881, 4882, 4883, 4884, 4885, 4886, 4887, 4888, 4889, 4890, 4891, 4892, 4893, 4894, 4895, 4896
 4897, 4898, 4899, 4900, 4901, 4902, 4903, 4904, 4905, 4906, 4907, 4908, 4909, 4910, 4911, 4912
 5185, 5186, 5187, 5188, 5189, 5190, 5191, 5192, 5193, 5194, 5195, 5196, 5197, 5198, 5199, 5200
 5201, 5202, 5203, 5204, 5205, 5206, 5207, 5208, 5209, 5210, 5211, 5212, 5213, 5214, 5215, 5216
 5217, 5218, 5219, 5220, 5221, 5222, 5223, 5224, 5225, 5226, 5227, 5228, 5229, 5230, 5231, 5232
 5233, 5234, 5235, 5236, 5509, 5510, 5511, 5512, 5513, 5514, 5515, 5516, 5517, 5518, 5519, 5520
 5521, 5522, 5523, 5524, 5525, 5526, 5527, 5528, 5529, 5530, 5531, 5532, 5533, 5534, 5535, 5536
 5537, 5538, 5539, 5540, 5541, 5542, 5543, 5544, 5545, 5546, 5547, 5548, 5549, 5550, 5551, 5552
 5553, 5554, 5555, 5556, 5557, 5558, 5559, 5560, 5833, 5834, 5835, 5836, 5837, 5838, 5839, 5840
 5841, 5842, 5843, 5844, 5845, 5846, 5847, 5848, 5849, 5850, 5851, 5852, 5853, 5854, 5855, 5856
 5857, 5858, 5859, 5860, 5861, 5862, 5863, 5864, 5865, 5866, 5867, 5868, 5869, 5870, 5871, 5872
 5873, 5874, 5875, 5876, 5877, 5878, 5879, 5880, 5881, 5882, 5883, 5884, 6157, 6158, 6159, 6160
 6161, 6162, 6163, 6164, 6165, 6166, 6167, 6168, 6169, 6170, 6171, 6172, 6173, 6174, 6175, 6176
 6177, 6178, 6179, 6180, 6181, 6182, 6183, 6184, 6185, 6186, 6187, 6188, 6189, 6190, 6191, 6192
 6193, 6194, 6195, 6196, 6197, 6198, 6199, 6200, 6201, 6202, 6203, 6204, 6205, 6206, 6207, 6208
 6481, 6482, 6483, 6484, 6485, 6486, 6487, 6488, 6489, 6490, 6491, 6492, 6493, 6494, 6495, 6496
 6497, 6498, 6499, 6500, 6501, 6502, 6503, 6504, 6505, 6506, 6507, 6508, 6509, 6510, 6511, 6512
 6513, 6514, 6515, 6516, 6517, 6518, 6519, 6520, 6521, 6522, 6523, 6524, 6525, 6526, 6527, 6528
 6529, 6530, 6531, 6532
*Elset, elset=contact
    1,    2,    3,    4,    8,   10,   13,   14,   15,   16,   19,   20,   23,   25,   27,   28
   29,   30,   32,   33,   35,   36,   38,   39,   40,   41,   42,   44,   45,   46,   47,   48
   50,   51,   52,   53,   54,   55,   56,   62,   63,   64,   67,   69,   71,   73,   74,   77
   87,   90,  135,  274,  298,  299,  300,  301,  305,  307,  310,  311,  312,  313,  316,  317
  320,  322,  324,  325,  326,  327,  329,  330,  332,  333,  335,  336,  337,  338,  339,  341
  342,  343,  344,  345,  347,  348,  349,  350,  351,  352,  353,  359,  360,  361,  364,  366
  368,  370,  371,  374,  384,  387,  432,  571,  595,  596,  597,  598,  602,  604,  607,  608
  609,  610,  613,  614,  617,  619,  621,  622,  623,  624,  626,  627,  629,  630,  632,  633
  634,  635,  636,  638,  639,  640,  641,  642,  644,  645,  646,  647,  648,  649,  650,  656
  657,  658,  661,  663,  665,  667,  668,  671,  681,  684,  729,  868,  892,  893,  894,  895
  899,  901,  904,  905,  906,  907,  910,  911,  914,  916,  918,  919,  920,  921,  923,  924
  926,  927,  929,  930,  931,  932,  933,  935,  936,  937,  938,  939,  941,  942,  943,  944
  945,  946,  947,  953,  954,  955,  958,  960,  962,  964,  965,  968,  978,  981, 1026, 1165
 1189, 1190, 1191, 1192, 1196, 1198, 1201, 1202, 1203, 1204, 1207, 1208, 1211, 1213, 1215, 1216
 1217, 1218, 1220, 1221, 1223, 1224, 1226, 1227, 1228, 1229, 1230, 1232, 1233, 1234, 1235, 1236
 1238, 1239, 1240, 1241, 1242, 1243, 1244, 1250, 1251, 1252, 1255, 1257, 1259, 1261, 1262, 1265
 1275, 1278, 1323, 1462, 1486, 1487, 1488, 1489, 1493, 1495, 1498, 1499, 1500, 1501, 1504, 1505
 1508, 1510, 1512, 1513, 1514, 1515, 1517, 1518, 1520, 1521, 1523, 1524, 1525, 1526, 1527, 1529
 1530, 1531, 1532, 1533, 1535, 1536, 1537, 1538, 1539, 1540, 1541, 1547, 1548, 1549, 1552, 1554
 1556, 1558, 1559, 1562, 1572, 1575, 1620, 1759, 1783, 1784, 1785, 1786, 1790, 1792, 1795, 1796
 1797, 1798, 1801, 1802, 1805, 1807, 1809, 1810, 1811, 1812, 1814, 1815, 1817, 1818, 1820, 1821
 1822, 1823, 1824, 1826, 1827, 1828, 1829, 1830, 1832, 1833, 1834, 1835, 1836, 1837, 1838, 1844
 1845, 1846, 1849, 1851, 1853, 1855, 1856, 1859, 1869, 1872, 1917, 2056, 2080, 2081, 2082, 2083
 2087, 2089, 2092, 2093, 2094, 2095, 2098, 2099, 2102, 2104, 2106, 2107, 2108, 2109, 2111, 2112
 2114, 2115, 2117, 2118, 2119, 2120, 2121, 2123, 2124, 2125, 2126, 2127, 2129, 2130, 2131, 2132
 2133, 2134, 2135, 2141, 2142, 2143, 2146, 2148, 2150, 2152, 2153, 2156, 2166, 2169, 2214, 2353
 2377, 2378, 2379, 2380, 2384, 2386, 2389, 2390, 2391, 2392, 2395, 2396, 2399, 2401, 2403, 2404
 2405, 2406, 2408, 2409, 2411, 2412, 2414, 2415, 2416, 2417, 2418, 2420, 2421, 2422, 2423, 2424
 2426, 2427, 2428, 2429, 2430, 2431, 2432, 2438, 2439, 2440, 2443, 2445, 2447, 2449, 2450, 2453
 2463, 2466, 2511, 2650, 2674, 2675, 2676, 2677, 2681, 2683, 2686, 2687, 2688, 2689, 2692, 2693
 2696, 2698, 2700, 2701, 2702, 2703, 2705, 2706, 2708, 2709, 2711, 2712, 2713, 2714, 2715, 2717
 2718, 2719, 2720, 2721, 2723, 2724, 2725, 2726, 2727, 2728, 2729, 2735, 2736, 2737, 2740, 2742
 2744, 2746, 2747, 2750, 2760, 2763, 2808, 2947, 2971, 2972, 2973, 2974, 2978, 2980, 2983, 2984
 2985, 2986, 2989, 2990, 2993, 2995, 2997, 2998, 2999, 3000, 3002, 3003, 3005, 3006, 3008, 3009
 3010, 3011, 3012, 3014, 3015, 3016, 3017, 3018, 3020, 3021, 3022, 3023, 3024, 3025, 3026, 3032
 3033, 3034, 3037, 3039, 3041, 3043, 3044, 3047, 3057, 3060, 3105, 3244, 3268, 3269, 3270, 3271
 3275, 3277, 3280, 3281, 3282, 3283, 3286, 3287, 3290, 3292, 3294, 3295, 3296, 3297, 3299, 3300
 3302, 3303, 3305, 3306, 3307, 3308, 3309, 3311, 3312, 3313, 3314, 3315, 3317, 3318, 3319, 3320
 3321, 3322, 3323, 3329, 3330, 3331, 3334, 3336, 3338, 3340, 3341, 3344, 3354, 3357, 3402, 3541
 3565, 3566, 3567, 3568, 3572, 3574, 3577, 3578, 3579, 3580, 3583, 3584, 3587, 3589, 3591, 3592
 3593, 3594, 3596, 3597, 3599, 3600, 3602, 3603, 3604, 3605, 3606, 3608, 3609, 3610, 3611, 3612
 3614, 3615, 3616, 3617, 3618, 3619, 3620, 3626, 3627, 3628, 3631, 3633, 3635, 3637, 3638, 3641
 3651, 3654, 3699, 3838, 3862, 3863, 3864, 3865, 3869, 3871, 3874, 3875, 3876, 3877, 3880, 3881
 3884, 3886, 3888, 3889, 3890, 3891, 3893, 3894, 3896, 3897, 3899, 3900, 3901, 3902, 3903, 3905
 3906, 3907, 3908, 3909, 3911, 3912, 3913, 3914, 3915, 3916, 3917, 3923, 3924, 3925, 3928, 3930
 3932, 3934, 3935, 3938, 3948, 3951, 3996, 4135, 4159, 4160, 4161, 4162, 4166, 4168, 4171, 4172
 4173, 4174, 4177, 4178, 4181, 4183, 4185, 4186, 4187, 4188, 4190, 4191, 4193, 4194, 4196, 4197
 4198, 4199, 4200, 4202, 4203, 4204, 4205, 4206, 4208, 4209, 4210, 4211, 4212, 4213, 4214, 4220
 4221, 4222, 4225, 4227, 4229, 4231, 4232, 4235, 4245, 4248, 4293, 4432, 4456, 4457, 4458, 4459
 4463, 4465, 4468, 4469, 4470, 4471, 4474, 4475, 4478, 4480, 4482, 4483, 4484, 4485, 4487, 4488
 4490, 4491, 4493, 4494, 4495, 4496, 4497, 4499, 4500, 4501, 4502, 4503, 4505, 4506, 4507, 4508
 4509, 4510, 4511, 4517, 4518, 4519, 4522, 4524, 4526, 4528, 4529, 4532, 4542, 4545, 4590, 4729
 4753, 4754, 4755, 4756, 4760, 4762, 4765, 4766, 4767, 4768, 4771, 4772, 4775, 4777, 4779, 4780
 4781, 4782, 4784, 4785, 4787, 4788, 4790, 4791, 4792, 4793, 4794, 4796, 4797, 4798, 4799, 4800
 4802, 4803, 4804, 4805, 4806, 4807, 4808, 4814, 4815, 4816, 4819, 4821, 4823, 4825, 4826, 4829
 4839, 4842, 4887, 5026, 5050, 5051, 5052, 5053, 5057, 5059, 5062, 5063, 5064, 5065, 5068, 5069
 5072, 5074, 5076, 5077, 5078, 5079, 5081, 5082, 5084, 5085, 5087, 5088, 5089, 5090, 5091, 5093
 5094, 5095, 5096, 5097, 5099, 5100, 5101, 5102, 5103, 5104, 5105, 5111, 5112, 5113, 5116, 5118
 5120, 5122, 5123, 5126, 5136, 5139, 5184, 5323, 5347, 5348, 5349, 5350, 5354, 5356, 5359, 5360
 5361, 5362, 5365, 5366, 5369, 5371, 5373, 5374, 5375, 5376, 5378, 5379, 5381, 5382, 5384, 5385
 5386, 5387, 5388, 5390, 5391, 5392, 5393, 5394, 5396, 5397, 5398, 5399, 5400, 5401, 5402, 5408
 5409, 5410, 5413, 5415, 5417, 5419, 5420, 5423, 5433, 5436, 5481, 5620, 5644, 5645, 5646, 5647
 5651, 5653, 5656, 5657, 5658, 5659, 5662, 5663, 5666, 5668, 5670, 5671, 5672, 5673, 5675, 5676
 5678, 5679, 5681, 5682, 5683, 5684, 5685, 5687, 5688, 5689, 5690, 5691, 5693, 5694, 5695, 5696
 5697, 5698, 5699, 5705, 5706, 5707, 5710, 5712, 5714, 5716, 5717, 5720, 5730, 5733, 5778, 5917
*Nset, nset=cylinder, generate
    1,  6804,     1
*Elset, elset=cylinder, generate
    1,  5940,     1
*Elset, elset=_contact_S5, internal
    1,    2,    4,    8,   14,   19,   23,   25,   28,   29,   30,   38,   41,   44,   45,   46
   50,   51,   54,   55,   56,   62,   64,   67,  298,  299,  301,  305,  311,  316,  320,  322
  325,  326,  327,  335,  338,  341,  342,  343,  347,  348,  351,  352,  353,  359,  361,  364
  595,  596,  598,  602,  608,  613,  617,  619,  622,  623,  624,  632,  635,  638,  639,  640
  644,  645,  648,  649,  650,  656,  658,  661,  892,  893,  895,  899,  905,  910,  914,  916
  919,  920,  921,  929,  932,  935,  936,  937,  941,  942,  945,  946,  947,  953,  955,  958
 1189, 1190, 1192, 1196, 1202, 1207, 1211, 1213, 1216, 1217, 1218, 1226, 1229, 1232, 1233, 1234
 1238, 1239, 1242, 1243, 1244, 1250, 1252, 1255, 1486, 1487, 1489, 1493, 1499, 1504, 1508, 1510
 1513, 1514, 1515, 1523, 1526, 1529, 1530, 1531, 1535, 1536, 1539, 1540, 1541, 1547, 1549, 1552
 1783, 1784, 1786, 1790, 1796, 1801, 1805, 1807, 1810, 1811, 1812, 1820, 1823, 1826, 1827, 1828
 1832, 1833, 1836, 1837, 1838, 1844, 1846, 1849, 2080, 2081, 2083, 2087, 2093, 2098, 2102, 2104
 2107, 2108, 2109, 2117, 2120, 2123, 2124, 2125, 2129, 2130, 2133, 2134, 2135, 2141, 2143, 2146
 2377, 2378, 2380, 2384, 2390, 2395, 2399, 2401, 2404, 2405, 2406, 2414, 2417, 2420, 2421, 2422
 2426, 2427, 2430, 2431, 2432, 2438, 2440, 2443, 2674, 2675, 2677, 2681, 2687, 2692, 2696, 2698
 2701, 2702, 2703, 2711, 2714, 2717, 2718, 2719, 2723, 2724, 2727, 2728, 2729, 2735, 2737, 2740
 2971, 2972, 2974, 2978, 2984, 2989, 2993, 2995, 2998, 2999, 3000, 3008, 3011, 3014, 3015, 3016
 3020, 3021, 3024, 3025, 3026, 3032, 3034, 3037, 3268, 3269, 3271, 3275, 3281, 3286, 3290, 3292
 3295, 3296, 3297, 3305, 3308, 3311, 3312, 3313, 3317, 3318, 3321, 3322, 3323, 3329, 3331, 3334
 3565, 3566, 3568, 3572, 3578, 3583, 3587, 3589, 3592, 3593, 3594, 3602, 3605, 3608, 3609, 3610
 3614, 3615, 3618, 3619, 3620, 3626, 3628, 3631, 3862, 3863, 3865, 3869, 3875, 3880, 3884, 3886
 3889, 3890, 3891, 3899, 3902, 3905, 3906, 3907, 3911, 3912, 3915, 3916, 3917, 3923, 3925, 3928
 4159, 4160, 4162, 4166, 4172, 4177, 4181, 4183, 4186, 4187, 4188, 4196, 4199, 4202, 4203, 4204
 4208, 4209, 4212, 4213, 4214, 4220, 4222, 4225, 4456, 4457, 4459, 4463, 4469, 4474, 4478, 4480
 4483, 4484, 4485, 4493, 4496, 4499, 4500, 4501, 4505, 4506, 4509, 4510, 4511, 4517, 4519, 4522
 4753, 4754, 4756, 4760, 4766, 4771, 4775, 4777, 4780, 4781, 4782, 4790, 4793, 4796, 4797, 4798
 4802, 4803, 4806, 4807, 4808, 4814, 4816, 4819, 5050, 5051, 5053, 5057, 5063, 5068, 5072, 5074
 5077, 5078, 5079, 5087, 5090, 5093, 5094, 5095, 5099, 5100, 5103, 5104, 5105, 5111, 5113, 5116
 5347, 5348, 5350, 5354, 5360, 5365, 5369, 5371, 5374, 5375, 5376, 5384, 5387, 5390, 5391, 5392
 5396, 5397, 5400, 5401, 5402, 5408, 5410, 5413, 5644, 5645, 5647, 5651, 5657, 5662, 5666, 5668
 5671, 5672, 5673, 5681, 5684, 5687, 5688, 5689, 5693, 5694, 5697, 5698, 5699, 5705, 5707, 5710
*Elset, elset=_contact_S3, internal
    3,   10,   13,   15,   16,   20,   27,   32,   33,   35,   39,   40,   42,   47,   48,   52
   53,   63,   69,   71,   73,   74,   77,   87,   90,  135,  274,  300,  307,  310,  312,  313
  317,  324,  329,  330,  332,  336,  337,  339,  344,  345,  349,  350,  360,  366,  368,  370
  371,  374,  384,  387,  432,  571,  597,  604,  607,  609,  610,  614,  621,  626,  627,  629
  633,  634,  636,  641,  642,  646,  647,  657,  663,  665,  667,  668,  671,  681,  684,  729
  868,  894,  901,  904,  906,  907,  911,  918,  923,  924,  926,  930,  931,  933,  938,  939
  943,  944,  954,  960,  962,  964,  965,  968,  978,  981, 1026, 1165, 1191, 1198, 1201, 1203
 1204, 1208, 1215, 1220, 1221, 1223, 1227, 1228, 1230, 1235, 1236, 1240, 1241, 1251, 1257, 1259
 1261, 1262, 1265, 1275, 1278, 1323, 1462, 1488, 1495, 1498, 1500, 1501, 1505, 1512, 1517, 1518
 1520, 1524, 1525, 1527, 1532, 1533, 1537, 1538, 1548, 1554, 1556, 1558, 1559, 1562, 1572, 1575
 1620, 1759, 1785, 1792, 1795, 1797, 1798, 1802, 1809, 1814, 1815, 1817, 1821, 1822, 1824, 1829
 1830, 1834, 1835, 1845, 1851, 1853, 1855, 1856, 1859, 1869, 1872, 1917, 2056, 2082, 2089, 2092
 2094, 2095, 2099, 2106, 2111, 2112, 2114, 2118, 2119, 2121, 2126, 2127, 2131, 2132, 2142, 2148
 2150, 2152, 2153, 2156, 2166, 2169, 2214, 2353, 2379, 2386, 2389, 2391, 2392, 2396, 2403, 2408
 2409, 2411, 2415, 2416, 2418, 2423, 2424, 2428, 2429, 2439, 2445, 2447, 2449, 2450, 2453, 2463
 2466, 2511, 2650, 2676, 2683, 2686, 2688, 2689, 2693, 2700, 2705, 2706, 2708, 2712, 2713, 2715
 2720, 2721, 2725, 2726, 2736, 2742, 2744, 2746, 2747, 2750, 2760, 2763, 2808, 2947, 2973, 2980
 2983, 2985, 2986, 2990, 2997, 3002, 3003, 3005, 3009, 3010, 3012, 3017, 3018, 3022, 3023, 3033
 3039, 3041, 3043, 3044, 3047, 3057, 3060, 3105, 3244, 3270, 3277, 3280, 3282, 3283, 3287, 3294
 3299, 3300, 3302, 3306, 3307, 3309, 3314, 3315, 3319, 3320, 3330, 3336, 3338, 3340, 3341, 3344
 3354, 3357, 3402, 3541, 3567, 3574, 3577, 3579, 3580, 3584, 3591, 3596, 3597, 3599, 3603, 3604
 3606, 3611, 3612, 3616, 3617, 3627, 3633, 3635, 3637, 3638, 3641, 3651, 3654, 3699, 3838, 3864
 3871, 3874, 3876, 3877, 3881, 3888, 3893, 3894, 3896, 3900, 3901, 3903, 3908, 3909, 3913, 3914
 3924, 3930, 3932, 3934, 3935, 3938, 3948, 3951, 3996, 4135, 4161, 4168, 4171, 4173, 4174, 4178
 4185, 4190, 4191, 4193, 4197, 4198, 4200, 4205, 4206, 4210, 4211, 4221, 4227, 4229, 4231, 4232
 4235, 4245, 4248, 4293, 4432, 4458, 4465, 4468, 4470, 4471, 4475, 4482, 4487, 4488, 4490, 4494
 4495, 4497, 4502, 4503, 4507, 4508, 4518, 4524, 4526, 4528, 4529, 4532, 4542, 4545, 4590, 4729
 4755, 4762, 4765, 4767, 4768, 4772, 4779, 4784, 4785, 4787, 4791, 4792, 4794, 4799, 4800, 4804
 4805, 4815, 4821, 4823, 4825, 4826, 4829, 4839, 4842, 4887, 5026, 5052, 5059, 5062, 5064, 5065
 5069, 5076, 5081, 5082, 5084, 5088, 5089, 5091, 5096, 5097, 5101, 5102, 5112, 5118, 5120, 5122
 5123, 5126, 5136, 5139, 5184, 5323, 5349, 5356, 5359, 5361, 5362, 5366, 5373, 5378, 5379, 5381
 5385, 5386, 5388, 5393, 5394, 5398, 5399, 5409, 5415, 5417, 5419, 5420, 5423, 5433, 5436, 5481
 5620, 5646, 5653, 5656, 5658, 5659, 5663, 5670, 5675, 5676, 5678, 5682, 5683, 5685, 5690, 5691
 5695, 5696, 5706, 5712, 5714, 5716, 5717, 5720, 5730, 5733, 5778, 5917
*Elset, elset=_contact_S6, internal, generate
   36,  5679,   297
*Surface, type=ELEMENT, name=contact
_contact_S5, S5
_contact_S3, S3
_contact_S6, S6
** Section: Section-1
*Solid Section, elset=cylinder, material=Material-1
,
*End Part
**  
**
** ASSEMBLY
**
*Assembly, name=Assembly
**  
*Instance, name=cylinder-1, part=cylinder
*End Instance
**  
*End Assembly
** 
** MATERIALS
** 
*Material, name=Material-1
*Hyperelastic, neo hooke
 0.24, 0.4
