*Heading
** Job name: rec Model name: Model-1
** Generated by: Abaqus/CAE 2021
*Preprint, echo=NO, model=NO, history=NO, contact=NO
**
** PARTS
**
*Part, name=rec
*Node
      1,         12.5,         -10.,         100.
      2,         12.5,  -8.52941132,         100.
      3,         12.5,  -7.05882359,         100.
      4,         12.5,  -5.58823538,         100.
      5,         12.5,  -4.11764717,         100.
      6,         12.5,  -2.64705873,         100.
      7,         12.5,  -1.17647064,         100.
      8,         12.5,  0.294117659,         100.
      9,         12.5,    1.7647059,         100.
     10,         12.5,    3.2352941,         100.
     11,         12.5,   4.70588255,         100.
     12,         12.5,   6.17647076,         100.
     13,         12.5,   7.64705896,         100.
     14,         12.5,   9.11764717,         100.
     15,         12.5,   10.5882349,         100.
     16,         12.5,   12.0588236,         100.
     17,         12.5,   13.5294113,         100.
     18,         12.5,          15.,         100.
     19,         12.5,         -10.,   98.5074615
     20,         12.5,  -8.52941132,   98.5074615
     21,         12.5,  -7.05882359,   98.5074615
     22,         12.5,  -5.58823538,   98.5074615
     23,         12.5,  -4.11764717,   98.5074615
     24,         12.5,  -2.64705873,   98.5074615
     25,         12.5,  -1.17647064,   98.5074615
     26,         12.5,  0.294117659,   98.5074615
     27,         12.5,    1.7647059,   98.5074615
     28,         12.5,    3.2352941,   98.5074615
     29,         12.5,   4.70588255,   98.5074615
     30,         12.5,   6.17647076,   98.5074615
     31,         12.5,   7.64705896,   98.5074615
     32,         12.5,   9.11764717,   98.5074615
     33,         12.5,   10.5882349,   98.5074615
     34,         12.5,   12.0588236,   98.5074615
     35,         12.5,   13.5294113,   98.5074615
     36,         12.5,          15.,   98.5074615
     37,         12.5,         -10.,   97.0149231
     38,         12.5,  -8.52941132,   97.0149231
     39,         12.5,  -7.05882359,   97.0149231
     40,         12.5,  -5.58823538,   97.0149231
     41,         12.5,  -4.11764717,   97.0149231
     42,         12.5,  -2.64705873,   97.0149231
     43,         12.5,  -1.17647064,   97.0149231
     44,         12.5,  0.294117659,   97.0149231
     45,         12.5,    1.7647059,   97.0149231
     46,         12.5,    3.2352941,   97.0149231
     47,         12.5,   4.70588255,   97.0149231
     48,         12.5,   6.17647076,   97.0149231
     49,         12.5,   7.64705896,   97.0149231
     50,         12.5,   9.11764717,   97.0149231
     51,         12.5,   10.5882349,   97.0149231
     52,         12.5,   12.0588236,   97.0149231
     53,         12.5,   13.5294113,   97.0149231
     54,         12.5,          15.,   97.0149231
     55,         12.5,         -10.,   95.5223846
     56,         12.5,  -8.52941132,   95.5223846
     57,         12.5,  -7.05882359,   95.5223846
     58,         12.5,  -5.58823538,   95.5223846
     59,         12.5,  -4.11764717,   95.5223846
     60,         12.5,  -2.64705873,   95.5223846
     61,         12.5,  -1.17647064,   95.5223846
     62,         12.5,  0.294117659,   95.5223846
     63,         12.5,    1.7647059,   95.5223846
     64,         12.5,    3.2352941,   95.5223846
     65,         12.5,   4.70588255,   95.5223846
     66,         12.5,   6.17647076,   95.5223846
     67,         12.5,   7.64705896,   95.5223846
     68,         12.5,   9.11764717,   95.5223846
     69,         12.5,   10.5882349,   95.5223846
     70,         12.5,   12.0588236,   95.5223846
     71,         12.5,   13.5294113,   95.5223846
     72,         12.5,          15.,   95.5223846
     73,         12.5,         -10.,   94.0298538
     74,         12.5,  -8.52941132,   94.0298538
     75,         12.5,  -7.05882359,   94.0298538
     76,         12.5,  -5.58823538,   94.0298538
     77,         12.5,  -4.11764717,   94.0298538
     78,         12.5,  -2.64705873,   94.0298538
     79,         12.5,  -1.17647064,   94.0298538
     80,         12.5,  0.294117659,   94.0298538
     81,         12.5,    1.7647059,   94.0298538
     82,         12.5,    3.2352941,   94.0298538
     83,         12.5,   4.70588255,   94.0298538
     84,         12.5,   6.17647076,   94.0298538
     85,         12.5,   7.64705896,   94.0298538
     86,         12.5,   9.11764717,   94.0298538
     87,         12.5,   10.5882349,   94.0298538
     88,         12.5,   12.0588236,   94.0298538
     89,         12.5,   13.5294113,   94.0298538
     90,         12.5,          15.,   94.0298538
     91,         12.5,         -10.,   92.5373154
     92,         12.5,  -8.52941132,   92.5373154
     93,         12.5,  -7.05882359,   92.5373154
     94,         12.5,  -5.58823538,   92.5373154
     95,         12.5,  -4.11764717,   92.5373154
     96,         12.5,  -2.64705873,   92.5373154
     97,         12.5,  -1.17647064,   92.5373154
     98,         12.5,  0.294117659,   92.5373154
     99,         12.5,    1.7647059,   92.5373154
    100,         12.5,    3.2352941,   92.5373154
    101,         12.5,   4.70588255,   92.5373154
    102,         12.5,   6.17647076,   92.5373154
    103,         12.5,   7.64705896,   92.5373154
    104,         12.5,   9.11764717,   92.5373154
    105,         12.5,   10.5882349,   92.5373154
    106,         12.5,   12.0588236,   92.5373154
    107,         12.5,   13.5294113,   92.5373154
    108,         12.5,          15.,   92.5373154
    109,         12.5,         -10.,   91.0447769
    110,         12.5,  -8.52941132,   91.0447769
    111,         12.5,  -7.05882359,   91.0447769
    112,         12.5,  -5.58823538,   91.0447769
    113,         12.5,  -4.11764717,   91.0447769
    114,         12.5,  -2.64705873,   91.0447769
    115,         12.5,  -1.17647064,   91.0447769
    116,         12.5,  0.294117659,   91.0447769
    117,         12.5,    1.7647059,   91.0447769
    118,         12.5,    3.2352941,   91.0447769
    119,         12.5,   4.70588255,   91.0447769
    120,         12.5,   6.17647076,   91.0447769
    121,         12.5,   7.64705896,   91.0447769
    122,         12.5,   9.11764717,   91.0447769
    123,         12.5,   10.5882349,   91.0447769
    124,         12.5,   12.0588236,   91.0447769
    125,         12.5,   13.5294113,   91.0447769
    126,         12.5,          15.,   91.0447769
    127,         12.5,         -10.,   89.5522385
    128,         12.5,  -8.52941132,   89.5522385
    129,         12.5,  -7.05882359,   89.5522385
    130,         12.5,  -5.58823538,   89.5522385
    131,         12.5,  -4.11764717,   89.5522385
    132,         12.5,  -2.64705873,   89.5522385
    133,         12.5,  -1.17647064,   89.5522385
    134,         12.5,  0.294117659,   89.5522385
    135,         12.5,    1.7647059,   89.5522385
    136,         12.5,    3.2352941,   89.5522385
    137,         12.5,   4.70588255,   89.5522385
    138,         12.5,   6.17647076,   89.5522385
    139,         12.5,   7.64705896,   89.5522385
    140,         12.5,   9.11764717,   89.5522385
    141,         12.5,   10.5882349,   89.5522385
    142,         12.5,   12.0588236,   89.5522385
    143,         12.5,   13.5294113,   89.5522385
    144,         12.5,          15.,   89.5522385
    145,         12.5,         -10.,      88.0597
    146,         12.5,  -8.52941132,      88.0597
    147,         12.5,  -7.05882359,      88.0597
    148,         12.5,  -5.58823538,      88.0597
    149,         12.5,  -4.11764717,      88.0597
    150,         12.5,  -2.64705873,      88.0597
    151,         12.5,  -1.17647064,      88.0597
    152,         12.5,  0.294117659,      88.0597
    153,         12.5,    1.7647059,      88.0597
    154,         12.5,    3.2352941,      88.0597
    155,         12.5,   4.70588255,      88.0597
    156,         12.5,   6.17647076,      88.0597
    157,         12.5,   7.64705896,      88.0597
    158,         12.5,   9.11764717,      88.0597
    159,         12.5,   10.5882349,      88.0597
    160,         12.5,   12.0588236,      88.0597
    161,         12.5,   13.5294113,      88.0597
    162,         12.5,          15.,      88.0597
    163,         12.5,         -10.,   86.5671616
    164,         12.5,  -8.52941132,   86.5671616
    165,         12.5,  -7.05882359,   86.5671616
    166,         12.5,  -5.58823538,   86.5671616
    167,         12.5,  -4.11764717,   86.5671616
    168,         12.5,  -2.64705873,   86.5671616
    169,         12.5,  -1.17647064,   86.5671616
    170,         12.5,  0.294117659,   86.5671616
    171,         12.5,    1.7647059,   86.5671616
    172,         12.5,    3.2352941,   86.5671616
    173,         12.5,   4.70588255,   86.5671616
    174,         12.5,   6.17647076,   86.5671616
    175,         12.5,   7.64705896,   86.5671616
    176,         12.5,   9.11764717,   86.5671616
    177,         12.5,   10.5882349,   86.5671616
    178,         12.5,   12.0588236,   86.5671616
    179,         12.5,   13.5294113,   86.5671616
    180,         12.5,          15.,   86.5671616
    181,         12.5,         -10.,   85.0746231
    182,         12.5,  -8.52941132,   85.0746231
    183,         12.5,  -7.05882359,   85.0746231
    184,         12.5,  -5.58823538,   85.0746231
    185,         12.5,  -4.11764717,   85.0746231
    186,         12.5,  -2.64705873,   85.0746231
    187,         12.5,  -1.17647064,   85.0746231
    188,         12.5,  0.294117659,   85.0746231
    189,         12.5,    1.7647059,   85.0746231
    190,         12.5,    3.2352941,   85.0746231
    191,         12.5,   4.70588255,   85.0746231
    192,         12.5,   6.17647076,   85.0746231
    193,         12.5,   7.64705896,   85.0746231
    194,         12.5,   9.11764717,   85.0746231
    195,         12.5,   10.5882349,   85.0746231
    196,         12.5,   12.0588236,   85.0746231
    197,         12.5,   13.5294113,   85.0746231
    198,         12.5,          15.,   85.0746231
    199,         12.5,         -10.,   83.5820923
    200,         12.5,  -8.52941132,   83.5820923
    201,         12.5,  -7.05882359,   83.5820923
    202,         12.5,  -5.58823538,   83.5820923
    203,         12.5,  -4.11764717,   83.5820923
    204,         12.5,  -2.64705873,   83.5820923
    205,         12.5,  -1.17647064,   83.5820923
    206,         12.5,  0.294117659,   83.5820923
    207,         12.5,    1.7647059,   83.5820923
    208,         12.5,    3.2352941,   83.5820923
    209,         12.5,   4.70588255,   83.5820923
    210,         12.5,   6.17647076,   83.5820923
    211,         12.5,   7.64705896,   83.5820923
    212,         12.5,   9.11764717,   83.5820923
    213,         12.5,   10.5882349,   83.5820923
    214,         12.5,   12.0588236,   83.5820923
    215,         12.5,   13.5294113,   83.5820923
    216,         12.5,          15.,   83.5820923
    217,         12.5,         -10.,   82.0895538
    218,         12.5,  -8.52941132,   82.0895538
    219,         12.5,  -7.05882359,   82.0895538
    220,         12.5,  -5.58823538,   82.0895538
    221,         12.5,  -4.11764717,   82.0895538
    222,         12.5,  -2.64705873,   82.0895538
    223,         12.5,  -1.17647064,   82.0895538
    224,         12.5,  0.294117659,   82.0895538
    225,         12.5,    1.7647059,   82.0895538
    226,         12.5,    3.2352941,   82.0895538
    227,         12.5,   4.70588255,   82.0895538
    228,         12.5,   6.17647076,   82.0895538
    229,         12.5,   7.64705896,   82.0895538
    230,         12.5,   9.11764717,   82.0895538
    231,         12.5,   10.5882349,   82.0895538
    232,         12.5,   12.0588236,   82.0895538
    233,         12.5,   13.5294113,   82.0895538
    234,         12.5,          15.,   82.0895538
    235,         12.5,         -10.,   80.5970154
    236,         12.5,  -8.52941132,   80.5970154
    237,         12.5,  -7.05882359,   80.5970154
    238,         12.5,  -5.58823538,   80.5970154
    239,         12.5,  -4.11764717,   80.5970154
    240,         12.5,  -2.64705873,   80.5970154
    241,         12.5,  -1.17647064,   80.5970154
    242,         12.5,  0.294117659,   80.5970154
    243,         12.5,    1.7647059,   80.5970154
    244,         12.5,    3.2352941,   80.5970154
    245,         12.5,   4.70588255,   80.5970154
    246,         12.5,   6.17647076,   80.5970154
    247,         12.5,   7.64705896,   80.5970154
    248,         12.5,   9.11764717,   80.5970154
    249,         12.5,   10.5882349,   80.5970154
    250,         12.5,   12.0588236,   80.5970154
    251,         12.5,   13.5294113,   80.5970154
    252,         12.5,          15.,   80.5970154
    253,         12.5,         -10.,   79.1044769
    254,         12.5,  -8.52941132,   79.1044769
    255,         12.5,  -7.05882359,   79.1044769
    256,         12.5,  -5.58823538,   79.1044769
    257,         12.5,  -4.11764717,   79.1044769
    258,         12.5,  -2.64705873,   79.1044769
    259,         12.5,  -1.17647064,   79.1044769
    260,         12.5,  0.294117659,   79.1044769
    261,         12.5,    1.7647059,   79.1044769
    262,         12.5,    3.2352941,   79.1044769
    263,         12.5,   4.70588255,   79.1044769
    264,         12.5,   6.17647076,   79.1044769
    265,         12.5,   7.64705896,   79.1044769
    266,         12.5,   9.11764717,   79.1044769
    267,         12.5,   10.5882349,   79.1044769
    268,         12.5,   12.0588236,   79.1044769
    269,         12.5,   13.5294113,   79.1044769
    270,         12.5,          15.,   79.1044769
    271,         12.5,         -10.,   77.6119385
    272,         12.5,  -8.52941132,   77.6119385
    273,         12.5,  -7.05882359,   77.6119385
    274,         12.5,  -5.58823538,   77.6119385
    275,         12.5,  -4.11764717,   77.6119385
    276,         12.5,  -2.64705873,   77.6119385
    277,         12.5,  -1.17647064,   77.6119385
    278,         12.5,  0.294117659,   77.6119385
    279,         12.5,    1.7647059,   77.6119385
    280,         12.5,    3.2352941,   77.6119385
    281,         12.5,   4.70588255,   77.6119385
    282,         12.5,   6.17647076,   77.6119385
    283,         12.5,   7.64705896,   77.6119385
    284,         12.5,   9.11764717,   77.6119385
    285,         12.5,   10.5882349,   77.6119385
    286,         12.5,   12.0588236,   77.6119385
    287,         12.5,   13.5294113,   77.6119385
    288,         12.5,          15.,   77.6119385
    289,         12.5,         -10.,      76.1194
    290,         12.5,  -8.52941132,      76.1194
    291,         12.5,  -7.05882359,      76.1194
    292,         12.5,  -5.58823538,      76.1194
    293,         12.5,  -4.11764717,      76.1194
    294,         12.5,  -2.64705873,      76.1194
    295,         12.5,  -1.17647064,      76.1194
    296,         12.5,  0.294117659,      76.1194
    297,         12.5,    1.7647059,      76.1194
    298,         12.5,    3.2352941,      76.1194
    299,         12.5,   4.70588255,      76.1194
    300,         12.5,   6.17647076,      76.1194
    301,         12.5,   7.64705896,      76.1194
    302,         12.5,   9.11764717,      76.1194
    303,         12.5,   10.5882349,      76.1194
    304,         12.5,   12.0588236,      76.1194
    305,         12.5,   13.5294113,      76.1194
    306,         12.5,          15.,      76.1194
    307,         12.5,         -10.,   74.6268692
    308,         12.5,  -8.52941132,   74.6268692
    309,         12.5,  -7.05882359,   74.6268692
    310,         12.5,  -5.58823538,   74.6268692
    311,         12.5,  -4.11764717,   74.6268692
    312,         12.5,  -2.64705873,   74.6268692
    313,         12.5,  -1.17647064,   74.6268692
    314,         12.5,  0.294117659,   74.6268692
    315,         12.5,    1.7647059,   74.6268692
    316,         12.5,    3.2352941,   74.6268692
    317,         12.5,   4.70588255,   74.6268692
    318,         12.5,   6.17647076,   74.6268692
    319,         12.5,   7.64705896,   74.6268692
    320,         12.5,   9.11764717,   74.6268692
    321,         12.5,   10.5882349,   74.6268692
    322,         12.5,   12.0588236,   74.6268692
    323,         12.5,   13.5294113,   74.6268692
    324,         12.5,          15.,   74.6268692
    325,         12.5,         -10.,   73.1343307
    326,         12.5,  -8.52941132,   73.1343307
    327,         12.5,  -7.05882359,   73.1343307
    328,         12.5,  -5.58823538,   73.1343307
    329,         12.5,  -4.11764717,   73.1343307
    330,         12.5,  -2.64705873,   73.1343307
    331,         12.5,  -1.17647064,   73.1343307
    332,         12.5,  0.294117659,   73.1343307
    333,         12.5,    1.7647059,   73.1343307
    334,         12.5,    3.2352941,   73.1343307
    335,         12.5,   4.70588255,   73.1343307
    336,         12.5,   6.17647076,   73.1343307
    337,         12.5,   7.64705896,   73.1343307
    338,         12.5,   9.11764717,   73.1343307
    339,         12.5,   10.5882349,   73.1343307
    340,         12.5,   12.0588236,   73.1343307
    341,         12.5,   13.5294113,   73.1343307
    342,         12.5,          15.,   73.1343307
    343,         12.5,         -10.,   71.6417923
    344,         12.5,  -8.52941132,   71.6417923
    345,         12.5,  -7.05882359,   71.6417923
    346,         12.5,  -5.58823538,   71.6417923
    347,         12.5,  -4.11764717,   71.6417923
    348,         12.5,  -2.64705873,   71.6417923
    349,         12.5,  -1.17647064,   71.6417923
    350,         12.5,  0.294117659,   71.6417923
    351,         12.5,    1.7647059,   71.6417923
    352,         12.5,    3.2352941,   71.6417923
    353,         12.5,   4.70588255,   71.6417923
    354,         12.5,   6.17647076,   71.6417923
    355,         12.5,   7.64705896,   71.6417923
    356,         12.5,   9.11764717,   71.6417923
    357,         12.5,   10.5882349,   71.6417923
    358,         12.5,   12.0588236,   71.6417923
    359,         12.5,   13.5294113,   71.6417923
    360,         12.5,          15.,   71.6417923
    361,         12.5,         -10.,   70.1492538
    362,         12.5,  -8.52941132,   70.1492538
    363,         12.5,  -7.05882359,   70.1492538
    364,         12.5,  -5.58823538,   70.1492538
    365,         12.5,  -4.11764717,   70.1492538
    366,         12.5,  -2.64705873,   70.1492538
    367,         12.5,  -1.17647064,   70.1492538
    368,         12.5,  0.294117659,   70.1492538
    369,         12.5,    1.7647059,   70.1492538
    370,         12.5,    3.2352941,   70.1492538
    371,         12.5,   4.70588255,   70.1492538
    372,         12.5,   6.17647076,   70.1492538
    373,         12.5,   7.64705896,   70.1492538
    374,         12.5,   9.11764717,   70.1492538
    375,         12.5,   10.5882349,   70.1492538
    376,         12.5,   12.0588236,   70.1492538
    377,         12.5,   13.5294113,   70.1492538
    378,         12.5,          15.,   70.1492538
    379,         12.5,         -10.,   68.6567154
    380,         12.5,  -8.52941132,   68.6567154
    381,         12.5,  -7.05882359,   68.6567154
    382,         12.5,  -5.58823538,   68.6567154
    383,         12.5,  -4.11764717,   68.6567154
    384,         12.5,  -2.64705873,   68.6567154
    385,         12.5,  -1.17647064,   68.6567154
    386,         12.5,  0.294117659,   68.6567154
    387,         12.5,    1.7647059,   68.6567154
    388,         12.5,    3.2352941,   68.6567154
    389,         12.5,   4.70588255,   68.6567154
    390,         12.5,   6.17647076,   68.6567154
    391,         12.5,   7.64705896,   68.6567154
    392,         12.5,   9.11764717,   68.6567154
    393,         12.5,   10.5882349,   68.6567154
    394,         12.5,   12.0588236,   68.6567154
    395,         12.5,   13.5294113,   68.6567154
    396,         12.5,          15.,   68.6567154
    397,         12.5,         -10.,   67.1641769
    398,         12.5,  -8.52941132,   67.1641769
    399,         12.5,  -7.05882359,   67.1641769
    400,         12.5,  -5.58823538,   67.1641769
    401,         12.5,  -4.11764717,   67.1641769
    402,         12.5,  -2.64705873,   67.1641769
    403,         12.5,  -1.17647064,   67.1641769
    404,         12.5,  0.294117659,   67.1641769
    405,         12.5,    1.7647059,   67.1641769
    406,         12.5,    3.2352941,   67.1641769
    407,         12.5,   4.70588255,   67.1641769
    408,         12.5,   6.17647076,   67.1641769
    409,         12.5,   7.64705896,   67.1641769
    410,         12.5,   9.11764717,   67.1641769
    411,         12.5,   10.5882349,   67.1641769
    412,         12.5,   12.0588236,   67.1641769
    413,         12.5,   13.5294113,   67.1641769
    414,         12.5,          15.,   67.1641769
    415,         12.5,         -10.,   65.6716385
    416,         12.5,  -8.52941132,   65.6716385
    417,         12.5,  -7.05882359,   65.6716385
    418,         12.5,  -5.58823538,   65.6716385
    419,         12.5,  -4.11764717,   65.6716385
    420,         12.5,  -2.64705873,   65.6716385
    421,         12.5,  -1.17647064,   65.6716385
    422,         12.5,  0.294117659,   65.6716385
    423,         12.5,    1.7647059,   65.6716385
    424,         12.5,    3.2352941,   65.6716385
    425,         12.5,   4.70588255,   65.6716385
    426,         12.5,   6.17647076,   65.6716385
    427,         12.5,   7.64705896,   65.6716385
    428,         12.5,   9.11764717,   65.6716385
    429,         12.5,   10.5882349,   65.6716385
    430,         12.5,   12.0588236,   65.6716385
    431,         12.5,   13.5294113,   65.6716385
    432,         12.5,          15.,   65.6716385
    433,         12.5,         -10.,   64.1791077
    434,         12.5,  -8.52941132,   64.1791077
    435,         12.5,  -7.05882359,   64.1791077
    436,         12.5,  -5.58823538,   64.1791077
    437,         12.5,  -4.11764717,   64.1791077
    438,         12.5,  -2.64705873,   64.1791077
    439,         12.5,  -1.17647064,   64.1791077
    440,         12.5,  0.294117659,   64.1791077
    441,         12.5,    1.7647059,   64.1791077
    442,         12.5,    3.2352941,   64.1791077
    443,         12.5,   4.70588255,   64.1791077
    444,         12.5,   6.17647076,   64.1791077
    445,         12.5,   7.64705896,   64.1791077
    446,         12.5,   9.11764717,   64.1791077
    447,         12.5,   10.5882349,   64.1791077
    448,         12.5,   12.0588236,   64.1791077
    449,         12.5,   13.5294113,   64.1791077
    450,         12.5,          15.,   64.1791077
    451,         12.5,         -10.,   62.6865654
    452,         12.5,  -8.52941132,   62.6865654
    453,         12.5,  -7.05882359,   62.6865654
    454,         12.5,  -5.58823538,   62.6865654
    455,         12.5,  -4.11764717,   62.6865654
    456,         12.5,  -2.64705873,   62.6865654
    457,         12.5,  -1.17647064,   62.6865654
    458,         12.5,  0.294117659,   62.6865654
    459,         12.5,    1.7647059,   62.6865654
    460,         12.5,    3.2352941,   62.6865654
    461,         12.5,   4.70588255,   62.6865654
    462,         12.5,   6.17647076,   62.6865654
    463,         12.5,   7.64705896,   62.6865654
    464,         12.5,   9.11764717,   62.6865654
    465,         12.5,   10.5882349,   62.6865654
    466,         12.5,   12.0588236,   62.6865654
    467,         12.5,   13.5294113,   62.6865654
    468,         12.5,          15.,   62.6865654
    469,         12.5,         -10.,   61.1940308
    470,         12.5,  -8.52941132,   61.1940308
    471,         12.5,  -7.05882359,   61.1940308
    472,         12.5,  -5.58823538,   61.1940308
    473,         12.5,  -4.11764717,   61.1940308
    474,         12.5,  -2.64705873,   61.1940308
    475,         12.5,  -1.17647064,   61.1940308
    476,         12.5,  0.294117659,   61.1940308
    477,         12.5,    1.7647059,   61.1940308
    478,         12.5,    3.2352941,   61.1940308
    479,         12.5,   4.70588255,   61.1940308
    480,         12.5,   6.17647076,   61.1940308
    481,         12.5,   7.64705896,   61.1940308
    482,         12.5,   9.11764717,   61.1940308
    483,         12.5,   10.5882349,   61.1940308
    484,         12.5,   12.0588236,   61.1940308
    485,         12.5,   13.5294113,   61.1940308
    486,         12.5,          15.,   61.1940308
    487,         12.5,         -10.,   59.7014923
    488,         12.5,  -8.52941132,   59.7014923
    489,         12.5,  -7.05882359,   59.7014923
    490,         12.5,  -5.58823538,   59.7014923
    491,         12.5,  -4.11764717,   59.7014923
    492,         12.5,  -2.64705873,   59.7014923
    493,         12.5,  -1.17647064,   59.7014923
    494,         12.5,  0.294117659,   59.7014923
    495,         12.5,    1.7647059,   59.7014923
    496,         12.5,    3.2352941,   59.7014923
    497,         12.5,   4.70588255,   59.7014923
    498,         12.5,   6.17647076,   59.7014923
    499,         12.5,   7.64705896,   59.7014923
    500,         12.5,   9.11764717,   59.7014923
    501,         12.5,   10.5882349,   59.7014923
    502,         12.5,   12.0588236,   59.7014923
    503,         12.5,   13.5294113,   59.7014923
    504,         12.5,          15.,   59.7014923
    505,         12.5,         -10.,   58.2089539
    506,         12.5,  -8.52941132,   58.2089539
    507,         12.5,  -7.05882359,   58.2089539
    508,         12.5,  -5.58823538,   58.2089539
    509,         12.5,  -4.11764717,   58.2089539
    510,         12.5,  -2.64705873,   58.2089539
    511,         12.5,  -1.17647064,   58.2089539
    512,         12.5,  0.294117659,   58.2089539
    513,         12.5,    1.7647059,   58.2089539
    514,         12.5,    3.2352941,   58.2089539
    515,         12.5,   4.70588255,   58.2089539
    516,         12.5,   6.17647076,   58.2089539
    517,         12.5,   7.64705896,   58.2089539
    518,         12.5,   9.11764717,   58.2089539
    519,         12.5,   10.5882349,   58.2089539
    520,         12.5,   12.0588236,   58.2089539
    521,         12.5,   13.5294113,   58.2089539
    522,         12.5,          15.,   58.2089539
    523,         12.5,         -10.,   56.7164192
    524,         12.5,  -8.52941132,   56.7164192
    525,         12.5,  -7.05882359,   56.7164192
    526,         12.5,  -5.58823538,   56.7164192
    527,         12.5,  -4.11764717,   56.7164192
    528,         12.5,  -2.64705873,   56.7164192
    529,         12.5,  -1.17647064,   56.7164192
    530,         12.5,  0.294117659,   56.7164192
    531,         12.5,    1.7647059,   56.7164192
    532,         12.5,    3.2352941,   56.7164192
    533,         12.5,   4.70588255,   56.7164192
    534,         12.5,   6.17647076,   56.7164192
    535,         12.5,   7.64705896,   56.7164192
    536,         12.5,   9.11764717,   56.7164192
    537,         12.5,   10.5882349,   56.7164192
    538,         12.5,   12.0588236,   56.7164192
    539,         12.5,   13.5294113,   56.7164192
    540,         12.5,          15.,   56.7164192
    541,         12.5,         -10.,   55.2238808
    542,         12.5,  -8.52941132,   55.2238808
    543,         12.5,  -7.05882359,   55.2238808
    544,         12.5,  -5.58823538,   55.2238808
    545,         12.5,  -4.11764717,   55.2238808
    546,         12.5,  -2.64705873,   55.2238808
    547,         12.5,  -1.17647064,   55.2238808
    548,         12.5,  0.294117659,   55.2238808
    549,         12.5,    1.7647059,   55.2238808
    550,         12.5,    3.2352941,   55.2238808
    551,         12.5,   4.70588255,   55.2238808
    552,         12.5,   6.17647076,   55.2238808
    553,         12.5,   7.64705896,   55.2238808
    554,         12.5,   9.11764717,   55.2238808
    555,         12.5,   10.5882349,   55.2238808
    556,         12.5,   12.0588236,   55.2238808
    557,         12.5,   13.5294113,   55.2238808
    558,         12.5,          15.,   55.2238808
    559,         12.5,         -10.,   53.7313423
    560,         12.5,  -8.52941132,   53.7313423
    561,         12.5,  -7.05882359,   53.7313423
    562,         12.5,  -5.58823538,   53.7313423
    563,         12.5,  -4.11764717,   53.7313423
    564,         12.5,  -2.64705873,   53.7313423
    565,         12.5,  -1.17647064,   53.7313423
    566,         12.5,  0.294117659,   53.7313423
    567,         12.5,    1.7647059,   53.7313423
    568,         12.5,    3.2352941,   53.7313423
    569,         12.5,   4.70588255,   53.7313423
    570,         12.5,   6.17647076,   53.7313423
    571,         12.5,   7.64705896,   53.7313423
    572,         12.5,   9.11764717,   53.7313423
    573,         12.5,   10.5882349,   53.7313423
    574,         12.5,   12.0588236,   53.7313423
    575,         12.5,   13.5294113,   53.7313423
    576,         12.5,          15.,   53.7313423
    577,         12.5,         -10.,   52.2388077
    578,         12.5,  -8.52941132,   52.2388077
    579,         12.5,  -7.05882359,   52.2388077
    580,         12.5,  -5.58823538,   52.2388077
    581,         12.5,  -4.11764717,   52.2388077
    582,         12.5,  -2.64705873,   52.2388077
    583,         12.5,  -1.17647064,   52.2388077
    584,         12.5,  0.294117659,   52.2388077
    585,         12.5,    1.7647059,   52.2388077
    586,         12.5,    3.2352941,   52.2388077
    587,         12.5,   4.70588255,   52.2388077
    588,         12.5,   6.17647076,   52.2388077
    589,         12.5,   7.64705896,   52.2388077
    590,         12.5,   9.11764717,   52.2388077
    591,         12.5,   10.5882349,   52.2388077
    592,         12.5,   12.0588236,   52.2388077
    593,         12.5,   13.5294113,   52.2388077
    594,         12.5,          15.,   52.2388077
    595,         12.5,         -10.,   50.7462692
    596,         12.5,  -8.52941132,   50.7462692
    597,         12.5,  -7.05882359,   50.7462692
    598,         12.5,  -5.58823538,   50.7462692
    599,         12.5,  -4.11764717,   50.7462692
    600,         12.5,  -2.64705873,   50.7462692
    601,         12.5,  -1.17647064,   50.7462692
    602,         12.5,  0.294117659,   50.7462692
    603,         12.5,    1.7647059,   50.7462692
    604,         12.5,    3.2352941,   50.7462692
    605,         12.5,   4.70588255,   50.7462692
    606,         12.5,   6.17647076,   50.7462692
    607,         12.5,   7.64705896,   50.7462692
    608,         12.5,   9.11764717,   50.7462692
    609,         12.5,   10.5882349,   50.7462692
    610,         12.5,   12.0588236,   50.7462692
    611,         12.5,   13.5294113,   50.7462692
    612,         12.5,          15.,   50.7462692
    613,         12.5,         -10.,   49.2537308
    614,         12.5,  -8.52941132,   49.2537308
    615,         12.5,  -7.05882359,   49.2537308
    616,         12.5,  -5.58823538,   49.2537308
    617,         12.5,  -4.11764717,   49.2537308
    618,         12.5,  -2.64705873,   49.2537308
    619,         12.5,  -1.17647064,   49.2537308
    620,         12.5,  0.294117659,   49.2537308
    621,         12.5,    1.7647059,   49.2537308
    622,         12.5,    3.2352941,   49.2537308
    623,         12.5,   4.70588255,   49.2537308
    624,         12.5,   6.17647076,   49.2537308
    625,         12.5,   7.64705896,   49.2537308
    626,         12.5,   9.11764717,   49.2537308
    627,         12.5,   10.5882349,   49.2537308
    628,         12.5,   12.0588236,   49.2537308
    629,         12.5,   13.5294113,   49.2537308
    630,         12.5,          15.,   49.2537308
    631,         12.5,         -10.,   47.7611923
    632,         12.5,  -8.52941132,   47.7611923
    633,         12.5,  -7.05882359,   47.7611923
    634,         12.5,  -5.58823538,   47.7611923
    635,         12.5,  -4.11764717,   47.7611923
    636,         12.5,  -2.64705873,   47.7611923
    637,         12.5,  -1.17647064,   47.7611923
    638,         12.5,  0.294117659,   47.7611923
    639,         12.5,    1.7647059,   47.7611923
    640,         12.5,    3.2352941,   47.7611923
    641,         12.5,   4.70588255,   47.7611923
    642,         12.5,   6.17647076,   47.7611923
    643,         12.5,   7.64705896,   47.7611923
    644,         12.5,   9.11764717,   47.7611923
    645,         12.5,   10.5882349,   47.7611923
    646,         12.5,   12.0588236,   47.7611923
    647,         12.5,   13.5294113,   47.7611923
    648,         12.5,          15.,   47.7611923
    649,         12.5,         -10.,   46.2686577
    650,         12.5,  -8.52941132,   46.2686577
    651,         12.5,  -7.05882359,   46.2686577
    652,         12.5,  -5.58823538,   46.2686577
    653,         12.5,  -4.11764717,   46.2686577
    654,         12.5,  -2.64705873,   46.2686577
    655,         12.5,  -1.17647064,   46.2686577
    656,         12.5,  0.294117659,   46.2686577
    657,         12.5,    1.7647059,   46.2686577
    658,         12.5,    3.2352941,   46.2686577
    659,         12.5,   4.70588255,   46.2686577
    660,         12.5,   6.17647076,   46.2686577
    661,         12.5,   7.64705896,   46.2686577
    662,         12.5,   9.11764717,   46.2686577
    663,         12.5,   10.5882349,   46.2686577
    664,         12.5,   12.0588236,   46.2686577
    665,         12.5,   13.5294113,   46.2686577
    666,         12.5,          15.,   46.2686577
    667,         12.5,         -10.,   44.7761192
    668,         12.5,  -8.52941132,   44.7761192
    669,         12.5,  -7.05882359,   44.7761192
    670,         12.5,  -5.58823538,   44.7761192
    671,         12.5,  -4.11764717,   44.7761192
    672,         12.5,  -2.64705873,   44.7761192
    673,         12.5,  -1.17647064,   44.7761192
    674,         12.5,  0.294117659,   44.7761192
    675,         12.5,    1.7647059,   44.7761192
    676,         12.5,    3.2352941,   44.7761192
    677,         12.5,   4.70588255,   44.7761192
    678,         12.5,   6.17647076,   44.7761192
    679,         12.5,   7.64705896,   44.7761192
    680,         12.5,   9.11764717,   44.7761192
    681,         12.5,   10.5882349,   44.7761192
    682,         12.5,   12.0588236,   44.7761192
    683,         12.5,   13.5294113,   44.7761192
    684,         12.5,          15.,   44.7761192
    685,         12.5,         -10.,   43.2835808
    686,         12.5,  -8.52941132,   43.2835808
    687,         12.5,  -7.05882359,   43.2835808
    688,         12.5,  -5.58823538,   43.2835808
    689,         12.5,  -4.11764717,   43.2835808
    690,         12.5,  -2.64705873,   43.2835808
    691,         12.5,  -1.17647064,   43.2835808
    692,         12.5,  0.294117659,   43.2835808
    693,         12.5,    1.7647059,   43.2835808
    694,         12.5,    3.2352941,   43.2835808
    695,         12.5,   4.70588255,   43.2835808
    696,         12.5,   6.17647076,   43.2835808
    697,         12.5,   7.64705896,   43.2835808
    698,         12.5,   9.11764717,   43.2835808
    699,         12.5,   10.5882349,   43.2835808
    700,         12.5,   12.0588236,   43.2835808
    701,         12.5,   13.5294113,   43.2835808
    702,         12.5,          15.,   43.2835808
    703,         12.5,         -10.,   41.7910461
    704,         12.5,  -8.52941132,   41.7910461
    705,         12.5,  -7.05882359,   41.7910461
    706,         12.5,  -5.58823538,   41.7910461
    707,         12.5,  -4.11764717,   41.7910461
    708,         12.5,  -2.64705873,   41.7910461
    709,         12.5,  -1.17647064,   41.7910461
    710,         12.5,  0.294117659,   41.7910461
    711,         12.5,    1.7647059,   41.7910461
    712,         12.5,    3.2352941,   41.7910461
    713,         12.5,   4.70588255,   41.7910461
    714,         12.5,   6.17647076,   41.7910461
    715,         12.5,   7.64705896,   41.7910461
    716,         12.5,   9.11764717,   41.7910461
    717,         12.5,   10.5882349,   41.7910461
    718,         12.5,   12.0588236,   41.7910461
    719,         12.5,   13.5294113,   41.7910461
    720,         12.5,          15.,   41.7910461
    721,         12.5,         -10.,   40.2985077
    722,         12.5,  -8.52941132,   40.2985077
    723,         12.5,  -7.05882359,   40.2985077
    724,         12.5,  -5.58823538,   40.2985077
    725,         12.5,  -4.11764717,   40.2985077
    726,         12.5,  -2.64705873,   40.2985077
    727,         12.5,  -1.17647064,   40.2985077
    728,         12.5,  0.294117659,   40.2985077
    729,         12.5,    1.7647059,   40.2985077
    730,         12.5,    3.2352941,   40.2985077
    731,         12.5,   4.70588255,   40.2985077
    732,         12.5,   6.17647076,   40.2985077
    733,         12.5,   7.64705896,   40.2985077
    734,         12.5,   9.11764717,   40.2985077
    735,         12.5,   10.5882349,   40.2985077
    736,         12.5,   12.0588236,   40.2985077
    737,         12.5,   13.5294113,   40.2985077
    738,         12.5,          15.,   40.2985077
    739,         12.5,         -10.,   38.8059692
    740,         12.5,  -8.52941132,   38.8059692
    741,         12.5,  -7.05882359,   38.8059692
    742,         12.5,  -5.58823538,   38.8059692
    743,         12.5,  -4.11764717,   38.8059692
    744,         12.5,  -2.64705873,   38.8059692
    745,         12.5,  -1.17647064,   38.8059692
    746,         12.5,  0.294117659,   38.8059692
    747,         12.5,    1.7647059,   38.8059692
    748,         12.5,    3.2352941,   38.8059692
    749,         12.5,   4.70588255,   38.8059692
    750,         12.5,   6.17647076,   38.8059692
    751,         12.5,   7.64705896,   38.8059692
    752,         12.5,   9.11764717,   38.8059692
    753,         12.5,   10.5882349,   38.8059692
    754,         12.5,   12.0588236,   38.8059692
    755,         12.5,   13.5294113,   38.8059692
    756,         12.5,          15.,   38.8059692
    757,         12.5,         -10.,   37.3134346
    758,         12.5,  -8.52941132,   37.3134346
    759,         12.5,  -7.05882359,   37.3134346
    760,         12.5,  -5.58823538,   37.3134346
    761,         12.5,  -4.11764717,   37.3134346
    762,         12.5,  -2.64705873,   37.3134346
    763,         12.5,  -1.17647064,   37.3134346
    764,         12.5,  0.294117659,   37.3134346
    765,         12.5,    1.7647059,   37.3134346
    766,         12.5,    3.2352941,   37.3134346
    767,         12.5,   4.70588255,   37.3134346
    768,         12.5,   6.17647076,   37.3134346
    769,         12.5,   7.64705896,   37.3134346
    770,         12.5,   9.11764717,   37.3134346
    771,         12.5,   10.5882349,   37.3134346
    772,         12.5,   12.0588236,   37.3134346
    773,         12.5,   13.5294113,   37.3134346
    774,         12.5,          15.,   37.3134346
    775,         12.5,         -10.,   35.8208961
    776,         12.5,  -8.52941132,   35.8208961
    777,         12.5,  -7.05882359,   35.8208961
    778,         12.5,  -5.58823538,   35.8208961
    779,         12.5,  -4.11764717,   35.8208961
    780,         12.5,  -2.64705873,   35.8208961
    781,         12.5,  -1.17647064,   35.8208961
    782,         12.5,  0.294117659,   35.8208961
    783,         12.5,    1.7647059,   35.8208961
    784,         12.5,    3.2352941,   35.8208961
    785,         12.5,   4.70588255,   35.8208961
    786,         12.5,   6.17647076,   35.8208961
    787,         12.5,   7.64705896,   35.8208961
    788,         12.5,   9.11764717,   35.8208961
    789,         12.5,   10.5882349,   35.8208961
    790,         12.5,   12.0588236,   35.8208961
    791,         12.5,   13.5294113,   35.8208961
    792,         12.5,          15.,   35.8208961
    793,         12.5,         -10.,   34.3283577
    794,         12.5,  -8.52941132,   34.3283577
    795,         12.5,  -7.05882359,   34.3283577
    796,         12.5,  -5.58823538,   34.3283577
    797,         12.5,  -4.11764717,   34.3283577
    798,         12.5,  -2.64705873,   34.3283577
    799,         12.5,  -1.17647064,   34.3283577
    800,         12.5,  0.294117659,   34.3283577
    801,         12.5,    1.7647059,   34.3283577
    802,         12.5,    3.2352941,   34.3283577
    803,         12.5,   4.70588255,   34.3283577
    804,         12.5,   6.17647076,   34.3283577
    805,         12.5,   7.64705896,   34.3283577
    806,         12.5,   9.11764717,   34.3283577
    807,         12.5,   10.5882349,   34.3283577
    808,         12.5,   12.0588236,   34.3283577
    809,         12.5,   13.5294113,   34.3283577
    810,         12.5,          15.,   34.3283577
    811,         12.5,         -10.,   32.8358192
    812,         12.5,  -8.52941132,   32.8358192
    813,         12.5,  -7.05882359,   32.8358192
    814,         12.5,  -5.58823538,   32.8358192
    815,         12.5,  -4.11764717,   32.8358192
    816,         12.5,  -2.64705873,   32.8358192
    817,         12.5,  -1.17647064,   32.8358192
    818,         12.5,  0.294117659,   32.8358192
    819,         12.5,    1.7647059,   32.8358192
    820,         12.5,    3.2352941,   32.8358192
    821,         12.5,   4.70588255,   32.8358192
    822,         12.5,   6.17647076,   32.8358192
    823,         12.5,   7.64705896,   32.8358192
    824,         12.5,   9.11764717,   32.8358192
    825,         12.5,   10.5882349,   32.8358192
    826,         12.5,   12.0588236,   32.8358192
    827,         12.5,   13.5294113,   32.8358192
    828,         12.5,          15.,   32.8358192
    829,         12.5,         -10.,   31.3432827
    830,         12.5,  -8.52941132,   31.3432827
    831,         12.5,  -7.05882359,   31.3432827
    832,         12.5,  -5.58823538,   31.3432827
    833,         12.5,  -4.11764717,   31.3432827
    834,         12.5,  -2.64705873,   31.3432827
    835,         12.5,  -1.17647064,   31.3432827
    836,         12.5,  0.294117659,   31.3432827
    837,         12.5,    1.7647059,   31.3432827
    838,         12.5,    3.2352941,   31.3432827
    839,         12.5,   4.70588255,   31.3432827
    840,         12.5,   6.17647076,   31.3432827
    841,         12.5,   7.64705896,   31.3432827
    842,         12.5,   9.11764717,   31.3432827
    843,         12.5,   10.5882349,   31.3432827
    844,         12.5,   12.0588236,   31.3432827
    845,         12.5,   13.5294113,   31.3432827
    846,         12.5,          15.,   31.3432827
    847,         12.5,         -10.,   29.8507462
    848,         12.5,  -8.52941132,   29.8507462
    849,         12.5,  -7.05882359,   29.8507462
    850,         12.5,  -5.58823538,   29.8507462
    851,         12.5,  -4.11764717,   29.8507462
    852,         12.5,  -2.64705873,   29.8507462
    853,         12.5,  -1.17647064,   29.8507462
    854,         12.5,  0.294117659,   29.8507462
    855,         12.5,    1.7647059,   29.8507462
    856,         12.5,    3.2352941,   29.8507462
    857,         12.5,   4.70588255,   29.8507462
    858,         12.5,   6.17647076,   29.8507462
    859,         12.5,   7.64705896,   29.8507462
    860,         12.5,   9.11764717,   29.8507462
    861,         12.5,   10.5882349,   29.8507462
    862,         12.5,   12.0588236,   29.8507462
    863,         12.5,   13.5294113,   29.8507462
    864,         12.5,          15.,   29.8507462
    865,         12.5,         -10.,   28.3582096
    866,         12.5,  -8.52941132,   28.3582096
    867,         12.5,  -7.05882359,   28.3582096
    868,         12.5,  -5.58823538,   28.3582096
    869,         12.5,  -4.11764717,   28.3582096
    870,         12.5,  -2.64705873,   28.3582096
    871,         12.5,  -1.17647064,   28.3582096
    872,         12.5,  0.294117659,   28.3582096
    873,         12.5,    1.7647059,   28.3582096
    874,         12.5,    3.2352941,   28.3582096
    875,         12.5,   4.70588255,   28.3582096
    876,         12.5,   6.17647076,   28.3582096
    877,         12.5,   7.64705896,   28.3582096
    878,         12.5,   9.11764717,   28.3582096
    879,         12.5,   10.5882349,   28.3582096
    880,         12.5,   12.0588236,   28.3582096
    881,         12.5,   13.5294113,   28.3582096
    882,         12.5,          15.,   28.3582096
    883,         12.5,         -10.,   26.8656712
    884,         12.5,  -8.52941132,   26.8656712
    885,         12.5,  -7.05882359,   26.8656712
    886,         12.5,  -5.58823538,   26.8656712
    887,         12.5,  -4.11764717,   26.8656712
    888,         12.5,  -2.64705873,   26.8656712
    889,         12.5,  -1.17647064,   26.8656712
    890,         12.5,  0.294117659,   26.8656712
    891,         12.5,    1.7647059,   26.8656712
    892,         12.5,    3.2352941,   26.8656712
    893,         12.5,   4.70588255,   26.8656712
    894,         12.5,   6.17647076,   26.8656712
    895,         12.5,   7.64705896,   26.8656712
    896,         12.5,   9.11764717,   26.8656712
    897,         12.5,   10.5882349,   26.8656712
    898,         12.5,   12.0588236,   26.8656712
    899,         12.5,   13.5294113,   26.8656712
    900,         12.5,          15.,   26.8656712
    901,         12.5,         -10.,   25.3731346
    902,         12.5,  -8.52941132,   25.3731346
    903,         12.5,  -7.05882359,   25.3731346
    904,         12.5,  -5.58823538,   25.3731346
    905,         12.5,  -4.11764717,   25.3731346
    906,         12.5,  -2.64705873,   25.3731346
    907,         12.5,  -1.17647064,   25.3731346
    908,         12.5,  0.294117659,   25.3731346
    909,         12.5,    1.7647059,   25.3731346
    910,         12.5,    3.2352941,   25.3731346
    911,         12.5,   4.70588255,   25.3731346
    912,         12.5,   6.17647076,   25.3731346
    913,         12.5,   7.64705896,   25.3731346
    914,         12.5,   9.11764717,   25.3731346
    915,         12.5,   10.5882349,   25.3731346
    916,         12.5,   12.0588236,   25.3731346
    917,         12.5,   13.5294113,   25.3731346
    918,         12.5,          15.,   25.3731346
    919,         12.5,         -10.,   23.8805962
    920,         12.5,  -8.52941132,   23.8805962
    921,         12.5,  -7.05882359,   23.8805962
    922,         12.5,  -5.58823538,   23.8805962
    923,         12.5,  -4.11764717,   23.8805962
    924,         12.5,  -2.64705873,   23.8805962
    925,         12.5,  -1.17647064,   23.8805962
    926,         12.5,  0.294117659,   23.8805962
    927,         12.5,    1.7647059,   23.8805962
    928,         12.5,    3.2352941,   23.8805962
    929,         12.5,   4.70588255,   23.8805962
    930,         12.5,   6.17647076,   23.8805962
    931,         12.5,   7.64705896,   23.8805962
    932,         12.5,   9.11764717,   23.8805962
    933,         12.5,   10.5882349,   23.8805962
    934,         12.5,   12.0588236,   23.8805962
    935,         12.5,   13.5294113,   23.8805962
    936,         12.5,          15.,   23.8805962
    937,         12.5,         -10.,   22.3880596
    938,         12.5,  -8.52941132,   22.3880596
    939,         12.5,  -7.05882359,   22.3880596
    940,         12.5,  -5.58823538,   22.3880596
    941,         12.5,  -4.11764717,   22.3880596
    942,         12.5,  -2.64705873,   22.3880596
    943,         12.5,  -1.17647064,   22.3880596
    944,         12.5,  0.294117659,   22.3880596
    945,         12.5,    1.7647059,   22.3880596
    946,         12.5,    3.2352941,   22.3880596
    947,         12.5,   4.70588255,   22.3880596
    948,         12.5,   6.17647076,   22.3880596
    949,         12.5,   7.64705896,   22.3880596
    950,         12.5,   9.11764717,   22.3880596
    951,         12.5,   10.5882349,   22.3880596
    952,         12.5,   12.0588236,   22.3880596
    953,         12.5,   13.5294113,   22.3880596
    954,         12.5,          15.,   22.3880596
    955,         12.5,         -10.,   20.8955231
    956,         12.5,  -8.52941132,   20.8955231
    957,         12.5,  -7.05882359,   20.8955231
    958,         12.5,  -5.58823538,   20.8955231
    959,         12.5,  -4.11764717,   20.8955231
    960,         12.5,  -2.64705873,   20.8955231
    961,         12.5,  -1.17647064,   20.8955231
    962,         12.5,  0.294117659,   20.8955231
    963,         12.5,    1.7647059,   20.8955231
    964,         12.5,    3.2352941,   20.8955231
    965,         12.5,   4.70588255,   20.8955231
    966,         12.5,   6.17647076,   20.8955231
    967,         12.5,   7.64705896,   20.8955231
    968,         12.5,   9.11764717,   20.8955231
    969,         12.5,   10.5882349,   20.8955231
    970,         12.5,   12.0588236,   20.8955231
    971,         12.5,   13.5294113,   20.8955231
    972,         12.5,          15.,   20.8955231
    973,         12.5,         -10.,   19.4029846
    974,         12.5,  -8.52941132,   19.4029846
    975,         12.5,  -7.05882359,   19.4029846
    976,         12.5,  -5.58823538,   19.4029846
    977,         12.5,  -4.11764717,   19.4029846
    978,         12.5,  -2.64705873,   19.4029846
    979,         12.5,  -1.17647064,   19.4029846
    980,         12.5,  0.294117659,   19.4029846
    981,         12.5,    1.7647059,   19.4029846
    982,         12.5,    3.2352941,   19.4029846
    983,         12.5,   4.70588255,   19.4029846
    984,         12.5,   6.17647076,   19.4029846
    985,         12.5,   7.64705896,   19.4029846
    986,         12.5,   9.11764717,   19.4029846
    987,         12.5,   10.5882349,   19.4029846
    988,         12.5,   12.0588236,   19.4029846
    989,         12.5,   13.5294113,   19.4029846
    990,         12.5,          15.,   19.4029846
    991,         12.5,         -10.,   17.9104481
    992,         12.5,  -8.52941132,   17.9104481
    993,         12.5,  -7.05882359,   17.9104481
    994,         12.5,  -5.58823538,   17.9104481
    995,         12.5,  -4.11764717,   17.9104481
    996,         12.5,  -2.64705873,   17.9104481
    997,         12.5,  -1.17647064,   17.9104481
    998,         12.5,  0.294117659,   17.9104481
    999,         12.5,    1.7647059,   17.9104481
   1000,         12.5,    3.2352941,   17.9104481
   1001,         12.5,   4.70588255,   17.9104481
   1002,         12.5,   6.17647076,   17.9104481
   1003,         12.5,   7.64705896,   17.9104481
   1004,         12.5,   9.11764717,   17.9104481
   1005,         12.5,   10.5882349,   17.9104481
   1006,         12.5,   12.0588236,   17.9104481
   1007,         12.5,   13.5294113,   17.9104481
   1008,         12.5,          15.,   17.9104481
   1009,         12.5,         -10.,   16.4179096
   1010,         12.5,  -8.52941132,   16.4179096
   1011,         12.5,  -7.05882359,   16.4179096
   1012,         12.5,  -5.58823538,   16.4179096
   1013,         12.5,  -4.11764717,   16.4179096
   1014,         12.5,  -2.64705873,   16.4179096
   1015,         12.5,  -1.17647064,   16.4179096
   1016,         12.5,  0.294117659,   16.4179096
   1017,         12.5,    1.7647059,   16.4179096
   1018,         12.5,    3.2352941,   16.4179096
   1019,         12.5,   4.70588255,   16.4179096
   1020,         12.5,   6.17647076,   16.4179096
   1021,         12.5,   7.64705896,   16.4179096
   1022,         12.5,   9.11764717,   16.4179096
   1023,         12.5,   10.5882349,   16.4179096
   1024,         12.5,   12.0588236,   16.4179096
   1025,         12.5,   13.5294113,   16.4179096
   1026,         12.5,          15.,   16.4179096
   1027,         12.5,         -10.,   14.9253731
   1028,         12.5,  -8.52941132,   14.9253731
   1029,         12.5,  -7.05882359,   14.9253731
   1030,         12.5,  -5.58823538,   14.9253731
   1031,         12.5,  -4.11764717,   14.9253731
   1032,         12.5,  -2.64705873,   14.9253731
   1033,         12.5,  -1.17647064,   14.9253731
   1034,         12.5,  0.294117659,   14.9253731
   1035,         12.5,    1.7647059,   14.9253731
   1036,         12.5,    3.2352941,   14.9253731
   1037,         12.5,   4.70588255,   14.9253731
   1038,         12.5,   6.17647076,   14.9253731
   1039,         12.5,   7.64705896,   14.9253731
   1040,         12.5,   9.11764717,   14.9253731
   1041,         12.5,   10.5882349,   14.9253731
   1042,         12.5,   12.0588236,   14.9253731
   1043,         12.5,   13.5294113,   14.9253731
   1044,         12.5,          15.,   14.9253731
   1045,         12.5,         -10.,   13.4328356
   1046,         12.5,  -8.52941132,   13.4328356
   1047,         12.5,  -7.05882359,   13.4328356
   1048,         12.5,  -5.58823538,   13.4328356
   1049,         12.5,  -4.11764717,   13.4328356
   1050,         12.5,  -2.64705873,   13.4328356
   1051,         12.5,  -1.17647064,   13.4328356
   1052,         12.5,  0.294117659,   13.4328356
   1053,         12.5,    1.7647059,   13.4328356
   1054,         12.5,    3.2352941,   13.4328356
   1055,         12.5,   4.70588255,   13.4328356
   1056,         12.5,   6.17647076,   13.4328356
   1057,         12.5,   7.64705896,   13.4328356
   1058,         12.5,   9.11764717,   13.4328356
   1059,         12.5,   10.5882349,   13.4328356
   1060,         12.5,   12.0588236,   13.4328356
   1061,         12.5,   13.5294113,   13.4328356
   1062,         12.5,          15.,   13.4328356
   1063,         12.5,         -10.,   11.9402981
   1064,         12.5,  -8.52941132,   11.9402981
   1065,         12.5,  -7.05882359,   11.9402981
   1066,         12.5,  -5.58823538,   11.9402981
   1067,         12.5,  -4.11764717,   11.9402981
   1068,         12.5,  -2.64705873,   11.9402981
   1069,         12.5,  -1.17647064,   11.9402981
   1070,         12.5,  0.294117659,   11.9402981
   1071,         12.5,    1.7647059,   11.9402981
   1072,         12.5,    3.2352941,   11.9402981
   1073,         12.5,   4.70588255,   11.9402981
   1074,         12.5,   6.17647076,   11.9402981
   1075,         12.5,   7.64705896,   11.9402981
   1076,         12.5,   9.11764717,   11.9402981
   1077,         12.5,   10.5882349,   11.9402981
   1078,         12.5,   12.0588236,   11.9402981
   1079,         12.5,   13.5294113,   11.9402981
   1080,         12.5,          15.,   11.9402981
   1081,         12.5,         -10.,   10.4477615
   1082,         12.5,  -8.52941132,   10.4477615
   1083,         12.5,  -7.05882359,   10.4477615
   1084,         12.5,  -5.58823538,   10.4477615
   1085,         12.5,  -4.11764717,   10.4477615
   1086,         12.5,  -2.64705873,   10.4477615
   1087,         12.5,  -1.17647064,   10.4477615
   1088,         12.5,  0.294117659,   10.4477615
   1089,         12.5,    1.7647059,   10.4477615
   1090,         12.5,    3.2352941,   10.4477615
   1091,         12.5,   4.70588255,   10.4477615
   1092,         12.5,   6.17647076,   10.4477615
   1093,         12.5,   7.64705896,   10.4477615
   1094,         12.5,   9.11764717,   10.4477615
   1095,         12.5,   10.5882349,   10.4477615
   1096,         12.5,   12.0588236,   10.4477615
   1097,         12.5,   13.5294113,   10.4477615
   1098,         12.5,          15.,   10.4477615
   1099,         12.5,         -10.,   8.95522404
   1100,         12.5,  -8.52941132,   8.95522404
   1101,         12.5,  -7.05882359,   8.95522404
   1102,         12.5,  -5.58823538,   8.95522404
   1103,         12.5,  -4.11764717,   8.95522404
   1104,         12.5,  -2.64705873,   8.95522404
   1105,         12.5,  -1.17647064,   8.95522404
   1106,         12.5,  0.294117659,   8.95522404
   1107,         12.5,    1.7647059,   8.95522404
   1108,         12.5,    3.2352941,   8.95522404
   1109,         12.5,   4.70588255,   8.95522404
   1110,         12.5,   6.17647076,   8.95522404
   1111,         12.5,   7.64705896,   8.95522404
   1112,         12.5,   9.11764717,   8.95522404
   1113,         12.5,   10.5882349,   8.95522404
   1114,         12.5,   12.0588236,   8.95522404
   1115,         12.5,   13.5294113,   8.95522404
   1116,         12.5,          15.,   8.95522404
   1117,         12.5,         -10.,   7.46268654
   1118,         12.5,  -8.52941132,   7.46268654
   1119,         12.5,  -7.05882359,   7.46268654
   1120,         12.5,  -5.58823538,   7.46268654
   1121,         12.5,  -4.11764717,   7.46268654
   1122,         12.5,  -2.64705873,   7.46268654
   1123,         12.5,  -1.17647064,   7.46268654
   1124,         12.5,  0.294117659,   7.46268654
   1125,         12.5,    1.7647059,   7.46268654
   1126,         12.5,    3.2352941,   7.46268654
   1127,         12.5,   4.70588255,   7.46268654
   1128,         12.5,   6.17647076,   7.46268654
   1129,         12.5,   7.64705896,   7.46268654
   1130,         12.5,   9.11764717,   7.46268654
   1131,         12.5,   10.5882349,   7.46268654
   1132,         12.5,   12.0588236,   7.46268654
   1133,         12.5,   13.5294113,   7.46268654
   1134,         12.5,          15.,   7.46268654
   1135,         12.5,         -10.,   5.97014904
   1136,         12.5,  -8.52941132,   5.97014904
   1137,         12.5,  -7.05882359,   5.97014904
   1138,         12.5,  -5.58823538,   5.97014904
   1139,         12.5,  -4.11764717,   5.97014904
   1140,         12.5,  -2.64705873,   5.97014904
   1141,         12.5,  -1.17647064,   5.97014904
   1142,         12.5,  0.294117659,   5.97014904
   1143,         12.5,    1.7647059,   5.97014904
   1144,         12.5,    3.2352941,   5.97014904
   1145,         12.5,   4.70588255,   5.97014904
   1146,         12.5,   6.17647076,   5.97014904
   1147,         12.5,   7.64705896,   5.97014904
   1148,         12.5,   9.11764717,   5.97014904
   1149,         12.5,   10.5882349,   5.97014904
   1150,         12.5,   12.0588236,   5.97014904
   1151,         12.5,   13.5294113,   5.97014904
   1152,         12.5,          15.,   5.97014904
   1153,         12.5,         -10.,   4.47761202
   1154,         12.5,  -8.52941132,   4.47761202
   1155,         12.5,  -7.05882359,   4.47761202
   1156,         12.5,  -5.58823538,   4.47761202
   1157,         12.5,  -4.11764717,   4.47761202
   1158,         12.5,  -2.64705873,   4.47761202
   1159,         12.5,  -1.17647064,   4.47761202
   1160,         12.5,  0.294117659,   4.47761202
   1161,         12.5,    1.7647059,   4.47761202
   1162,         12.5,    3.2352941,   4.47761202
   1163,         12.5,   4.70588255,   4.47761202
   1164,         12.5,   6.17647076,   4.47761202
   1165,         12.5,   7.64705896,   4.47761202
   1166,         12.5,   9.11764717,   4.47761202
   1167,         12.5,   10.5882349,   4.47761202
   1168,         12.5,   12.0588236,   4.47761202
   1169,         12.5,   13.5294113,   4.47761202
   1170,         12.5,          15.,   4.47761202
   1171,         12.5,         -10.,   2.98507452
   1172,         12.5,  -8.52941132,   2.98507452
   1173,         12.5,  -7.05882359,   2.98507452
   1174,         12.5,  -5.58823538,   2.98507452
   1175,         12.5,  -4.11764717,   2.98507452
   1176,         12.5,  -2.64705873,   2.98507452
   1177,         12.5,  -1.17647064,   2.98507452
   1178,         12.5,  0.294117659,   2.98507452
   1179,         12.5,    1.7647059,   2.98507452
   1180,         12.5,    3.2352941,   2.98507452
   1181,         12.5,   4.70588255,   2.98507452
   1182,         12.5,   6.17647076,   2.98507452
   1183,         12.5,   7.64705896,   2.98507452
   1184,         12.5,   9.11764717,   2.98507452
   1185,         12.5,   10.5882349,   2.98507452
   1186,         12.5,   12.0588236,   2.98507452
   1187,         12.5,   13.5294113,   2.98507452
   1188,         12.5,          15.,   2.98507452
   1189,         12.5,         -10.,   1.49253726
   1190,         12.5,  -8.52941132,   1.49253726
   1191,         12.5,  -7.05882359,   1.49253726
   1192,         12.5,  -5.58823538,   1.49253726
   1193,         12.5,  -4.11764717,   1.49253726
   1194,         12.5,  -2.64705873,   1.49253726
   1195,         12.5,  -1.17647064,   1.49253726
   1196,         12.5,  0.294117659,   1.49253726
   1197,         12.5,    1.7647059,   1.49253726
   1198,         12.5,    3.2352941,   1.49253726
   1199,         12.5,   4.70588255,   1.49253726
   1200,         12.5,   6.17647076,   1.49253726
   1201,         12.5,   7.64705896,   1.49253726
   1202,         12.5,   9.11764717,   1.49253726
   1203,         12.5,   10.5882349,   1.49253726
   1204,         12.5,   12.0588236,   1.49253726
   1205,         12.5,   13.5294113,   1.49253726
   1206,         12.5,          15.,   1.49253726
   1207,         12.5,         -10.,           0.
   1208,         12.5,  -8.52941132,           0.
   1209,         12.5,  -7.05882359,           0.
   1210,         12.5,  -5.58823538,           0.
   1211,         12.5,  -4.11764717,           0.
   1212,         12.5,  -2.64705873,           0.
   1213,         12.5,  -1.17647064,           0.
   1214,         12.5,  0.294117659,           0.
   1215,         12.5,    1.7647059,           0.
   1216,         12.5,    3.2352941,           0.
   1217,         12.5,   4.70588255,           0.
   1218,         12.5,   6.17647076,           0.
   1219,         12.5,   7.64705896,           0.
   1220,         12.5,   9.11764717,           0.
   1221,         12.5,   10.5882349,           0.
   1222,         12.5,   12.0588236,           0.
   1223,         12.5,   13.5294113,           0.
   1224,         12.5,          15.,           0.
   1225,        13.75,         -10.,         100.
   1226,        13.75,  -8.52941132,         100.
   1227,        13.75,  -7.05882359,         100.
   1228,        13.75,  -5.58823538,         100.
   1229,        13.75,  -4.11764717,         100.
   1230,        13.75,  -2.64705873,         100.
   1231,        13.75,  -1.17647064,         100.
   1232,        13.75,  0.294117659,         100.
   1233,        13.75,    1.7647059,         100.
   1234,        13.75,    3.2352941,         100.
   1235,        13.75,   4.70588255,         100.
   1236,        13.75,   6.17647076,         100.
   1237,        13.75,   7.64705896,         100.
   1238,        13.75,   9.11764717,         100.
   1239,        13.75,   10.5882349,         100.
   1240,        13.75,   12.0588236,         100.
   1241,        13.75,   13.5294113,         100.
   1242,        13.75,          15.,         100.
   1243,        13.75,         -10.,   98.5074615
   1244,        13.75,  -8.52941132,   98.5074615
   1245,        13.75,  -7.05882359,   98.5074615
   1246,        13.75,  -5.58823538,   98.5074615
   1247,        13.75,  -4.11764717,   98.5074615
   1248,        13.75,  -2.64705873,   98.5074615
   1249,        13.75,  -1.17647064,   98.5074615
   1250,        13.75,  0.294117659,   98.5074615
   1251,        13.75,    1.7647059,   98.5074615
   1252,        13.75,    3.2352941,   98.5074615
   1253,        13.75,   4.70588255,   98.5074615
   1254,        13.75,   6.17647076,   98.5074615
   1255,        13.75,   7.64705896,   98.5074615
   1256,        13.75,   9.11764717,   98.5074615
   1257,        13.75,   10.5882349,   98.5074615
   1258,        13.75,   12.0588236,   98.5074615
   1259,        13.75,   13.5294113,   98.5074615
   1260,        13.75,          15.,   98.5074615
   1261,        13.75,         -10.,   97.0149231
   1262,        13.75,  -8.52941132,   97.0149231
   1263,        13.75,  -7.05882359,   97.0149231
   1264,        13.75,  -5.58823538,   97.0149231
   1265,        13.75,  -4.11764717,   97.0149231
   1266,        13.75,  -2.64705873,   97.0149231
   1267,        13.75,  -1.17647064,   97.0149231
   1268,        13.75,  0.294117659,   97.0149231
   1269,        13.75,    1.7647059,   97.0149231
   1270,        13.75,    3.2352941,   97.0149231
   1271,        13.75,   4.70588255,   97.0149231
   1272,        13.75,   6.17647076,   97.0149231
   1273,        13.75,   7.64705896,   97.0149231
   1274,        13.75,   9.11764717,   97.0149231
   1275,        13.75,   10.5882349,   97.0149231
   1276,        13.75,   12.0588236,   97.0149231
   1277,        13.75,   13.5294113,   97.0149231
   1278,        13.75,          15.,   97.0149231
   1279,        13.75,         -10.,   95.5223846
   1280,        13.75,  -8.52941132,   95.5223846
   1281,        13.75,  -7.05882359,   95.5223846
   1282,        13.75,  -5.58823538,   95.5223846
   1283,        13.75,  -4.11764717,   95.5223846
   1284,        13.75,  -2.64705873,   95.5223846
   1285,        13.75,  -1.17647064,   95.5223846
   1286,        13.75,  0.294117659,   95.5223846
   1287,        13.75,    1.7647059,   95.5223846
   1288,        13.75,    3.2352941,   95.5223846
   1289,        13.75,   4.70588255,   95.5223846
   1290,        13.75,   6.17647076,   95.5223846
   1291,        13.75,   7.64705896,   95.5223846
   1292,        13.75,   9.11764717,   95.5223846
   1293,        13.75,   10.5882349,   95.5223846
   1294,        13.75,   12.0588236,   95.5223846
   1295,        13.75,   13.5294113,   95.5223846
   1296,        13.75,          15.,   95.5223846
   1297,        13.75,         -10.,   94.0298538
   1298,        13.75,  -8.52941132,   94.0298538
   1299,        13.75,  -7.05882359,   94.0298538
   1300,        13.75,  -5.58823538,   94.0298538
   1301,        13.75,  -4.11764717,   94.0298538
   1302,        13.75,  -2.64705873,   94.0298538
   1303,        13.75,  -1.17647064,   94.0298538
   1304,        13.75,  0.294117659,   94.0298538
   1305,        13.75,    1.7647059,   94.0298538
   1306,        13.75,    3.2352941,   94.0298538
   1307,        13.75,   4.70588255,   94.0298538
   1308,        13.75,   6.17647076,   94.0298538
   1309,        13.75,   7.64705896,   94.0298538
   1310,        13.75,   9.11764717,   94.0298538
   1311,        13.75,   10.5882349,   94.0298538
   1312,        13.75,   12.0588236,   94.0298538
   1313,        13.75,   13.5294113,   94.0298538
   1314,        13.75,          15.,   94.0298538
   1315,        13.75,         -10.,   92.5373154
   1316,        13.75,  -8.52941132,   92.5373154
   1317,        13.75,  -7.05882359,   92.5373154
   1318,        13.75,  -5.58823538,   92.5373154
   1319,        13.75,  -4.11764717,   92.5373154
   1320,        13.75,  -2.64705873,   92.5373154
   1321,        13.75,  -1.17647064,   92.5373154
   1322,        13.75,  0.294117659,   92.5373154
   1323,        13.75,    1.7647059,   92.5373154
   1324,        13.75,    3.2352941,   92.5373154
   1325,        13.75,   4.70588255,   92.5373154
   1326,        13.75,   6.17647076,   92.5373154
   1327,        13.75,   7.64705896,   92.5373154
   1328,        13.75,   9.11764717,   92.5373154
   1329,        13.75,   10.5882349,   92.5373154
   1330,        13.75,   12.0588236,   92.5373154
   1331,        13.75,   13.5294113,   92.5373154
   1332,        13.75,          15.,   92.5373154
   1333,        13.75,         -10.,   91.0447769
   1334,        13.75,  -8.52941132,   91.0447769
   1335,        13.75,  -7.05882359,   91.0447769
   1336,        13.75,  -5.58823538,   91.0447769
   1337,        13.75,  -4.11764717,   91.0447769
   1338,        13.75,  -2.64705873,   91.0447769
   1339,        13.75,  -1.17647064,   91.0447769
   1340,        13.75,  0.294117659,   91.0447769
   1341,        13.75,    1.7647059,   91.0447769
   1342,        13.75,    3.2352941,   91.0447769
   1343,        13.75,   4.70588255,   91.0447769
   1344,        13.75,   6.17647076,   91.0447769
   1345,        13.75,   7.64705896,   91.0447769
   1346,        13.75,   9.11764717,   91.0447769
   1347,        13.75,   10.5882349,   91.0447769
   1348,        13.75,   12.0588236,   91.0447769
   1349,        13.75,   13.5294113,   91.0447769
   1350,        13.75,          15.,   91.0447769
   1351,        13.75,         -10.,   89.5522385
   1352,        13.75,  -8.52941132,   89.5522385
   1353,        13.75,  -7.05882359,   89.5522385
   1354,        13.75,  -5.58823538,   89.5522385
   1355,        13.75,  -4.11764717,   89.5522385
   1356,        13.75,  -2.64705873,   89.5522385
   1357,        13.75,  -1.17647064,   89.5522385
   1358,        13.75,  0.294117659,   89.5522385
   1359,        13.75,    1.7647059,   89.5522385
   1360,        13.75,    3.2352941,   89.5522385
   1361,        13.75,   4.70588255,   89.5522385
   1362,        13.75,   6.17647076,   89.5522385
   1363,        13.75,   7.64705896,   89.5522385
   1364,        13.75,   9.11764717,   89.5522385
   1365,        13.75,   10.5882349,   89.5522385
   1366,        13.75,   12.0588236,   89.5522385
   1367,        13.75,   13.5294113,   89.5522385
   1368,        13.75,          15.,   89.5522385
   1369,        13.75,         -10.,      88.0597
   1370,        13.75,  -8.52941132,      88.0597
   1371,        13.75,  -7.05882359,      88.0597
   1372,        13.75,  -5.58823538,      88.0597
   1373,        13.75,  -4.11764717,      88.0597
   1374,        13.75,  -2.64705873,      88.0597
   1375,        13.75,  -1.17647064,      88.0597
   1376,        13.75,  0.294117659,      88.0597
   1377,        13.75,    1.7647059,      88.0597
   1378,        13.75,    3.2352941,      88.0597
   1379,        13.75,   4.70588255,      88.0597
   1380,        13.75,   6.17647076,      88.0597
   1381,        13.75,   7.64705896,      88.0597
   1382,        13.75,   9.11764717,      88.0597
   1383,        13.75,   10.5882349,      88.0597
   1384,        13.75,   12.0588236,      88.0597
   1385,        13.75,   13.5294113,      88.0597
   1386,        13.75,          15.,      88.0597
   1387,        13.75,         -10.,   86.5671616
   1388,        13.75,  -8.52941132,   86.5671616
   1389,        13.75,  -7.05882359,   86.5671616
   1390,        13.75,  -5.58823538,   86.5671616
   1391,        13.75,  -4.11764717,   86.5671616
   1392,        13.75,  -2.64705873,   86.5671616
   1393,        13.75,  -1.17647064,   86.5671616
   1394,        13.75,  0.294117659,   86.5671616
   1395,        13.75,    1.7647059,   86.5671616
   1396,        13.75,    3.2352941,   86.5671616
   1397,        13.75,   4.70588255,   86.5671616
   1398,        13.75,   6.17647076,   86.5671616
   1399,        13.75,   7.64705896,   86.5671616
   1400,        13.75,   9.11764717,   86.5671616
   1401,        13.75,   10.5882349,   86.5671616
   1402,        13.75,   12.0588236,   86.5671616
   1403,        13.75,   13.5294113,   86.5671616
   1404,        13.75,          15.,   86.5671616
   1405,        13.75,         -10.,   85.0746231
   1406,        13.75,  -8.52941132,   85.0746231
   1407,        13.75,  -7.05882359,   85.0746231
   1408,        13.75,  -5.58823538,   85.0746231
   1409,        13.75,  -4.11764717,   85.0746231
   1410,        13.75,  -2.64705873,   85.0746231
   1411,        13.75,  -1.17647064,   85.0746231
   1412,        13.75,  0.294117659,   85.0746231
   1413,        13.75,    1.7647059,   85.0746231
   1414,        13.75,    3.2352941,   85.0746231
   1415,        13.75,   4.70588255,   85.0746231
   1416,        13.75,   6.17647076,   85.0746231
   1417,        13.75,   7.64705896,   85.0746231
   1418,        13.75,   9.11764717,   85.0746231
   1419,        13.75,   10.5882349,   85.0746231
   1420,        13.75,   12.0588236,   85.0746231
   1421,        13.75,   13.5294113,   85.0746231
   1422,        13.75,          15.,   85.0746231
   1423,        13.75,         -10.,   83.5820923
   1424,        13.75,  -8.52941132,   83.5820923
   1425,        13.75,  -7.05882359,   83.5820923
   1426,        13.75,  -5.58823538,   83.5820923
   1427,        13.75,  -4.11764717,   83.5820923
   1428,        13.75,  -2.64705873,   83.5820923
   1429,        13.75,  -1.17647064,   83.5820923
   1430,        13.75,  0.294117659,   83.5820923
   1431,        13.75,    1.7647059,   83.5820923
   1432,        13.75,    3.2352941,   83.5820923
   1433,        13.75,   4.70588255,   83.5820923
   1434,        13.75,   6.17647076,   83.5820923
   1435,        13.75,   7.64705896,   83.5820923
   1436,        13.75,   9.11764717,   83.5820923
   1437,        13.75,   10.5882349,   83.5820923
   1438,        13.75,   12.0588236,   83.5820923
   1439,        13.75,   13.5294113,   83.5820923
   1440,        13.75,          15.,   83.5820923
   1441,        13.75,         -10.,   82.0895538
   1442,        13.75,  -8.52941132,   82.0895538
   1443,        13.75,  -7.05882359,   82.0895538
   1444,        13.75,  -5.58823538,   82.0895538
   1445,        13.75,  -4.11764717,   82.0895538
   1446,        13.75,  -2.64705873,   82.0895538
   1447,        13.75,  -1.17647064,   82.0895538
   1448,        13.75,  0.294117659,   82.0895538
   1449,        13.75,    1.7647059,   82.0895538
   1450,        13.75,    3.2352941,   82.0895538
   1451,        13.75,   4.70588255,   82.0895538
   1452,        13.75,   6.17647076,   82.0895538
   1453,        13.75,   7.64705896,   82.0895538
   1454,        13.75,   9.11764717,   82.0895538
   1455,        13.75,   10.5882349,   82.0895538
   1456,        13.75,   12.0588236,   82.0895538
   1457,        13.75,   13.5294113,   82.0895538
   1458,        13.75,          15.,   82.0895538
   1459,        13.75,         -10.,   80.5970154
   1460,        13.75,  -8.52941132,   80.5970154
   1461,        13.75,  -7.05882359,   80.5970154
   1462,        13.75,  -5.58823538,   80.5970154
   1463,        13.75,  -4.11764717,   80.5970154
   1464,        13.75,  -2.64705873,   80.5970154
   1465,        13.75,  -1.17647064,   80.5970154
   1466,        13.75,  0.294117659,   80.5970154
   1467,        13.75,    1.7647059,   80.5970154
   1468,        13.75,    3.2352941,   80.5970154
   1469,        13.75,   4.70588255,   80.5970154
   1470,        13.75,   6.17647076,   80.5970154
   1471,        13.75,   7.64705896,   80.5970154
   1472,        13.75,   9.11764717,   80.5970154
   1473,        13.75,   10.5882349,   80.5970154
   1474,        13.75,   12.0588236,   80.5970154
   1475,        13.75,   13.5294113,   80.5970154
   1476,        13.75,          15.,   80.5970154
   1477,        13.75,         -10.,   79.1044769
   1478,        13.75,  -8.52941132,   79.1044769
   1479,        13.75,  -7.05882359,   79.1044769
   1480,        13.75,  -5.58823538,   79.1044769
   1481,        13.75,  -4.11764717,   79.1044769
   1482,        13.75,  -2.64705873,   79.1044769
   1483,        13.75,  -1.17647064,   79.1044769
   1484,        13.75,  0.294117659,   79.1044769
   1485,        13.75,    1.7647059,   79.1044769
   1486,        13.75,    3.2352941,   79.1044769
   1487,        13.75,   4.70588255,   79.1044769
   1488,        13.75,   6.17647076,   79.1044769
   1489,        13.75,   7.64705896,   79.1044769
   1490,        13.75,   9.11764717,   79.1044769
   1491,        13.75,   10.5882349,   79.1044769
   1492,        13.75,   12.0588236,   79.1044769
   1493,        13.75,   13.5294113,   79.1044769
   1494,        13.75,          15.,   79.1044769
   1495,        13.75,         -10.,   77.6119385
   1496,        13.75,  -8.52941132,   77.6119385
   1497,        13.75,  -7.05882359,   77.6119385
   1498,        13.75,  -5.58823538,   77.6119385
   1499,        13.75,  -4.11764717,   77.6119385
   1500,        13.75,  -2.64705873,   77.6119385
   1501,        13.75,  -1.17647064,   77.6119385
   1502,        13.75,  0.294117659,   77.6119385
   1503,        13.75,    1.7647059,   77.6119385
   1504,        13.75,    3.2352941,   77.6119385
   1505,        13.75,   4.70588255,   77.6119385
   1506,        13.75,   6.17647076,   77.6119385
   1507,        13.75,   7.64705896,   77.6119385
   1508,        13.75,   9.11764717,   77.6119385
   1509,        13.75,   10.5882349,   77.6119385
   1510,        13.75,   12.0588236,   77.6119385
   1511,        13.75,   13.5294113,   77.6119385
   1512,        13.75,          15.,   77.6119385
   1513,        13.75,         -10.,      76.1194
   1514,        13.75,  -8.52941132,      76.1194
   1515,        13.75,  -7.05882359,      76.1194
   1516,        13.75,  -5.58823538,      76.1194
   1517,        13.75,  -4.11764717,      76.1194
   1518,        13.75,  -2.64705873,      76.1194
   1519,        13.75,  -1.17647064,      76.1194
   1520,        13.75,  0.294117659,      76.1194
   1521,        13.75,    1.7647059,      76.1194
   1522,        13.75,    3.2352941,      76.1194
   1523,        13.75,   4.70588255,      76.1194
   1524,        13.75,   6.17647076,      76.1194
   1525,        13.75,   7.64705896,      76.1194
   1526,        13.75,   9.11764717,      76.1194
   1527,        13.75,   10.5882349,      76.1194
   1528,        13.75,   12.0588236,      76.1194
   1529,        13.75,   13.5294113,      76.1194
   1530,        13.75,          15.,      76.1194
   1531,        13.75,         -10.,   74.6268692
   1532,        13.75,  -8.52941132,   74.6268692
   1533,        13.75,  -7.05882359,   74.6268692
   1534,        13.75,  -5.58823538,   74.6268692
   1535,        13.75,  -4.11764717,   74.6268692
   1536,        13.75,  -2.64705873,   74.6268692
   1537,        13.75,  -1.17647064,   74.6268692
   1538,        13.75,  0.294117659,   74.6268692
   1539,        13.75,    1.7647059,   74.6268692
   1540,        13.75,    3.2352941,   74.6268692
   1541,        13.75,   4.70588255,   74.6268692
   1542,        13.75,   6.17647076,   74.6268692
   1543,        13.75,   7.64705896,   74.6268692
   1544,        13.75,   9.11764717,   74.6268692
   1545,        13.75,   10.5882349,   74.6268692
   1546,        13.75,   12.0588236,   74.6268692
   1547,        13.75,   13.5294113,   74.6268692
   1548,        13.75,          15.,   74.6268692
   1549,        13.75,         -10.,   73.1343307
   1550,        13.75,  -8.52941132,   73.1343307
   1551,        13.75,  -7.05882359,   73.1343307
   1552,        13.75,  -5.58823538,   73.1343307
   1553,        13.75,  -4.11764717,   73.1343307
   1554,        13.75,  -2.64705873,   73.1343307
   1555,        13.75,  -1.17647064,   73.1343307
   1556,        13.75,  0.294117659,   73.1343307
   1557,        13.75,    1.7647059,   73.1343307
   1558,        13.75,    3.2352941,   73.1343307
   1559,        13.75,   4.70588255,   73.1343307
   1560,        13.75,   6.17647076,   73.1343307
   1561,        13.75,   7.64705896,   73.1343307
   1562,        13.75,   9.11764717,   73.1343307
   1563,        13.75,   10.5882349,   73.1343307
   1564,        13.75,   12.0588236,   73.1343307
   1565,        13.75,   13.5294113,   73.1343307
   1566,        13.75,          15.,   73.1343307
   1567,        13.75,         -10.,   71.6417923
   1568,        13.75,  -8.52941132,   71.6417923
   1569,        13.75,  -7.05882359,   71.6417923
   1570,        13.75,  -5.58823538,   71.6417923
   1571,        13.75,  -4.11764717,   71.6417923
   1572,        13.75,  -2.64705873,   71.6417923
   1573,        13.75,  -1.17647064,   71.6417923
   1574,        13.75,  0.294117659,   71.6417923
   1575,        13.75,    1.7647059,   71.6417923
   1576,        13.75,    3.2352941,   71.6417923
   1577,        13.75,   4.70588255,   71.6417923
   1578,        13.75,   6.17647076,   71.6417923
   1579,        13.75,   7.64705896,   71.6417923
   1580,        13.75,   9.11764717,   71.6417923
   1581,        13.75,   10.5882349,   71.6417923
   1582,        13.75,   12.0588236,   71.6417923
   1583,        13.75,   13.5294113,   71.6417923
   1584,        13.75,          15.,   71.6417923
   1585,        13.75,         -10.,   70.1492538
   1586,        13.75,  -8.52941132,   70.1492538
   1587,        13.75,  -7.05882359,   70.1492538
   1588,        13.75,  -5.58823538,   70.1492538
   1589,        13.75,  -4.11764717,   70.1492538
   1590,        13.75,  -2.64705873,   70.1492538
   1591,        13.75,  -1.17647064,   70.1492538
   1592,        13.75,  0.294117659,   70.1492538
   1593,        13.75,    1.7647059,   70.1492538
   1594,        13.75,    3.2352941,   70.1492538
   1595,        13.75,   4.70588255,   70.1492538
   1596,        13.75,   6.17647076,   70.1492538
   1597,        13.75,   7.64705896,   70.1492538
   1598,        13.75,   9.11764717,   70.1492538
   1599,        13.75,   10.5882349,   70.1492538
   1600,        13.75,   12.0588236,   70.1492538
   1601,        13.75,   13.5294113,   70.1492538
   1602,        13.75,          15.,   70.1492538
   1603,        13.75,         -10.,   68.6567154
   1604,        13.75,  -8.52941132,   68.6567154
   1605,        13.75,  -7.05882359,   68.6567154
   1606,        13.75,  -5.58823538,   68.6567154
   1607,        13.75,  -4.11764717,   68.6567154
   1608,        13.75,  -2.64705873,   68.6567154
   1609,        13.75,  -1.17647064,   68.6567154
   1610,        13.75,  0.294117659,   68.6567154
   1611,        13.75,    1.7647059,   68.6567154
   1612,        13.75,    3.2352941,   68.6567154
   1613,        13.75,   4.70588255,   68.6567154
   1614,        13.75,   6.17647076,   68.6567154
   1615,        13.75,   7.64705896,   68.6567154
   1616,        13.75,   9.11764717,   68.6567154
   1617,        13.75,   10.5882349,   68.6567154
   1618,        13.75,   12.0588236,   68.6567154
   1619,        13.75,   13.5294113,   68.6567154
   1620,        13.75,          15.,   68.6567154
   1621,        13.75,         -10.,   67.1641769
   1622,        13.75,  -8.52941132,   67.1641769
   1623,        13.75,  -7.05882359,   67.1641769
   1624,        13.75,  -5.58823538,   67.1641769
   1625,        13.75,  -4.11764717,   67.1641769
   1626,        13.75,  -2.64705873,   67.1641769
   1627,        13.75,  -1.17647064,   67.1641769
   1628,        13.75,  0.294117659,   67.1641769
   1629,        13.75,    1.7647059,   67.1641769
   1630,        13.75,    3.2352941,   67.1641769
   1631,        13.75,   4.70588255,   67.1641769
   1632,        13.75,   6.17647076,   67.1641769
   1633,        13.75,   7.64705896,   67.1641769
   1634,        13.75,   9.11764717,   67.1641769
   1635,        13.75,   10.5882349,   67.1641769
   1636,        13.75,   12.0588236,   67.1641769
   1637,        13.75,   13.5294113,   67.1641769
   1638,        13.75,          15.,   67.1641769
   1639,        13.75,         -10.,   65.6716385
   1640,        13.75,  -8.52941132,   65.6716385
   1641,        13.75,  -7.05882359,   65.6716385
   1642,        13.75,  -5.58823538,   65.6716385
   1643,        13.75,  -4.11764717,   65.6716385
   1644,        13.75,  -2.64705873,   65.6716385
   1645,        13.75,  -1.17647064,   65.6716385
   1646,        13.75,  0.294117659,   65.6716385
   1647,        13.75,    1.7647059,   65.6716385
   1648,        13.75,    3.2352941,   65.6716385
   1649,        13.75,   4.70588255,   65.6716385
   1650,        13.75,   6.17647076,   65.6716385
   1651,        13.75,   7.64705896,   65.6716385
   1652,        13.75,   9.11764717,   65.6716385
   1653,        13.75,   10.5882349,   65.6716385
   1654,        13.75,   12.0588236,   65.6716385
   1655,        13.75,   13.5294113,   65.6716385
   1656,        13.75,          15.,   65.6716385
   1657,        13.75,         -10.,   64.1791077
   1658,        13.75,  -8.52941132,   64.1791077
   1659,        13.75,  -7.05882359,   64.1791077
   1660,        13.75,  -5.58823538,   64.1791077
   1661,        13.75,  -4.11764717,   64.1791077
   1662,        13.75,  -2.64705873,   64.1791077
   1663,        13.75,  -1.17647064,   64.1791077
   1664,        13.75,  0.294117659,   64.1791077
   1665,        13.75,    1.7647059,   64.1791077
   1666,        13.75,    3.2352941,   64.1791077
   1667,        13.75,   4.70588255,   64.1791077
   1668,        13.75,   6.17647076,   64.1791077
   1669,        13.75,   7.64705896,   64.1791077
   1670,        13.75,   9.11764717,   64.1791077
   1671,        13.75,   10.5882349,   64.1791077
   1672,        13.75,   12.0588236,   64.1791077
   1673,        13.75,   13.5294113,   64.1791077
   1674,        13.75,          15.,   64.1791077
   1675,        13.75,         -10.,   62.6865654
   1676,        13.75,  -8.52941132,   62.6865654
   1677,        13.75,  -7.05882359,   62.6865654
   1678,        13.75,  -5.58823538,   62.6865654
   1679,        13.75,  -4.11764717,   62.6865654
   1680,        13.75,  -2.64705873,   62.6865654
   1681,        13.75,  -1.17647064,   62.6865654
   1682,        13.75,  0.294117659,   62.6865654
   1683,        13.75,    1.7647059,   62.6865654
   1684,        13.75,    3.2352941,   62.6865654
   1685,        13.75,   4.70588255,   62.6865654
   1686,        13.75,   6.17647076,   62.6865654
   1687,        13.75,   7.64705896,   62.6865654
   1688,        13.75,   9.11764717,   62.6865654
   1689,        13.75,   10.5882349,   62.6865654
   1690,        13.75,   12.0588236,   62.6865654
   1691,        13.75,   13.5294113,   62.6865654
   1692,        13.75,          15.,   62.6865654
   1693,        13.75,         -10.,   61.1940308
   1694,        13.75,  -8.52941132,   61.1940308
   1695,        13.75,  -7.05882359,   61.1940308
   1696,        13.75,  -5.58823538,   61.1940308
   1697,        13.75,  -4.11764717,   61.1940308
   1698,        13.75,  -2.64705873,   61.1940308
   1699,        13.75,  -1.17647064,   61.1940308
   1700,        13.75,  0.294117659,   61.1940308
   1701,        13.75,    1.7647059,   61.1940308
   1702,        13.75,    3.2352941,   61.1940308
   1703,        13.75,   4.70588255,   61.1940308
   1704,        13.75,   6.17647076,   61.1940308
   1705,        13.75,   7.64705896,   61.1940308
   1706,        13.75,   9.11764717,   61.1940308
   1707,        13.75,   10.5882349,   61.1940308
   1708,        13.75,   12.0588236,   61.1940308
   1709,        13.75,   13.5294113,   61.1940308
   1710,        13.75,          15.,   61.1940308
   1711,        13.75,         -10.,   59.7014923
   1712,        13.75,  -8.52941132,   59.7014923
   1713,        13.75,  -7.05882359,   59.7014923
   1714,        13.75,  -5.58823538,   59.7014923
   1715,        13.75,  -4.11764717,   59.7014923
   1716,        13.75,  -2.64705873,   59.7014923
   1717,        13.75,  -1.17647064,   59.7014923
   1718,        13.75,  0.294117659,   59.7014923
   1719,        13.75,    1.7647059,   59.7014923
   1720,        13.75,    3.2352941,   59.7014923
   1721,        13.75,   4.70588255,   59.7014923
   1722,        13.75,   6.17647076,   59.7014923
   1723,        13.75,   7.64705896,   59.7014923
   1724,        13.75,   9.11764717,   59.7014923
   1725,        13.75,   10.5882349,   59.7014923
   1726,        13.75,   12.0588236,   59.7014923
   1727,        13.75,   13.5294113,   59.7014923
   1728,        13.75,          15.,   59.7014923
   1729,        13.75,         -10.,   58.2089539
   1730,        13.75,  -8.52941132,   58.2089539
   1731,        13.75,  -7.05882359,   58.2089539
   1732,        13.75,  -5.58823538,   58.2089539
   1733,        13.75,  -4.11764717,   58.2089539
   1734,        13.75,  -2.64705873,   58.2089539
   1735,        13.75,  -1.17647064,   58.2089539
   1736,        13.75,  0.294117659,   58.2089539
   1737,        13.75,    1.7647059,   58.2089539
   1738,        13.75,    3.2352941,   58.2089539
   1739,        13.75,   4.70588255,   58.2089539
   1740,        13.75,   6.17647076,   58.2089539
   1741,        13.75,   7.64705896,   58.2089539
   1742,        13.75,   9.11764717,   58.2089539
   1743,        13.75,   10.5882349,   58.2089539
   1744,        13.75,   12.0588236,   58.2089539
   1745,        13.75,   13.5294113,   58.2089539
   1746,        13.75,          15.,   58.2089539
   1747,        13.75,         -10.,   56.7164192
   1748,        13.75,  -8.52941132,   56.7164192
   1749,        13.75,  -7.05882359,   56.7164192
   1750,        13.75,  -5.58823538,   56.7164192
   1751,        13.75,  -4.11764717,   56.7164192
   1752,        13.75,  -2.64705873,   56.7164192
   1753,        13.75,  -1.17647064,   56.7164192
   1754,        13.75,  0.294117659,   56.7164192
   1755,        13.75,    1.7647059,   56.7164192
   1756,        13.75,    3.2352941,   56.7164192
   1757,        13.75,   4.70588255,   56.7164192
   1758,        13.75,   6.17647076,   56.7164192
   1759,        13.75,   7.64705896,   56.7164192
   1760,        13.75,   9.11764717,   56.7164192
   1761,        13.75,   10.5882349,   56.7164192
   1762,        13.75,   12.0588236,   56.7164192
   1763,        13.75,   13.5294113,   56.7164192
   1764,        13.75,          15.,   56.7164192
   1765,        13.75,         -10.,   55.2238808
   1766,        13.75,  -8.52941132,   55.2238808
   1767,        13.75,  -7.05882359,   55.2238808
   1768,        13.75,  -5.58823538,   55.2238808
   1769,        13.75,  -4.11764717,   55.2238808
   1770,        13.75,  -2.64705873,   55.2238808
   1771,        13.75,  -1.17647064,   55.2238808
   1772,        13.75,  0.294117659,   55.2238808
   1773,        13.75,    1.7647059,   55.2238808
   1774,        13.75,    3.2352941,   55.2238808
   1775,        13.75,   4.70588255,   55.2238808
   1776,        13.75,   6.17647076,   55.2238808
   1777,        13.75,   7.64705896,   55.2238808
   1778,        13.75,   9.11764717,   55.2238808
   1779,        13.75,   10.5882349,   55.2238808
   1780,        13.75,   12.0588236,   55.2238808
   1781,        13.75,   13.5294113,   55.2238808
   1782,        13.75,          15.,   55.2238808
   1783,        13.75,         -10.,   53.7313423
   1784,        13.75,  -8.52941132,   53.7313423
   1785,        13.75,  -7.05882359,   53.7313423
   1786,        13.75,  -5.58823538,   53.7313423
   1787,        13.75,  -4.11764717,   53.7313423
   1788,        13.75,  -2.64705873,   53.7313423
   1789,        13.75,  -1.17647064,   53.7313423
   1790,        13.75,  0.294117659,   53.7313423
   1791,        13.75,    1.7647059,   53.7313423
   1792,        13.75,    3.2352941,   53.7313423
   1793,        13.75,   4.70588255,   53.7313423
   1794,        13.75,   6.17647076,   53.7313423
   1795,        13.75,   7.64705896,   53.7313423
   1796,        13.75,   9.11764717,   53.7313423
   1797,        13.75,   10.5882349,   53.7313423
   1798,        13.75,   12.0588236,   53.7313423
   1799,        13.75,   13.5294113,   53.7313423
   1800,        13.75,          15.,   53.7313423
   1801,        13.75,         -10.,   52.2388077
   1802,        13.75,  -8.52941132,   52.2388077
   1803,        13.75,  -7.05882359,   52.2388077
   1804,        13.75,  -5.58823538,   52.2388077
   1805,        13.75,  -4.11764717,   52.2388077
   1806,        13.75,  -2.64705873,   52.2388077
   1807,        13.75,  -1.17647064,   52.2388077
   1808,        13.75,  0.294117659,   52.2388077
   1809,        13.75,    1.7647059,   52.2388077
   1810,        13.75,    3.2352941,   52.2388077
   1811,        13.75,   4.70588255,   52.2388077
   1812,        13.75,   6.17647076,   52.2388077
   1813,        13.75,   7.64705896,   52.2388077
   1814,        13.75,   9.11764717,   52.2388077
   1815,        13.75,   10.5882349,   52.2388077
   1816,        13.75,   12.0588236,   52.2388077
   1817,        13.75,   13.5294113,   52.2388077
   1818,        13.75,          15.,   52.2388077
   1819,        13.75,         -10.,   50.7462692
   1820,        13.75,  -8.52941132,   50.7462692
   1821,        13.75,  -7.05882359,   50.7462692
   1822,        13.75,  -5.58823538,   50.7462692
   1823,        13.75,  -4.11764717,   50.7462692
   1824,        13.75,  -2.64705873,   50.7462692
   1825,        13.75,  -1.17647064,   50.7462692
   1826,        13.75,  0.294117659,   50.7462692
   1827,        13.75,    1.7647059,   50.7462692
   1828,        13.75,    3.2352941,   50.7462692
   1829,        13.75,   4.70588255,   50.7462692
   1830,        13.75,   6.17647076,   50.7462692
   1831,        13.75,   7.64705896,   50.7462692
   1832,        13.75,   9.11764717,   50.7462692
   1833,        13.75,   10.5882349,   50.7462692
   1834,        13.75,   12.0588236,   50.7462692
   1835,        13.75,   13.5294113,   50.7462692
   1836,        13.75,          15.,   50.7462692
   1837,        13.75,         -10.,   49.2537308
   1838,        13.75,  -8.52941132,   49.2537308
   1839,        13.75,  -7.05882359,   49.2537308
   1840,        13.75,  -5.58823538,   49.2537308
   1841,        13.75,  -4.11764717,   49.2537308
   1842,        13.75,  -2.64705873,   49.2537308
   1843,        13.75,  -1.17647064,   49.2537308
   1844,        13.75,  0.294117659,   49.2537308
   1845,        13.75,    1.7647059,   49.2537308
   1846,        13.75,    3.2352941,   49.2537308
   1847,        13.75,   4.70588255,   49.2537308
   1848,        13.75,   6.17647076,   49.2537308
   1849,        13.75,   7.64705896,   49.2537308
   1850,        13.75,   9.11764717,   49.2537308
   1851,        13.75,   10.5882349,   49.2537308
   1852,        13.75,   12.0588236,   49.2537308
   1853,        13.75,   13.5294113,   49.2537308
   1854,        13.75,          15.,   49.2537308
   1855,        13.75,         -10.,   47.7611923
   1856,        13.75,  -8.52941132,   47.7611923
   1857,        13.75,  -7.05882359,   47.7611923
   1858,        13.75,  -5.58823538,   47.7611923
   1859,        13.75,  -4.11764717,   47.7611923
   1860,        13.75,  -2.64705873,   47.7611923
   1861,        13.75,  -1.17647064,   47.7611923
   1862,        13.75,  0.294117659,   47.7611923
   1863,        13.75,    1.7647059,   47.7611923
   1864,        13.75,    3.2352941,   47.7611923
   1865,        13.75,   4.70588255,   47.7611923
   1866,        13.75,   6.17647076,   47.7611923
   1867,        13.75,   7.64705896,   47.7611923
   1868,        13.75,   9.11764717,   47.7611923
   1869,        13.75,   10.5882349,   47.7611923
   1870,        13.75,   12.0588236,   47.7611923
   1871,        13.75,   13.5294113,   47.7611923
   1872,        13.75,          15.,   47.7611923
   1873,        13.75,         -10.,   46.2686577
   1874,        13.75,  -8.52941132,   46.2686577
   1875,        13.75,  -7.05882359,   46.2686577
   1876,        13.75,  -5.58823538,   46.2686577
   1877,        13.75,  -4.11764717,   46.2686577
   1878,        13.75,  -2.64705873,   46.2686577
   1879,        13.75,  -1.17647064,   46.2686577
   1880,        13.75,  0.294117659,   46.2686577
   1881,        13.75,    1.7647059,   46.2686577
   1882,        13.75,    3.2352941,   46.2686577
   1883,        13.75,   4.70588255,   46.2686577
   1884,        13.75,   6.17647076,   46.2686577
   1885,        13.75,   7.64705896,   46.2686577
   1886,        13.75,   9.11764717,   46.2686577
   1887,        13.75,   10.5882349,   46.2686577
   1888,        13.75,   12.0588236,   46.2686577
   1889,        13.75,   13.5294113,   46.2686577
   1890,        13.75,          15.,   46.2686577
   1891,        13.75,         -10.,   44.7761192
   1892,        13.75,  -8.52941132,   44.7761192
   1893,        13.75,  -7.05882359,   44.7761192
   1894,        13.75,  -5.58823538,   44.7761192
   1895,        13.75,  -4.11764717,   44.7761192
   1896,        13.75,  -2.64705873,   44.7761192
   1897,        13.75,  -1.17647064,   44.7761192
   1898,        13.75,  0.294117659,   44.7761192
   1899,        13.75,    1.7647059,   44.7761192
   1900,        13.75,    3.2352941,   44.7761192
   1901,        13.75,   4.70588255,   44.7761192
   1902,        13.75,   6.17647076,   44.7761192
   1903,        13.75,   7.64705896,   44.7761192
   1904,        13.75,   9.11764717,   44.7761192
   1905,        13.75,   10.5882349,   44.7761192
   1906,        13.75,   12.0588236,   44.7761192
   1907,        13.75,   13.5294113,   44.7761192
   1908,        13.75,          15.,   44.7761192
   1909,        13.75,         -10.,   43.2835808
   1910,        13.75,  -8.52941132,   43.2835808
   1911,        13.75,  -7.05882359,   43.2835808
   1912,        13.75,  -5.58823538,   43.2835808
   1913,        13.75,  -4.11764717,   43.2835808
   1914,        13.75,  -2.64705873,   43.2835808
   1915,        13.75,  -1.17647064,   43.2835808
   1916,        13.75,  0.294117659,   43.2835808
   1917,        13.75,    1.7647059,   43.2835808
   1918,        13.75,    3.2352941,   43.2835808
   1919,        13.75,   4.70588255,   43.2835808
   1920,        13.75,   6.17647076,   43.2835808
   1921,        13.75,   7.64705896,   43.2835808
   1922,        13.75,   9.11764717,   43.2835808
   1923,        13.75,   10.5882349,   43.2835808
   1924,        13.75,   12.0588236,   43.2835808
   1925,        13.75,   13.5294113,   43.2835808
   1926,        13.75,          15.,   43.2835808
   1927,        13.75,         -10.,   41.7910461
   1928,        13.75,  -8.52941132,   41.7910461
   1929,        13.75,  -7.05882359,   41.7910461
   1930,        13.75,  -5.58823538,   41.7910461
   1931,        13.75,  -4.11764717,   41.7910461
   1932,        13.75,  -2.64705873,   41.7910461
   1933,        13.75,  -1.17647064,   41.7910461
   1934,        13.75,  0.294117659,   41.7910461
   1935,        13.75,    1.7647059,   41.7910461
   1936,        13.75,    3.2352941,   41.7910461
   1937,        13.75,   4.70588255,   41.7910461
   1938,        13.75,   6.17647076,   41.7910461
   1939,        13.75,   7.64705896,   41.7910461
   1940,        13.75,   9.11764717,   41.7910461
   1941,        13.75,   10.5882349,   41.7910461
   1942,        13.75,   12.0588236,   41.7910461
   1943,        13.75,   13.5294113,   41.7910461
   1944,        13.75,          15.,   41.7910461
   1945,        13.75,         -10.,   40.2985077
   1946,        13.75,  -8.52941132,   40.2985077
   1947,        13.75,  -7.05882359,   40.2985077
   1948,        13.75,  -5.58823538,   40.2985077
   1949,        13.75,  -4.11764717,   40.2985077
   1950,        13.75,  -2.64705873,   40.2985077
   1951,        13.75,  -1.17647064,   40.2985077
   1952,        13.75,  0.294117659,   40.2985077
   1953,        13.75,    1.7647059,   40.2985077
   1954,        13.75,    3.2352941,   40.2985077
   1955,        13.75,   4.70588255,   40.2985077
   1956,        13.75,   6.17647076,   40.2985077
   1957,        13.75,   7.64705896,   40.2985077
   1958,        13.75,   9.11764717,   40.2985077
   1959,        13.75,   10.5882349,   40.2985077
   1960,        13.75,   12.0588236,   40.2985077
   1961,        13.75,   13.5294113,   40.2985077
   1962,        13.75,          15.,   40.2985077
   1963,        13.75,         -10.,   38.8059692
   1964,        13.75,  -8.52941132,   38.8059692
   1965,        13.75,  -7.05882359,   38.8059692
   1966,        13.75,  -5.58823538,   38.8059692
   1967,        13.75,  -4.11764717,   38.8059692
   1968,        13.75,  -2.64705873,   38.8059692
   1969,        13.75,  -1.17647064,   38.8059692
   1970,        13.75,  0.294117659,   38.8059692
   1971,        13.75,    1.7647059,   38.8059692
   1972,        13.75,    3.2352941,   38.8059692
   1973,        13.75,   4.70588255,   38.8059692
   1974,        13.75,   6.17647076,   38.8059692
   1975,        13.75,   7.64705896,   38.8059692
   1976,        13.75,   9.11764717,   38.8059692
   1977,        13.75,   10.5882349,   38.8059692
   1978,        13.75,   12.0588236,   38.8059692
   1979,        13.75,   13.5294113,   38.8059692
   1980,        13.75,          15.,   38.8059692
   1981,        13.75,         -10.,   37.3134346
   1982,        13.75,  -8.52941132,   37.3134346
   1983,        13.75,  -7.05882359,   37.3134346
   1984,        13.75,  -5.58823538,   37.3134346
   1985,        13.75,  -4.11764717,   37.3134346
   1986,        13.75,  -2.64705873,   37.3134346
   1987,        13.75,  -1.17647064,   37.3134346
   1988,        13.75,  0.294117659,   37.3134346
   1989,        13.75,    1.7647059,   37.3134346
   1990,        13.75,    3.2352941,   37.3134346
   1991,        13.75,   4.70588255,   37.3134346
   1992,        13.75,   6.17647076,   37.3134346
   1993,        13.75,   7.64705896,   37.3134346
   1994,        13.75,   9.11764717,   37.3134346
   1995,        13.75,   10.5882349,   37.3134346
   1996,        13.75,   12.0588236,   37.3134346
   1997,        13.75,   13.5294113,   37.3134346
   1998,        13.75,          15.,   37.3134346
   1999,        13.75,         -10.,   35.8208961
   2000,        13.75,  -8.52941132,   35.8208961
   2001,        13.75,  -7.05882359,   35.8208961
   2002,        13.75,  -5.58823538,   35.8208961
   2003,        13.75,  -4.11764717,   35.8208961
   2004,        13.75,  -2.64705873,   35.8208961
   2005,        13.75,  -1.17647064,   35.8208961
   2006,        13.75,  0.294117659,   35.8208961
   2007,        13.75,    1.7647059,   35.8208961
   2008,        13.75,    3.2352941,   35.8208961
   2009,        13.75,   4.70588255,   35.8208961
   2010,        13.75,   6.17647076,   35.8208961
   2011,        13.75,   7.64705896,   35.8208961
   2012,        13.75,   9.11764717,   35.8208961
   2013,        13.75,   10.5882349,   35.8208961
   2014,        13.75,   12.0588236,   35.8208961
   2015,        13.75,   13.5294113,   35.8208961
   2016,        13.75,          15.,   35.8208961
   2017,        13.75,         -10.,   34.3283577
   2018,        13.75,  -8.52941132,   34.3283577
   2019,        13.75,  -7.05882359,   34.3283577
   2020,        13.75,  -5.58823538,   34.3283577
   2021,        13.75,  -4.11764717,   34.3283577
   2022,        13.75,  -2.64705873,   34.3283577
   2023,        13.75,  -1.17647064,   34.3283577
   2024,        13.75,  0.294117659,   34.3283577
   2025,        13.75,    1.7647059,   34.3283577
   2026,        13.75,    3.2352941,   34.3283577
   2027,        13.75,   4.70588255,   34.3283577
   2028,        13.75,   6.17647076,   34.3283577
   2029,        13.75,   7.64705896,   34.3283577
   2030,        13.75,   9.11764717,   34.3283577
   2031,        13.75,   10.5882349,   34.3283577
   2032,        13.75,   12.0588236,   34.3283577
   2033,        13.75,   13.5294113,   34.3283577
   2034,        13.75,          15.,   34.3283577
   2035,        13.75,         -10.,   32.8358192
   2036,        13.75,  -8.52941132,   32.8358192
   2037,        13.75,  -7.05882359,   32.8358192
   2038,        13.75,  -5.58823538,   32.8358192
   2039,        13.75,  -4.11764717,   32.8358192
   2040,        13.75,  -2.64705873,   32.8358192
   2041,        13.75,  -1.17647064,   32.8358192
   2042,        13.75,  0.294117659,   32.8358192
   2043,        13.75,    1.7647059,   32.8358192
   2044,        13.75,    3.2352941,   32.8358192
   2045,        13.75,   4.70588255,   32.8358192
   2046,        13.75,   6.17647076,   32.8358192
   2047,        13.75,   7.64705896,   32.8358192
   2048,        13.75,   9.11764717,   32.8358192
   2049,        13.75,   10.5882349,   32.8358192
   2050,        13.75,   12.0588236,   32.8358192
   2051,        13.75,   13.5294113,   32.8358192
   2052,        13.75,          15.,   32.8358192
   2053,        13.75,         -10.,   31.3432827
   2054,        13.75,  -8.52941132,   31.3432827
   2055,        13.75,  -7.05882359,   31.3432827
   2056,        13.75,  -5.58823538,   31.3432827
   2057,        13.75,  -4.11764717,   31.3432827
   2058,        13.75,  -2.64705873,   31.3432827
   2059,        13.75,  -1.17647064,   31.3432827
   2060,        13.75,  0.294117659,   31.3432827
   2061,        13.75,    1.7647059,   31.3432827
   2062,        13.75,    3.2352941,   31.3432827
   2063,        13.75,   4.70588255,   31.3432827
   2064,        13.75,   6.17647076,   31.3432827
   2065,        13.75,   7.64705896,   31.3432827
   2066,        13.75,   9.11764717,   31.3432827
   2067,        13.75,   10.5882349,   31.3432827
   2068,        13.75,   12.0588236,   31.3432827
   2069,        13.75,   13.5294113,   31.3432827
   2070,        13.75,          15.,   31.3432827
   2071,        13.75,         -10.,   29.8507462
   2072,        13.75,  -8.52941132,   29.8507462
   2073,        13.75,  -7.05882359,   29.8507462
   2074,        13.75,  -5.58823538,   29.8507462
   2075,        13.75,  -4.11764717,   29.8507462
   2076,        13.75,  -2.64705873,   29.8507462
   2077,        13.75,  -1.17647064,   29.8507462
   2078,        13.75,  0.294117659,   29.8507462
   2079,        13.75,    1.7647059,   29.8507462
   2080,        13.75,    3.2352941,   29.8507462
   2081,        13.75,   4.70588255,   29.8507462
   2082,        13.75,   6.17647076,   29.8507462
   2083,        13.75,   7.64705896,   29.8507462
   2084,        13.75,   9.11764717,   29.8507462
   2085,        13.75,   10.5882349,   29.8507462
   2086,        13.75,   12.0588236,   29.8507462
   2087,        13.75,   13.5294113,   29.8507462
   2088,        13.75,          15.,   29.8507462
   2089,        13.75,         -10.,   28.3582096
   2090,        13.75,  -8.52941132,   28.3582096
   2091,        13.75,  -7.05882359,   28.3582096
   2092,        13.75,  -5.58823538,   28.3582096
   2093,        13.75,  -4.11764717,   28.3582096
   2094,        13.75,  -2.64705873,   28.3582096
   2095,        13.75,  -1.17647064,   28.3582096
   2096,        13.75,  0.294117659,   28.3582096
   2097,        13.75,    1.7647059,   28.3582096
   2098,        13.75,    3.2352941,   28.3582096
   2099,        13.75,   4.70588255,   28.3582096
   2100,        13.75,   6.17647076,   28.3582096
   2101,        13.75,   7.64705896,   28.3582096
   2102,        13.75,   9.11764717,   28.3582096
   2103,        13.75,   10.5882349,   28.3582096
   2104,        13.75,   12.0588236,   28.3582096
   2105,        13.75,   13.5294113,   28.3582096
   2106,        13.75,          15.,   28.3582096
   2107,        13.75,         -10.,   26.8656712
   2108,        13.75,  -8.52941132,   26.8656712
   2109,        13.75,  -7.05882359,   26.8656712
   2110,        13.75,  -5.58823538,   26.8656712
   2111,        13.75,  -4.11764717,   26.8656712
   2112,        13.75,  -2.64705873,   26.8656712
   2113,        13.75,  -1.17647064,   26.8656712
   2114,        13.75,  0.294117659,   26.8656712
   2115,        13.75,    1.7647059,   26.8656712
   2116,        13.75,    3.2352941,   26.8656712
   2117,        13.75,   4.70588255,   26.8656712
   2118,        13.75,   6.17647076,   26.8656712
   2119,        13.75,   7.64705896,   26.8656712
   2120,        13.75,   9.11764717,   26.8656712
   2121,        13.75,   10.5882349,   26.8656712
   2122,        13.75,   12.0588236,   26.8656712
   2123,        13.75,   13.5294113,   26.8656712
   2124,        13.75,          15.,   26.8656712
   2125,        13.75,         -10.,   25.3731346
   2126,        13.75,  -8.52941132,   25.3731346
   2127,        13.75,  -7.05882359,   25.3731346
   2128,        13.75,  -5.58823538,   25.3731346
   2129,        13.75,  -4.11764717,   25.3731346
   2130,        13.75,  -2.64705873,   25.3731346
   2131,        13.75,  -1.17647064,   25.3731346
   2132,        13.75,  0.294117659,   25.3731346
   2133,        13.75,    1.7647059,   25.3731346
   2134,        13.75,    3.2352941,   25.3731346
   2135,        13.75,   4.70588255,   25.3731346
   2136,        13.75,   6.17647076,   25.3731346
   2137,        13.75,   7.64705896,   25.3731346
   2138,        13.75,   9.11764717,   25.3731346
   2139,        13.75,   10.5882349,   25.3731346
   2140,        13.75,   12.0588236,   25.3731346
   2141,        13.75,   13.5294113,   25.3731346
   2142,        13.75,          15.,   25.3731346
   2143,        13.75,         -10.,   23.8805962
   2144,        13.75,  -8.52941132,   23.8805962
   2145,        13.75,  -7.05882359,   23.8805962
   2146,        13.75,  -5.58823538,   23.8805962
   2147,        13.75,  -4.11764717,   23.8805962
   2148,        13.75,  -2.64705873,   23.8805962
   2149,        13.75,  -1.17647064,   23.8805962
   2150,        13.75,  0.294117659,   23.8805962
   2151,        13.75,    1.7647059,   23.8805962
   2152,        13.75,    3.2352941,   23.8805962
   2153,        13.75,   4.70588255,   23.8805962
   2154,        13.75,   6.17647076,   23.8805962
   2155,        13.75,   7.64705896,   23.8805962
   2156,        13.75,   9.11764717,   23.8805962
   2157,        13.75,   10.5882349,   23.8805962
   2158,        13.75,   12.0588236,   23.8805962
   2159,        13.75,   13.5294113,   23.8805962
   2160,        13.75,          15.,   23.8805962
   2161,        13.75,         -10.,   22.3880596
   2162,        13.75,  -8.52941132,   22.3880596
   2163,        13.75,  -7.05882359,   22.3880596
   2164,        13.75,  -5.58823538,   22.3880596
   2165,        13.75,  -4.11764717,   22.3880596
   2166,        13.75,  -2.64705873,   22.3880596
   2167,        13.75,  -1.17647064,   22.3880596
   2168,        13.75,  0.294117659,   22.3880596
   2169,        13.75,    1.7647059,   22.3880596
   2170,        13.75,    3.2352941,   22.3880596
   2171,        13.75,   4.70588255,   22.3880596
   2172,        13.75,   6.17647076,   22.3880596
   2173,        13.75,   7.64705896,   22.3880596
   2174,        13.75,   9.11764717,   22.3880596
   2175,        13.75,   10.5882349,   22.3880596
   2176,        13.75,   12.0588236,   22.3880596
   2177,        13.75,   13.5294113,   22.3880596
   2178,        13.75,          15.,   22.3880596
   2179,        13.75,         -10.,   20.8955231
   2180,        13.75,  -8.52941132,   20.8955231
   2181,        13.75,  -7.05882359,   20.8955231
   2182,        13.75,  -5.58823538,   20.8955231
   2183,        13.75,  -4.11764717,   20.8955231
   2184,        13.75,  -2.64705873,   20.8955231
   2185,        13.75,  -1.17647064,   20.8955231
   2186,        13.75,  0.294117659,   20.8955231
   2187,        13.75,    1.7647059,   20.8955231
   2188,        13.75,    3.2352941,   20.8955231
   2189,        13.75,   4.70588255,   20.8955231
   2190,        13.75,   6.17647076,   20.8955231
   2191,        13.75,   7.64705896,   20.8955231
   2192,        13.75,   9.11764717,   20.8955231
   2193,        13.75,   10.5882349,   20.8955231
   2194,        13.75,   12.0588236,   20.8955231
   2195,        13.75,   13.5294113,   20.8955231
   2196,        13.75,          15.,   20.8955231
   2197,        13.75,         -10.,   19.4029846
   2198,        13.75,  -8.52941132,   19.4029846
   2199,        13.75,  -7.05882359,   19.4029846
   2200,        13.75,  -5.58823538,   19.4029846
   2201,        13.75,  -4.11764717,   19.4029846
   2202,        13.75,  -2.64705873,   19.4029846
   2203,        13.75,  -1.17647064,   19.4029846
   2204,        13.75,  0.294117659,   19.4029846
   2205,        13.75,    1.7647059,   19.4029846
   2206,        13.75,    3.2352941,   19.4029846
   2207,        13.75,   4.70588255,   19.4029846
   2208,        13.75,   6.17647076,   19.4029846
   2209,        13.75,   7.64705896,   19.4029846
   2210,        13.75,   9.11764717,   19.4029846
   2211,        13.75,   10.5882349,   19.4029846
   2212,        13.75,   12.0588236,   19.4029846
   2213,        13.75,   13.5294113,   19.4029846
   2214,        13.75,          15.,   19.4029846
   2215,        13.75,         -10.,   17.9104481
   2216,        13.75,  -8.52941132,   17.9104481
   2217,        13.75,  -7.05882359,   17.9104481
   2218,        13.75,  -5.58823538,   17.9104481
   2219,        13.75,  -4.11764717,   17.9104481
   2220,        13.75,  -2.64705873,   17.9104481
   2221,        13.75,  -1.17647064,   17.9104481
   2222,        13.75,  0.294117659,   17.9104481
   2223,        13.75,    1.7647059,   17.9104481
   2224,        13.75,    3.2352941,   17.9104481
   2225,        13.75,   4.70588255,   17.9104481
   2226,        13.75,   6.17647076,   17.9104481
   2227,        13.75,   7.64705896,   17.9104481
   2228,        13.75,   9.11764717,   17.9104481
   2229,        13.75,   10.5882349,   17.9104481
   2230,        13.75,   12.0588236,   17.9104481
   2231,        13.75,   13.5294113,   17.9104481
   2232,        13.75,          15.,   17.9104481
   2233,        13.75,         -10.,   16.4179096
   2234,        13.75,  -8.52941132,   16.4179096
   2235,        13.75,  -7.05882359,   16.4179096
   2236,        13.75,  -5.58823538,   16.4179096
   2237,        13.75,  -4.11764717,   16.4179096
   2238,        13.75,  -2.64705873,   16.4179096
   2239,        13.75,  -1.17647064,   16.4179096
   2240,        13.75,  0.294117659,   16.4179096
   2241,        13.75,    1.7647059,   16.4179096
   2242,        13.75,    3.2352941,   16.4179096
   2243,        13.75,   4.70588255,   16.4179096
   2244,        13.75,   6.17647076,   16.4179096
   2245,        13.75,   7.64705896,   16.4179096
   2246,        13.75,   9.11764717,   16.4179096
   2247,        13.75,   10.5882349,   16.4179096
   2248,        13.75,   12.0588236,   16.4179096
   2249,        13.75,   13.5294113,   16.4179096
   2250,        13.75,          15.,   16.4179096
   2251,        13.75,         -10.,   14.9253731
   2252,        13.75,  -8.52941132,   14.9253731
   2253,        13.75,  -7.05882359,   14.9253731
   2254,        13.75,  -5.58823538,   14.9253731
   2255,        13.75,  -4.11764717,   14.9253731
   2256,        13.75,  -2.64705873,   14.9253731
   2257,        13.75,  -1.17647064,   14.9253731
   2258,        13.75,  0.294117659,   14.9253731
   2259,        13.75,    1.7647059,   14.9253731
   2260,        13.75,    3.2352941,   14.9253731
   2261,        13.75,   4.70588255,   14.9253731
   2262,        13.75,   6.17647076,   14.9253731
   2263,        13.75,   7.64705896,   14.9253731
   2264,        13.75,   9.11764717,   14.9253731
   2265,        13.75,   10.5882349,   14.9253731
   2266,        13.75,   12.0588236,   14.9253731
   2267,        13.75,   13.5294113,   14.9253731
   2268,        13.75,          15.,   14.9253731
   2269,        13.75,         -10.,   13.4328356
   2270,        13.75,  -8.52941132,   13.4328356
   2271,        13.75,  -7.05882359,   13.4328356
   2272,        13.75,  -5.58823538,   13.4328356
   2273,        13.75,  -4.11764717,   13.4328356
   2274,        13.75,  -2.64705873,   13.4328356
   2275,        13.75,  -1.17647064,   13.4328356
   2276,        13.75,  0.294117659,   13.4328356
   2277,        13.75,    1.7647059,   13.4328356
   2278,        13.75,    3.2352941,   13.4328356
   2279,        13.75,   4.70588255,   13.4328356
   2280,        13.75,   6.17647076,   13.4328356
   2281,        13.75,   7.64705896,   13.4328356
   2282,        13.75,   9.11764717,   13.4328356
   2283,        13.75,   10.5882349,   13.4328356
   2284,        13.75,   12.0588236,   13.4328356
   2285,        13.75,   13.5294113,   13.4328356
   2286,        13.75,          15.,   13.4328356
   2287,        13.75,         -10.,   11.9402981
   2288,        13.75,  -8.52941132,   11.9402981
   2289,        13.75,  -7.05882359,   11.9402981
   2290,        13.75,  -5.58823538,   11.9402981
   2291,        13.75,  -4.11764717,   11.9402981
   2292,        13.75,  -2.64705873,   11.9402981
   2293,        13.75,  -1.17647064,   11.9402981
   2294,        13.75,  0.294117659,   11.9402981
   2295,        13.75,    1.7647059,   11.9402981
   2296,        13.75,    3.2352941,   11.9402981
   2297,        13.75,   4.70588255,   11.9402981
   2298,        13.75,   6.17647076,   11.9402981
   2299,        13.75,   7.64705896,   11.9402981
   2300,        13.75,   9.11764717,   11.9402981
   2301,        13.75,   10.5882349,   11.9402981
   2302,        13.75,   12.0588236,   11.9402981
   2303,        13.75,   13.5294113,   11.9402981
   2304,        13.75,          15.,   11.9402981
   2305,        13.75,         -10.,   10.4477615
   2306,        13.75,  -8.52941132,   10.4477615
   2307,        13.75,  -7.05882359,   10.4477615
   2308,        13.75,  -5.58823538,   10.4477615
   2309,        13.75,  -4.11764717,   10.4477615
   2310,        13.75,  -2.64705873,   10.4477615
   2311,        13.75,  -1.17647064,   10.4477615
   2312,        13.75,  0.294117659,   10.4477615
   2313,        13.75,    1.7647059,   10.4477615
   2314,        13.75,    3.2352941,   10.4477615
   2315,        13.75,   4.70588255,   10.4477615
   2316,        13.75,   6.17647076,   10.4477615
   2317,        13.75,   7.64705896,   10.4477615
   2318,        13.75,   9.11764717,   10.4477615
   2319,        13.75,   10.5882349,   10.4477615
   2320,        13.75,   12.0588236,   10.4477615
   2321,        13.75,   13.5294113,   10.4477615
   2322,        13.75,          15.,   10.4477615
   2323,        13.75,         -10.,   8.95522404
   2324,        13.75,  -8.52941132,   8.95522404
   2325,        13.75,  -7.05882359,   8.95522404
   2326,        13.75,  -5.58823538,   8.95522404
   2327,        13.75,  -4.11764717,   8.95522404
   2328,        13.75,  -2.64705873,   8.95522404
   2329,        13.75,  -1.17647064,   8.95522404
   2330,        13.75,  0.294117659,   8.95522404
   2331,        13.75,    1.7647059,   8.95522404
   2332,        13.75,    3.2352941,   8.95522404
   2333,        13.75,   4.70588255,   8.95522404
   2334,        13.75,   6.17647076,   8.95522404
   2335,        13.75,   7.64705896,   8.95522404
   2336,        13.75,   9.11764717,   8.95522404
   2337,        13.75,   10.5882349,   8.95522404
   2338,        13.75,   12.0588236,   8.95522404
   2339,        13.75,   13.5294113,   8.95522404
   2340,        13.75,          15.,   8.95522404
   2341,        13.75,         -10.,   7.46268654
   2342,        13.75,  -8.52941132,   7.46268654
   2343,        13.75,  -7.05882359,   7.46268654
   2344,        13.75,  -5.58823538,   7.46268654
   2345,        13.75,  -4.11764717,   7.46268654
   2346,        13.75,  -2.64705873,   7.46268654
   2347,        13.75,  -1.17647064,   7.46268654
   2348,        13.75,  0.294117659,   7.46268654
   2349,        13.75,    1.7647059,   7.46268654
   2350,        13.75,    3.2352941,   7.46268654
   2351,        13.75,   4.70588255,   7.46268654
   2352,        13.75,   6.17647076,   7.46268654
   2353,        13.75,   7.64705896,   7.46268654
   2354,        13.75,   9.11764717,   7.46268654
   2355,        13.75,   10.5882349,   7.46268654
   2356,        13.75,   12.0588236,   7.46268654
   2357,        13.75,   13.5294113,   7.46268654
   2358,        13.75,          15.,   7.46268654
   2359,        13.75,         -10.,   5.97014904
   2360,        13.75,  -8.52941132,   5.97014904
   2361,        13.75,  -7.05882359,   5.97014904
   2362,        13.75,  -5.58823538,   5.97014904
   2363,        13.75,  -4.11764717,   5.97014904
   2364,        13.75,  -2.64705873,   5.97014904
   2365,        13.75,  -1.17647064,   5.97014904
   2366,        13.75,  0.294117659,   5.97014904
   2367,        13.75,    1.7647059,   5.97014904
   2368,        13.75,    3.2352941,   5.97014904
   2369,        13.75,   4.70588255,   5.97014904
   2370,        13.75,   6.17647076,   5.97014904
   2371,        13.75,   7.64705896,   5.97014904
   2372,        13.75,   9.11764717,   5.97014904
   2373,        13.75,   10.5882349,   5.97014904
   2374,        13.75,   12.0588236,   5.97014904
   2375,        13.75,   13.5294113,   5.97014904
   2376,        13.75,          15.,   5.97014904
   2377,        13.75,         -10.,   4.47761202
   2378,        13.75,  -8.52941132,   4.47761202
   2379,        13.75,  -7.05882359,   4.47761202
   2380,        13.75,  -5.58823538,   4.47761202
   2381,        13.75,  -4.11764717,   4.47761202
   2382,        13.75,  -2.64705873,   4.47761202
   2383,        13.75,  -1.17647064,   4.47761202
   2384,        13.75,  0.294117659,   4.47761202
   2385,        13.75,    1.7647059,   4.47761202
   2386,        13.75,    3.2352941,   4.47761202
   2387,        13.75,   4.70588255,   4.47761202
   2388,        13.75,   6.17647076,   4.47761202
   2389,        13.75,   7.64705896,   4.47761202
   2390,        13.75,   9.11764717,   4.47761202
   2391,        13.75,   10.5882349,   4.47761202
   2392,        13.75,   12.0588236,   4.47761202
   2393,        13.75,   13.5294113,   4.47761202
   2394,        13.75,          15.,   4.47761202
   2395,        13.75,         -10.,   2.98507452
   2396,        13.75,  -8.52941132,   2.98507452
   2397,        13.75,  -7.05882359,   2.98507452
   2398,        13.75,  -5.58823538,   2.98507452
   2399,        13.75,  -4.11764717,   2.98507452
   2400,        13.75,  -2.64705873,   2.98507452
   2401,        13.75,  -1.17647064,   2.98507452
   2402,        13.75,  0.294117659,   2.98507452
   2403,        13.75,    1.7647059,   2.98507452
   2404,        13.75,    3.2352941,   2.98507452
   2405,        13.75,   4.70588255,   2.98507452
   2406,        13.75,   6.17647076,   2.98507452
   2407,        13.75,   7.64705896,   2.98507452
   2408,        13.75,   9.11764717,   2.98507452
   2409,        13.75,   10.5882349,   2.98507452
   2410,        13.75,   12.0588236,   2.98507452
   2411,        13.75,   13.5294113,   2.98507452
   2412,        13.75,          15.,   2.98507452
   2413,        13.75,         -10.,   1.49253726
   2414,        13.75,  -8.52941132,   1.49253726
   2415,        13.75,  -7.05882359,   1.49253726
   2416,        13.75,  -5.58823538,   1.49253726
   2417,        13.75,  -4.11764717,   1.49253726
   2418,        13.75,  -2.64705873,   1.49253726
   2419,        13.75,  -1.17647064,   1.49253726
   2420,        13.75,  0.294117659,   1.49253726
   2421,        13.75,    1.7647059,   1.49253726
   2422,        13.75,    3.2352941,   1.49253726
   2423,        13.75,   4.70588255,   1.49253726
   2424,        13.75,   6.17647076,   1.49253726
   2425,        13.75,   7.64705896,   1.49253726
   2426,        13.75,   9.11764717,   1.49253726
   2427,        13.75,   10.5882349,   1.49253726
   2428,        13.75,   12.0588236,   1.49253726
   2429,        13.75,   13.5294113,   1.49253726
   2430,        13.75,          15.,   1.49253726
   2431,        13.75,         -10.,           0.
   2432,        13.75,  -8.52941132,           0.
   2433,        13.75,  -7.05882359,           0.
   2434,        13.75,  -5.58823538,           0.
   2435,        13.75,  -4.11764717,           0.
   2436,        13.75,  -2.64705873,           0.
   2437,        13.75,  -1.17647064,           0.
   2438,        13.75,  0.294117659,           0.
   2439,        13.75,    1.7647059,           0.
   2440,        13.75,    3.2352941,           0.
   2441,        13.75,   4.70588255,           0.
   2442,        13.75,   6.17647076,           0.
   2443,        13.75,   7.64705896,           0.
   2444,        13.75,   9.11764717,           0.
   2445,        13.75,   10.5882349,           0.
   2446,        13.75,   12.0588236,           0.
   2447,        13.75,   13.5294113,           0.
   2448,        13.75,          15.,           0.
   2449,          15.,         -10.,         100.
   2450,          15.,  -8.52941132,         100.
   2451,          15.,  -7.05882359,         100.
   2452,          15.,  -5.58823538,         100.
   2453,          15.,  -4.11764717,         100.
   2454,          15.,  -2.64705873,         100.
   2455,          15.,  -1.17647064,         100.
   2456,          15.,  0.294117659,         100.
   2457,          15.,    1.7647059,         100.
   2458,          15.,    3.2352941,         100.
   2459,          15.,   4.70588255,         100.
   2460,          15.,   6.17647076,         100.
   2461,          15.,   7.64705896,         100.
   2462,          15.,   9.11764717,         100.
   2463,          15.,   10.5882349,         100.
   2464,          15.,   12.0588236,         100.
   2465,          15.,   13.5294113,         100.
   2466,          15.,          15.,         100.
   2467,          15.,         -10.,   98.5074615
   2468,          15.,  -8.52941132,   98.5074615
   2469,          15.,  -7.05882359,   98.5074615
   2470,          15.,  -5.58823538,   98.5074615
   2471,          15.,  -4.11764717,   98.5074615
   2472,          15.,  -2.64705873,   98.5074615
   2473,          15.,  -1.17647064,   98.5074615
   2474,          15.,  0.294117659,   98.5074615
   2475,          15.,    1.7647059,   98.5074615
   2476,          15.,    3.2352941,   98.5074615
   2477,          15.,   4.70588255,   98.5074615
   2478,          15.,   6.17647076,   98.5074615
   2479,          15.,   7.64705896,   98.5074615
   2480,          15.,   9.11764717,   98.5074615
   2481,          15.,   10.5882349,   98.5074615
   2482,          15.,   12.0588236,   98.5074615
   2483,          15.,   13.5294113,   98.5074615
   2484,          15.,          15.,   98.5074615
   2485,          15.,         -10.,   97.0149231
   2486,          15.,  -8.52941132,   97.0149231
   2487,          15.,  -7.05882359,   97.0149231
   2488,          15.,  -5.58823538,   97.0149231
   2489,          15.,  -4.11764717,   97.0149231
   2490,          15.,  -2.64705873,   97.0149231
   2491,          15.,  -1.17647064,   97.0149231
   2492,          15.,  0.294117659,   97.0149231
   2493,          15.,    1.7647059,   97.0149231
   2494,          15.,    3.2352941,   97.0149231
   2495,          15.,   4.70588255,   97.0149231
   2496,          15.,   6.17647076,   97.0149231
   2497,          15.,   7.64705896,   97.0149231
   2498,          15.,   9.11764717,   97.0149231
   2499,          15.,   10.5882349,   97.0149231
   2500,          15.,   12.0588236,   97.0149231
   2501,          15.,   13.5294113,   97.0149231
   2502,          15.,          15.,   97.0149231
   2503,          15.,         -10.,   95.5223846
   2504,          15.,  -8.52941132,   95.5223846
   2505,          15.,  -7.05882359,   95.5223846
   2506,          15.,  -5.58823538,   95.5223846
   2507,          15.,  -4.11764717,   95.5223846
   2508,          15.,  -2.64705873,   95.5223846
   2509,          15.,  -1.17647064,   95.5223846
   2510,          15.,  0.294117659,   95.5223846
   2511,          15.,    1.7647059,   95.5223846
   2512,          15.,    3.2352941,   95.5223846
   2513,          15.,   4.70588255,   95.5223846
   2514,          15.,   6.17647076,   95.5223846
   2515,          15.,   7.64705896,   95.5223846
   2516,          15.,   9.11764717,   95.5223846
   2517,          15.,   10.5882349,   95.5223846
   2518,          15.,   12.0588236,   95.5223846
   2519,          15.,   13.5294113,   95.5223846
   2520,          15.,          15.,   95.5223846
   2521,          15.,         -10.,   94.0298538
   2522,          15.,  -8.52941132,   94.0298538
   2523,          15.,  -7.05882359,   94.0298538
   2524,          15.,  -5.58823538,   94.0298538
   2525,          15.,  -4.11764717,   94.0298538
   2526,          15.,  -2.64705873,   94.0298538
   2527,          15.,  -1.17647064,   94.0298538
   2528,          15.,  0.294117659,   94.0298538
   2529,          15.,    1.7647059,   94.0298538
   2530,          15.,    3.2352941,   94.0298538
   2531,          15.,   4.70588255,   94.0298538
   2532,          15.,   6.17647076,   94.0298538
   2533,          15.,   7.64705896,   94.0298538
   2534,          15.,   9.11764717,   94.0298538
   2535,          15.,   10.5882349,   94.0298538
   2536,          15.,   12.0588236,   94.0298538
   2537,          15.,   13.5294113,   94.0298538
   2538,          15.,          15.,   94.0298538
   2539,          15.,         -10.,   92.5373154
   2540,          15.,  -8.52941132,   92.5373154
   2541,          15.,  -7.05882359,   92.5373154
   2542,          15.,  -5.58823538,   92.5373154
   2543,          15.,  -4.11764717,   92.5373154
   2544,          15.,  -2.64705873,   92.5373154
   2545,          15.,  -1.17647064,   92.5373154
   2546,          15.,  0.294117659,   92.5373154
   2547,          15.,    1.7647059,   92.5373154
   2548,          15.,    3.2352941,   92.5373154
   2549,          15.,   4.70588255,   92.5373154
   2550,          15.,   6.17647076,   92.5373154
   2551,          15.,   7.64705896,   92.5373154
   2552,          15.,   9.11764717,   92.5373154
   2553,          15.,   10.5882349,   92.5373154
   2554,          15.,   12.0588236,   92.5373154
   2555,          15.,   13.5294113,   92.5373154
   2556,          15.,          15.,   92.5373154
   2557,          15.,         -10.,   91.0447769
   2558,          15.,  -8.52941132,   91.0447769
   2559,          15.,  -7.05882359,   91.0447769
   2560,          15.,  -5.58823538,   91.0447769
   2561,          15.,  -4.11764717,   91.0447769
   2562,          15.,  -2.64705873,   91.0447769
   2563,          15.,  -1.17647064,   91.0447769
   2564,          15.,  0.294117659,   91.0447769
   2565,          15.,    1.7647059,   91.0447769
   2566,          15.,    3.2352941,   91.0447769
   2567,          15.,   4.70588255,   91.0447769
   2568,          15.,   6.17647076,   91.0447769
   2569,          15.,   7.64705896,   91.0447769
   2570,          15.,   9.11764717,   91.0447769
   2571,          15.,   10.5882349,   91.0447769
   2572,          15.,   12.0588236,   91.0447769
   2573,          15.,   13.5294113,   91.0447769
   2574,          15.,          15.,   91.0447769
   2575,          15.,         -10.,   89.5522385
   2576,          15.,  -8.52941132,   89.5522385
   2577,          15.,  -7.05882359,   89.5522385
   2578,          15.,  -5.58823538,   89.5522385
   2579,          15.,  -4.11764717,   89.5522385
   2580,          15.,  -2.64705873,   89.5522385
   2581,          15.,  -1.17647064,   89.5522385
   2582,          15.,  0.294117659,   89.5522385
   2583,          15.,    1.7647059,   89.5522385
   2584,          15.,    3.2352941,   89.5522385
   2585,          15.,   4.70588255,   89.5522385
   2586,          15.,   6.17647076,   89.5522385
   2587,          15.,   7.64705896,   89.5522385
   2588,          15.,   9.11764717,   89.5522385
   2589,          15.,   10.5882349,   89.5522385
   2590,          15.,   12.0588236,   89.5522385
   2591,          15.,   13.5294113,   89.5522385
   2592,          15.,          15.,   89.5522385
   2593,          15.,         -10.,      88.0597
   2594,          15.,  -8.52941132,      88.0597
   2595,          15.,  -7.05882359,      88.0597
   2596,          15.,  -5.58823538,      88.0597
   2597,          15.,  -4.11764717,      88.0597
   2598,          15.,  -2.64705873,      88.0597
   2599,          15.,  -1.17647064,      88.0597
   2600,          15.,  0.294117659,      88.0597
   2601,          15.,    1.7647059,      88.0597
   2602,          15.,    3.2352941,      88.0597
   2603,          15.,   4.70588255,      88.0597
   2604,          15.,   6.17647076,      88.0597
   2605,          15.,   7.64705896,      88.0597
   2606,          15.,   9.11764717,      88.0597
   2607,          15.,   10.5882349,      88.0597
   2608,          15.,   12.0588236,      88.0597
   2609,          15.,   13.5294113,      88.0597
   2610,          15.,          15.,      88.0597
   2611,          15.,         -10.,   86.5671616
   2612,          15.,  -8.52941132,   86.5671616
   2613,          15.,  -7.05882359,   86.5671616
   2614,          15.,  -5.58823538,   86.5671616
   2615,          15.,  -4.11764717,   86.5671616
   2616,          15.,  -2.64705873,   86.5671616
   2617,          15.,  -1.17647064,   86.5671616
   2618,          15.,  0.294117659,   86.5671616
   2619,          15.,    1.7647059,   86.5671616
   2620,          15.,    3.2352941,   86.5671616
   2621,          15.,   4.70588255,   86.5671616
   2622,          15.,   6.17647076,   86.5671616
   2623,          15.,   7.64705896,   86.5671616
   2624,          15.,   9.11764717,   86.5671616
   2625,          15.,   10.5882349,   86.5671616
   2626,          15.,   12.0588236,   86.5671616
   2627,          15.,   13.5294113,   86.5671616
   2628,          15.,          15.,   86.5671616
   2629,          15.,         -10.,   85.0746231
   2630,          15.,  -8.52941132,   85.0746231
   2631,          15.,  -7.05882359,   85.0746231
   2632,          15.,  -5.58823538,   85.0746231
   2633,          15.,  -4.11764717,   85.0746231
   2634,          15.,  -2.64705873,   85.0746231
   2635,          15.,  -1.17647064,   85.0746231
   2636,          15.,  0.294117659,   85.0746231
   2637,          15.,    1.7647059,   85.0746231
   2638,          15.,    3.2352941,   85.0746231
   2639,          15.,   4.70588255,   85.0746231
   2640,          15.,   6.17647076,   85.0746231
   2641,          15.,   7.64705896,   85.0746231
   2642,          15.,   9.11764717,   85.0746231
   2643,          15.,   10.5882349,   85.0746231
   2644,          15.,   12.0588236,   85.0746231
   2645,          15.,   13.5294113,   85.0746231
   2646,          15.,          15.,   85.0746231
   2647,          15.,         -10.,   83.5820923
   2648,          15.,  -8.52941132,   83.5820923
   2649,          15.,  -7.05882359,   83.5820923
   2650,          15.,  -5.58823538,   83.5820923
   2651,          15.,  -4.11764717,   83.5820923
   2652,          15.,  -2.64705873,   83.5820923
   2653,          15.,  -1.17647064,   83.5820923
   2654,          15.,  0.294117659,   83.5820923
   2655,          15.,    1.7647059,   83.5820923
   2656,          15.,    3.2352941,   83.5820923
   2657,          15.,   4.70588255,   83.5820923
   2658,          15.,   6.17647076,   83.5820923
   2659,          15.,   7.64705896,   83.5820923
   2660,          15.,   9.11764717,   83.5820923
   2661,          15.,   10.5882349,   83.5820923
   2662,          15.,   12.0588236,   83.5820923
   2663,          15.,   13.5294113,   83.5820923
   2664,          15.,          15.,   83.5820923
   2665,          15.,         -10.,   82.0895538
   2666,          15.,  -8.52941132,   82.0895538
   2667,          15.,  -7.05882359,   82.0895538
   2668,          15.,  -5.58823538,   82.0895538
   2669,          15.,  -4.11764717,   82.0895538
   2670,          15.,  -2.64705873,   82.0895538
   2671,          15.,  -1.17647064,   82.0895538
   2672,          15.,  0.294117659,   82.0895538
   2673,          15.,    1.7647059,   82.0895538
   2674,          15.,    3.2352941,   82.0895538
   2675,          15.,   4.70588255,   82.0895538
   2676,          15.,   6.17647076,   82.0895538
   2677,          15.,   7.64705896,   82.0895538
   2678,          15.,   9.11764717,   82.0895538
   2679,          15.,   10.5882349,   82.0895538
   2680,          15.,   12.0588236,   82.0895538
   2681,          15.,   13.5294113,   82.0895538
   2682,          15.,          15.,   82.0895538
   2683,          15.,         -10.,   80.5970154
   2684,          15.,  -8.52941132,   80.5970154
   2685,          15.,  -7.05882359,   80.5970154
   2686,          15.,  -5.58823538,   80.5970154
   2687,          15.,  -4.11764717,   80.5970154
   2688,          15.,  -2.64705873,   80.5970154
   2689,          15.,  -1.17647064,   80.5970154
   2690,          15.,  0.294117659,   80.5970154
   2691,          15.,    1.7647059,   80.5970154
   2692,          15.,    3.2352941,   80.5970154
   2693,          15.,   4.70588255,   80.5970154
   2694,          15.,   6.17647076,   80.5970154
   2695,          15.,   7.64705896,   80.5970154
   2696,          15.,   9.11764717,   80.5970154
   2697,          15.,   10.5882349,   80.5970154
   2698,          15.,   12.0588236,   80.5970154
   2699,          15.,   13.5294113,   80.5970154
   2700,          15.,          15.,   80.5970154
   2701,          15.,         -10.,   79.1044769
   2702,          15.,  -8.52941132,   79.1044769
   2703,          15.,  -7.05882359,   79.1044769
   2704,          15.,  -5.58823538,   79.1044769
   2705,          15.,  -4.11764717,   79.1044769
   2706,          15.,  -2.64705873,   79.1044769
   2707,          15.,  -1.17647064,   79.1044769
   2708,          15.,  0.294117659,   79.1044769
   2709,          15.,    1.7647059,   79.1044769
   2710,          15.,    3.2352941,   79.1044769
   2711,          15.,   4.70588255,   79.1044769
   2712,          15.,   6.17647076,   79.1044769
   2713,          15.,   7.64705896,   79.1044769
   2714,          15.,   9.11764717,   79.1044769
   2715,          15.,   10.5882349,   79.1044769
   2716,          15.,   12.0588236,   79.1044769
   2717,          15.,   13.5294113,   79.1044769
   2718,          15.,          15.,   79.1044769
   2719,          15.,         -10.,   77.6119385
   2720,          15.,  -8.52941132,   77.6119385
   2721,          15.,  -7.05882359,   77.6119385
   2722,          15.,  -5.58823538,   77.6119385
   2723,          15.,  -4.11764717,   77.6119385
   2724,          15.,  -2.64705873,   77.6119385
   2725,          15.,  -1.17647064,   77.6119385
   2726,          15.,  0.294117659,   77.6119385
   2727,          15.,    1.7647059,   77.6119385
   2728,          15.,    3.2352941,   77.6119385
   2729,          15.,   4.70588255,   77.6119385
   2730,          15.,   6.17647076,   77.6119385
   2731,          15.,   7.64705896,   77.6119385
   2732,          15.,   9.11764717,   77.6119385
   2733,          15.,   10.5882349,   77.6119385
   2734,          15.,   12.0588236,   77.6119385
   2735,          15.,   13.5294113,   77.6119385
   2736,          15.,          15.,   77.6119385
   2737,          15.,         -10.,      76.1194
   2738,          15.,  -8.52941132,      76.1194
   2739,          15.,  -7.05882359,      76.1194
   2740,          15.,  -5.58823538,      76.1194
   2741,          15.,  -4.11764717,      76.1194
   2742,          15.,  -2.64705873,      76.1194
   2743,          15.,  -1.17647064,      76.1194
   2744,          15.,  0.294117659,      76.1194
   2745,          15.,    1.7647059,      76.1194
   2746,          15.,    3.2352941,      76.1194
   2747,          15.,   4.70588255,      76.1194
   2748,          15.,   6.17647076,      76.1194
   2749,          15.,   7.64705896,      76.1194
   2750,          15.,   9.11764717,      76.1194
   2751,          15.,   10.5882349,      76.1194
   2752,          15.,   12.0588236,      76.1194
   2753,          15.,   13.5294113,      76.1194
   2754,          15.,          15.,      76.1194
   2755,          15.,         -10.,   74.6268692
   2756,          15.,  -8.52941132,   74.6268692
   2757,          15.,  -7.05882359,   74.6268692
   2758,          15.,  -5.58823538,   74.6268692
   2759,          15.,  -4.11764717,   74.6268692
   2760,          15.,  -2.64705873,   74.6268692
   2761,          15.,  -1.17647064,   74.6268692
   2762,          15.,  0.294117659,   74.6268692
   2763,          15.,    1.7647059,   74.6268692
   2764,          15.,    3.2352941,   74.6268692
   2765,          15.,   4.70588255,   74.6268692
   2766,          15.,   6.17647076,   74.6268692
   2767,          15.,   7.64705896,   74.6268692
   2768,          15.,   9.11764717,   74.6268692
   2769,          15.,   10.5882349,   74.6268692
   2770,          15.,   12.0588236,   74.6268692
   2771,          15.,   13.5294113,   74.6268692
   2772,          15.,          15.,   74.6268692
   2773,          15.,         -10.,   73.1343307
   2774,          15.,  -8.52941132,   73.1343307
   2775,          15.,  -7.05882359,   73.1343307
   2776,          15.,  -5.58823538,   73.1343307
   2777,          15.,  -4.11764717,   73.1343307
   2778,          15.,  -2.64705873,   73.1343307
   2779,          15.,  -1.17647064,   73.1343307
   2780,          15.,  0.294117659,   73.1343307
   2781,          15.,    1.7647059,   73.1343307
   2782,          15.,    3.2352941,   73.1343307
   2783,          15.,   4.70588255,   73.1343307
   2784,          15.,   6.17647076,   73.1343307
   2785,          15.,   7.64705896,   73.1343307
   2786,          15.,   9.11764717,   73.1343307
   2787,          15.,   10.5882349,   73.1343307
   2788,          15.,   12.0588236,   73.1343307
   2789,          15.,   13.5294113,   73.1343307
   2790,          15.,          15.,   73.1343307
   2791,          15.,         -10.,   71.6417923
   2792,          15.,  -8.52941132,   71.6417923
   2793,          15.,  -7.05882359,   71.6417923
   2794,          15.,  -5.58823538,   71.6417923
   2795,          15.,  -4.11764717,   71.6417923
   2796,          15.,  -2.64705873,   71.6417923
   2797,          15.,  -1.17647064,   71.6417923
   2798,          15.,  0.294117659,   71.6417923
   2799,          15.,    1.7647059,   71.6417923
   2800,          15.,    3.2352941,   71.6417923
   2801,          15.,   4.70588255,   71.6417923
   2802,          15.,   6.17647076,   71.6417923
   2803,          15.,   7.64705896,   71.6417923
   2804,          15.,   9.11764717,   71.6417923
   2805,          15.,   10.5882349,   71.6417923
   2806,          15.,   12.0588236,   71.6417923
   2807,          15.,   13.5294113,   71.6417923
   2808,          15.,          15.,   71.6417923
   2809,          15.,         -10.,   70.1492538
   2810,          15.,  -8.52941132,   70.1492538
   2811,          15.,  -7.05882359,   70.1492538
   2812,          15.,  -5.58823538,   70.1492538
   2813,          15.,  -4.11764717,   70.1492538
   2814,          15.,  -2.64705873,   70.1492538
   2815,          15.,  -1.17647064,   70.1492538
   2816,          15.,  0.294117659,   70.1492538
   2817,          15.,    1.7647059,   70.1492538
   2818,          15.,    3.2352941,   70.1492538
   2819,          15.,   4.70588255,   70.1492538
   2820,          15.,   6.17647076,   70.1492538
   2821,          15.,   7.64705896,   70.1492538
   2822,          15.,   9.11764717,   70.1492538
   2823,          15.,   10.5882349,   70.1492538
   2824,          15.,   12.0588236,   70.1492538
   2825,          15.,   13.5294113,   70.1492538
   2826,          15.,          15.,   70.1492538
   2827,          15.,         -10.,   68.6567154
   2828,          15.,  -8.52941132,   68.6567154
   2829,          15.,  -7.05882359,   68.6567154
   2830,          15.,  -5.58823538,   68.6567154
   2831,          15.,  -4.11764717,   68.6567154
   2832,          15.,  -2.64705873,   68.6567154
   2833,          15.,  -1.17647064,   68.6567154
   2834,          15.,  0.294117659,   68.6567154
   2835,          15.,    1.7647059,   68.6567154
   2836,          15.,    3.2352941,   68.6567154
   2837,          15.,   4.70588255,   68.6567154
   2838,          15.,   6.17647076,   68.6567154
   2839,          15.,   7.64705896,   68.6567154
   2840,          15.,   9.11764717,   68.6567154
   2841,          15.,   10.5882349,   68.6567154
   2842,          15.,   12.0588236,   68.6567154
   2843,          15.,   13.5294113,   68.6567154
   2844,          15.,          15.,   68.6567154
   2845,          15.,         -10.,   67.1641769
   2846,          15.,  -8.52941132,   67.1641769
   2847,          15.,  -7.05882359,   67.1641769
   2848,          15.,  -5.58823538,   67.1641769
   2849,          15.,  -4.11764717,   67.1641769
   2850,          15.,  -2.64705873,   67.1641769
   2851,          15.,  -1.17647064,   67.1641769
   2852,          15.,  0.294117659,   67.1641769
   2853,          15.,    1.7647059,   67.1641769
   2854,          15.,    3.2352941,   67.1641769
   2855,          15.,   4.70588255,   67.1641769
   2856,          15.,   6.17647076,   67.1641769
   2857,          15.,   7.64705896,   67.1641769
   2858,          15.,   9.11764717,   67.1641769
   2859,          15.,   10.5882349,   67.1641769
   2860,          15.,   12.0588236,   67.1641769
   2861,          15.,   13.5294113,   67.1641769
   2862,          15.,          15.,   67.1641769
   2863,          15.,         -10.,   65.6716385
   2864,          15.,  -8.52941132,   65.6716385
   2865,          15.,  -7.05882359,   65.6716385
   2866,          15.,  -5.58823538,   65.6716385
   2867,          15.,  -4.11764717,   65.6716385
   2868,          15.,  -2.64705873,   65.6716385
   2869,          15.,  -1.17647064,   65.6716385
   2870,          15.,  0.294117659,   65.6716385
   2871,          15.,    1.7647059,   65.6716385
   2872,          15.,    3.2352941,   65.6716385
   2873,          15.,   4.70588255,   65.6716385
   2874,          15.,   6.17647076,   65.6716385
   2875,          15.,   7.64705896,   65.6716385
   2876,          15.,   9.11764717,   65.6716385
   2877,          15.,   10.5882349,   65.6716385
   2878,          15.,   12.0588236,   65.6716385
   2879,          15.,   13.5294113,   65.6716385
   2880,          15.,          15.,   65.6716385
   2881,          15.,         -10.,   64.1791077
   2882,          15.,  -8.52941132,   64.1791077
   2883,          15.,  -7.05882359,   64.1791077
   2884,          15.,  -5.58823538,   64.1791077
   2885,          15.,  -4.11764717,   64.1791077
   2886,          15.,  -2.64705873,   64.1791077
   2887,          15.,  -1.17647064,   64.1791077
   2888,          15.,  0.294117659,   64.1791077
   2889,          15.,    1.7647059,   64.1791077
   2890,          15.,    3.2352941,   64.1791077
   2891,          15.,   4.70588255,   64.1791077
   2892,          15.,   6.17647076,   64.1791077
   2893,          15.,   7.64705896,   64.1791077
   2894,          15.,   9.11764717,   64.1791077
   2895,          15.,   10.5882349,   64.1791077
   2896,          15.,   12.0588236,   64.1791077
   2897,          15.,   13.5294113,   64.1791077
   2898,          15.,          15.,   64.1791077
   2899,          15.,         -10.,   62.6865654
   2900,          15.,  -8.52941132,   62.6865654
   2901,          15.,  -7.05882359,   62.6865654
   2902,          15.,  -5.58823538,   62.6865654
   2903,          15.,  -4.11764717,   62.6865654
   2904,          15.,  -2.64705873,   62.6865654
   2905,          15.,  -1.17647064,   62.6865654
   2906,          15.,  0.294117659,   62.6865654
   2907,          15.,    1.7647059,   62.6865654
   2908,          15.,    3.2352941,   62.6865654
   2909,          15.,   4.70588255,   62.6865654
   2910,          15.,   6.17647076,   62.6865654
   2911,          15.,   7.64705896,   62.6865654
   2912,          15.,   9.11764717,   62.6865654
   2913,          15.,   10.5882349,   62.6865654
   2914,          15.,   12.0588236,   62.6865654
   2915,          15.,   13.5294113,   62.6865654
   2916,          15.,          15.,   62.6865654
   2917,          15.,         -10.,   61.1940308
   2918,          15.,  -8.52941132,   61.1940308
   2919,          15.,  -7.05882359,   61.1940308
   2920,          15.,  -5.58823538,   61.1940308
   2921,          15.,  -4.11764717,   61.1940308
   2922,          15.,  -2.64705873,   61.1940308
   2923,          15.,  -1.17647064,   61.1940308
   2924,          15.,  0.294117659,   61.1940308
   2925,          15.,    1.7647059,   61.1940308
   2926,          15.,    3.2352941,   61.1940308
   2927,          15.,   4.70588255,   61.1940308
   2928,          15.,   6.17647076,   61.1940308
   2929,          15.,   7.64705896,   61.1940308
   2930,          15.,   9.11764717,   61.1940308
   2931,          15.,   10.5882349,   61.1940308
   2932,          15.,   12.0588236,   61.1940308
   2933,          15.,   13.5294113,   61.1940308
   2934,          15.,          15.,   61.1940308
   2935,          15.,         -10.,   59.7014923
   2936,          15.,  -8.52941132,   59.7014923
   2937,          15.,  -7.05882359,   59.7014923
   2938,          15.,  -5.58823538,   59.7014923
   2939,          15.,  -4.11764717,   59.7014923
   2940,          15.,  -2.64705873,   59.7014923
   2941,          15.,  -1.17647064,   59.7014923
   2942,          15.,  0.294117659,   59.7014923
   2943,          15.,    1.7647059,   59.7014923
   2944,          15.,    3.2352941,   59.7014923
   2945,          15.,   4.70588255,   59.7014923
   2946,          15.,   6.17647076,   59.7014923
   2947,          15.,   7.64705896,   59.7014923
   2948,          15.,   9.11764717,   59.7014923
   2949,          15.,   10.5882349,   59.7014923
   2950,          15.,   12.0588236,   59.7014923
   2951,          15.,   13.5294113,   59.7014923
   2952,          15.,          15.,   59.7014923
   2953,          15.,         -10.,   58.2089539
   2954,          15.,  -8.52941132,   58.2089539
   2955,          15.,  -7.05882359,   58.2089539
   2956,          15.,  -5.58823538,   58.2089539
   2957,          15.,  -4.11764717,   58.2089539
   2958,          15.,  -2.64705873,   58.2089539
   2959,          15.,  -1.17647064,   58.2089539
   2960,          15.,  0.294117659,   58.2089539
   2961,          15.,    1.7647059,   58.2089539
   2962,          15.,    3.2352941,   58.2089539
   2963,          15.,   4.70588255,   58.2089539
   2964,          15.,   6.17647076,   58.2089539
   2965,          15.,   7.64705896,   58.2089539
   2966,          15.,   9.11764717,   58.2089539
   2967,          15.,   10.5882349,   58.2089539
   2968,          15.,   12.0588236,   58.2089539
   2969,          15.,   13.5294113,   58.2089539
   2970,          15.,          15.,   58.2089539
   2971,          15.,         -10.,   56.7164192
   2972,          15.,  -8.52941132,   56.7164192
   2973,          15.,  -7.05882359,   56.7164192
   2974,          15.,  -5.58823538,   56.7164192
   2975,          15.,  -4.11764717,   56.7164192
   2976,          15.,  -2.64705873,   56.7164192
   2977,          15.,  -1.17647064,   56.7164192
   2978,          15.,  0.294117659,   56.7164192
   2979,          15.,    1.7647059,   56.7164192
   2980,          15.,    3.2352941,   56.7164192
   2981,          15.,   4.70588255,   56.7164192
   2982,          15.,   6.17647076,   56.7164192
   2983,          15.,   7.64705896,   56.7164192
   2984,          15.,   9.11764717,   56.7164192
   2985,          15.,   10.5882349,   56.7164192
   2986,          15.,   12.0588236,   56.7164192
   2987,          15.,   13.5294113,   56.7164192
   2988,          15.,          15.,   56.7164192
   2989,          15.,         -10.,   55.2238808
   2990,          15.,  -8.52941132,   55.2238808
   2991,          15.,  -7.05882359,   55.2238808
   2992,          15.,  -5.58823538,   55.2238808
   2993,          15.,  -4.11764717,   55.2238808
   2994,          15.,  -2.64705873,   55.2238808
   2995,          15.,  -1.17647064,   55.2238808
   2996,          15.,  0.294117659,   55.2238808
   2997,          15.,    1.7647059,   55.2238808
   2998,          15.,    3.2352941,   55.2238808
   2999,          15.,   4.70588255,   55.2238808
   3000,          15.,   6.17647076,   55.2238808
   3001,          15.,   7.64705896,   55.2238808
   3002,          15.,   9.11764717,   55.2238808
   3003,          15.,   10.5882349,   55.2238808
   3004,          15.,   12.0588236,   55.2238808
   3005,          15.,   13.5294113,   55.2238808
   3006,          15.,          15.,   55.2238808
   3007,          15.,         -10.,   53.7313423
   3008,          15.,  -8.52941132,   53.7313423
   3009,          15.,  -7.05882359,   53.7313423
   3010,          15.,  -5.58823538,   53.7313423
   3011,          15.,  -4.11764717,   53.7313423
   3012,          15.,  -2.64705873,   53.7313423
   3013,          15.,  -1.17647064,   53.7313423
   3014,          15.,  0.294117659,   53.7313423
   3015,          15.,    1.7647059,   53.7313423
   3016,          15.,    3.2352941,   53.7313423
   3017,          15.,   4.70588255,   53.7313423
   3018,          15.,   6.17647076,   53.7313423
   3019,          15.,   7.64705896,   53.7313423
   3020,          15.,   9.11764717,   53.7313423
   3021,          15.,   10.5882349,   53.7313423
   3022,          15.,   12.0588236,   53.7313423
   3023,          15.,   13.5294113,   53.7313423
   3024,          15.,          15.,   53.7313423
   3025,          15.,         -10.,   52.2388077
   3026,          15.,  -8.52941132,   52.2388077
   3027,          15.,  -7.05882359,   52.2388077
   3028,          15.,  -5.58823538,   52.2388077
   3029,          15.,  -4.11764717,   52.2388077
   3030,          15.,  -2.64705873,   52.2388077
   3031,          15.,  -1.17647064,   52.2388077
   3032,          15.,  0.294117659,   52.2388077
   3033,          15.,    1.7647059,   52.2388077
   3034,          15.,    3.2352941,   52.2388077
   3035,          15.,   4.70588255,   52.2388077
   3036,          15.,   6.17647076,   52.2388077
   3037,          15.,   7.64705896,   52.2388077
   3038,          15.,   9.11764717,   52.2388077
   3039,          15.,   10.5882349,   52.2388077
   3040,          15.,   12.0588236,   52.2388077
   3041,          15.,   13.5294113,   52.2388077
   3042,          15.,          15.,   52.2388077
   3043,          15.,         -10.,   50.7462692
   3044,          15.,  -8.52941132,   50.7462692
   3045,          15.,  -7.05882359,   50.7462692
   3046,          15.,  -5.58823538,   50.7462692
   3047,          15.,  -4.11764717,   50.7462692
   3048,          15.,  -2.64705873,   50.7462692
   3049,          15.,  -1.17647064,   50.7462692
   3050,          15.,  0.294117659,   50.7462692
   3051,          15.,    1.7647059,   50.7462692
   3052,          15.,    3.2352941,   50.7462692
   3053,          15.,   4.70588255,   50.7462692
   3054,          15.,   6.17647076,   50.7462692
   3055,          15.,   7.64705896,   50.7462692
   3056,          15.,   9.11764717,   50.7462692
   3057,          15.,   10.5882349,   50.7462692
   3058,          15.,   12.0588236,   50.7462692
   3059,          15.,   13.5294113,   50.7462692
   3060,          15.,          15.,   50.7462692
   3061,          15.,         -10.,   49.2537308
   3062,          15.,  -8.52941132,   49.2537308
   3063,          15.,  -7.05882359,   49.2537308
   3064,          15.,  -5.58823538,   49.2537308
   3065,          15.,  -4.11764717,   49.2537308
   3066,          15.,  -2.64705873,   49.2537308
   3067,          15.,  -1.17647064,   49.2537308
   3068,          15.,  0.294117659,   49.2537308
   3069,          15.,    1.7647059,   49.2537308
   3070,          15.,    3.2352941,   49.2537308
   3071,          15.,   4.70588255,   49.2537308
   3072,          15.,   6.17647076,   49.2537308
   3073,          15.,   7.64705896,   49.2537308
   3074,          15.,   9.11764717,   49.2537308
   3075,          15.,   10.5882349,   49.2537308
   3076,          15.,   12.0588236,   49.2537308
   3077,          15.,   13.5294113,   49.2537308
   3078,          15.,          15.,   49.2537308
   3079,          15.,         -10.,   47.7611923
   3080,          15.,  -8.52941132,   47.7611923
   3081,          15.,  -7.05882359,   47.7611923
   3082,          15.,  -5.58823538,   47.7611923
   3083,          15.,  -4.11764717,   47.7611923
   3084,          15.,  -2.64705873,   47.7611923
   3085,          15.,  -1.17647064,   47.7611923
   3086,          15.,  0.294117659,   47.7611923
   3087,          15.,    1.7647059,   47.7611923
   3088,          15.,    3.2352941,   47.7611923
   3089,          15.,   4.70588255,   47.7611923
   3090,          15.,   6.17647076,   47.7611923
   3091,          15.,   7.64705896,   47.7611923
   3092,          15.,   9.11764717,   47.7611923
   3093,          15.,   10.5882349,   47.7611923
   3094,          15.,   12.0588236,   47.7611923
   3095,          15.,   13.5294113,   47.7611923
   3096,          15.,          15.,   47.7611923
   3097,          15.,         -10.,   46.2686577
   3098,          15.,  -8.52941132,   46.2686577
   3099,          15.,  -7.05882359,   46.2686577
   3100,          15.,  -5.58823538,   46.2686577
   3101,          15.,  -4.11764717,   46.2686577
   3102,          15.,  -2.64705873,   46.2686577
   3103,          15.,  -1.17647064,   46.2686577
   3104,          15.,  0.294117659,   46.2686577
   3105,          15.,    1.7647059,   46.2686577
   3106,          15.,    3.2352941,   46.2686577
   3107,          15.,   4.70588255,   46.2686577
   3108,          15.,   6.17647076,   46.2686577
   3109,          15.,   7.64705896,   46.2686577
   3110,          15.,   9.11764717,   46.2686577
   3111,          15.,   10.5882349,   46.2686577
   3112,          15.,   12.0588236,   46.2686577
   3113,          15.,   13.5294113,   46.2686577
   3114,          15.,          15.,   46.2686577
   3115,          15.,         -10.,   44.7761192
   3116,          15.,  -8.52941132,   44.7761192
   3117,          15.,  -7.05882359,   44.7761192
   3118,          15.,  -5.58823538,   44.7761192
   3119,          15.,  -4.11764717,   44.7761192
   3120,          15.,  -2.64705873,   44.7761192
   3121,          15.,  -1.17647064,   44.7761192
   3122,          15.,  0.294117659,   44.7761192
   3123,          15.,    1.7647059,   44.7761192
   3124,          15.,    3.2352941,   44.7761192
   3125,          15.,   4.70588255,   44.7761192
   3126,          15.,   6.17647076,   44.7761192
   3127,          15.,   7.64705896,   44.7761192
   3128,          15.,   9.11764717,   44.7761192
   3129,          15.,   10.5882349,   44.7761192
   3130,          15.,   12.0588236,   44.7761192
   3131,          15.,   13.5294113,   44.7761192
   3132,          15.,          15.,   44.7761192
   3133,          15.,         -10.,   43.2835808
   3134,          15.,  -8.52941132,   43.2835808
   3135,          15.,  -7.05882359,   43.2835808
   3136,          15.,  -5.58823538,   43.2835808
   3137,          15.,  -4.11764717,   43.2835808
   3138,          15.,  -2.64705873,   43.2835808
   3139,          15.,  -1.17647064,   43.2835808
   3140,          15.,  0.294117659,   43.2835808
   3141,          15.,    1.7647059,   43.2835808
   3142,          15.,    3.2352941,   43.2835808
   3143,          15.,   4.70588255,   43.2835808
   3144,          15.,   6.17647076,   43.2835808
   3145,          15.,   7.64705896,   43.2835808
   3146,          15.,   9.11764717,   43.2835808
   3147,          15.,   10.5882349,   43.2835808
   3148,          15.,   12.0588236,   43.2835808
   3149,          15.,   13.5294113,   43.2835808
   3150,          15.,          15.,   43.2835808
   3151,          15.,         -10.,   41.7910461
   3152,          15.,  -8.52941132,   41.7910461
   3153,          15.,  -7.05882359,   41.7910461
   3154,          15.,  -5.58823538,   41.7910461
   3155,          15.,  -4.11764717,   41.7910461
   3156,          15.,  -2.64705873,   41.7910461
   3157,          15.,  -1.17647064,   41.7910461
   3158,          15.,  0.294117659,   41.7910461
   3159,          15.,    1.7647059,   41.7910461
   3160,          15.,    3.2352941,   41.7910461
   3161,          15.,   4.70588255,   41.7910461
   3162,          15.,   6.17647076,   41.7910461
   3163,          15.,   7.64705896,   41.7910461
   3164,          15.,   9.11764717,   41.7910461
   3165,          15.,   10.5882349,   41.7910461
   3166,          15.,   12.0588236,   41.7910461
   3167,          15.,   13.5294113,   41.7910461
   3168,          15.,          15.,   41.7910461
   3169,          15.,         -10.,   40.2985077
   3170,          15.,  -8.52941132,   40.2985077
   3171,          15.,  -7.05882359,   40.2985077
   3172,          15.,  -5.58823538,   40.2985077
   3173,          15.,  -4.11764717,   40.2985077
   3174,          15.,  -2.64705873,   40.2985077
   3175,          15.,  -1.17647064,   40.2985077
   3176,          15.,  0.294117659,   40.2985077
   3177,          15.,    1.7647059,   40.2985077
   3178,          15.,    3.2352941,   40.2985077
   3179,          15.,   4.70588255,   40.2985077
   3180,          15.,   6.17647076,   40.2985077
   3181,          15.,   7.64705896,   40.2985077
   3182,          15.,   9.11764717,   40.2985077
   3183,          15.,   10.5882349,   40.2985077
   3184,          15.,   12.0588236,   40.2985077
   3185,          15.,   13.5294113,   40.2985077
   3186,          15.,          15.,   40.2985077
   3187,          15.,         -10.,   38.8059692
   3188,          15.,  -8.52941132,   38.8059692
   3189,          15.,  -7.05882359,   38.8059692
   3190,          15.,  -5.58823538,   38.8059692
   3191,          15.,  -4.11764717,   38.8059692
   3192,          15.,  -2.64705873,   38.8059692
   3193,          15.,  -1.17647064,   38.8059692
   3194,          15.,  0.294117659,   38.8059692
   3195,          15.,    1.7647059,   38.8059692
   3196,          15.,    3.2352941,   38.8059692
   3197,          15.,   4.70588255,   38.8059692
   3198,          15.,   6.17647076,   38.8059692
   3199,          15.,   7.64705896,   38.8059692
   3200,          15.,   9.11764717,   38.8059692
   3201,          15.,   10.5882349,   38.8059692
   3202,          15.,   12.0588236,   38.8059692
   3203,          15.,   13.5294113,   38.8059692
   3204,          15.,          15.,   38.8059692
   3205,          15.,         -10.,   37.3134346
   3206,          15.,  -8.52941132,   37.3134346
   3207,          15.,  -7.05882359,   37.3134346
   3208,          15.,  -5.58823538,   37.3134346
   3209,          15.,  -4.11764717,   37.3134346
   3210,          15.,  -2.64705873,   37.3134346
   3211,          15.,  -1.17647064,   37.3134346
   3212,          15.,  0.294117659,   37.3134346
   3213,          15.,    1.7647059,   37.3134346
   3214,          15.,    3.2352941,   37.3134346
   3215,          15.,   4.70588255,   37.3134346
   3216,          15.,   6.17647076,   37.3134346
   3217,          15.,   7.64705896,   37.3134346
   3218,          15.,   9.11764717,   37.3134346
   3219,          15.,   10.5882349,   37.3134346
   3220,          15.,   12.0588236,   37.3134346
   3221,          15.,   13.5294113,   37.3134346
   3222,          15.,          15.,   37.3134346
   3223,          15.,         -10.,   35.8208961
   3224,          15.,  -8.52941132,   35.8208961
   3225,          15.,  -7.05882359,   35.8208961
   3226,          15.,  -5.58823538,   35.8208961
   3227,          15.,  -4.11764717,   35.8208961
   3228,          15.,  -2.64705873,   35.8208961
   3229,          15.,  -1.17647064,   35.8208961
   3230,          15.,  0.294117659,   35.8208961
   3231,          15.,    1.7647059,   35.8208961
   3232,          15.,    3.2352941,   35.8208961
   3233,          15.,   4.70588255,   35.8208961
   3234,          15.,   6.17647076,   35.8208961
   3235,          15.,   7.64705896,   35.8208961
   3236,          15.,   9.11764717,   35.8208961
   3237,          15.,   10.5882349,   35.8208961
   3238,          15.,   12.0588236,   35.8208961
   3239,          15.,   13.5294113,   35.8208961
   3240,          15.,          15.,   35.8208961
   3241,          15.,         -10.,   34.3283577
   3242,          15.,  -8.52941132,   34.3283577
   3243,          15.,  -7.05882359,   34.3283577
   3244,          15.,  -5.58823538,   34.3283577
   3245,          15.,  -4.11764717,   34.3283577
   3246,          15.,  -2.64705873,   34.3283577
   3247,          15.,  -1.17647064,   34.3283577
   3248,          15.,  0.294117659,   34.3283577
   3249,          15.,    1.7647059,   34.3283577
   3250,          15.,    3.2352941,   34.3283577
   3251,          15.,   4.70588255,   34.3283577
   3252,          15.,   6.17647076,   34.3283577
   3253,          15.,   7.64705896,   34.3283577
   3254,          15.,   9.11764717,   34.3283577
   3255,          15.,   10.5882349,   34.3283577
   3256,          15.,   12.0588236,   34.3283577
   3257,          15.,   13.5294113,   34.3283577
   3258,          15.,          15.,   34.3283577
   3259,          15.,         -10.,   32.8358192
   3260,          15.,  -8.52941132,   32.8358192
   3261,          15.,  -7.05882359,   32.8358192
   3262,          15.,  -5.58823538,   32.8358192
   3263,          15.,  -4.11764717,   32.8358192
   3264,          15.,  -2.64705873,   32.8358192
   3265,          15.,  -1.17647064,   32.8358192
   3266,          15.,  0.294117659,   32.8358192
   3267,          15.,    1.7647059,   32.8358192
   3268,          15.,    3.2352941,   32.8358192
   3269,          15.,   4.70588255,   32.8358192
   3270,          15.,   6.17647076,   32.8358192
   3271,          15.,   7.64705896,   32.8358192
   3272,          15.,   9.11764717,   32.8358192
   3273,          15.,   10.5882349,   32.8358192
   3274,          15.,   12.0588236,   32.8358192
   3275,          15.,   13.5294113,   32.8358192
   3276,          15.,          15.,   32.8358192
   3277,          15.,         -10.,   31.3432827
   3278,          15.,  -8.52941132,   31.3432827
   3279,          15.,  -7.05882359,   31.3432827
   3280,          15.,  -5.58823538,   31.3432827
   3281,          15.,  -4.11764717,   31.3432827
   3282,          15.,  -2.64705873,   31.3432827
   3283,          15.,  -1.17647064,   31.3432827
   3284,          15.,  0.294117659,   31.3432827
   3285,          15.,    1.7647059,   31.3432827
   3286,          15.,    3.2352941,   31.3432827
   3287,          15.,   4.70588255,   31.3432827
   3288,          15.,   6.17647076,   31.3432827
   3289,          15.,   7.64705896,   31.3432827
   3290,          15.,   9.11764717,   31.3432827
   3291,          15.,   10.5882349,   31.3432827
   3292,          15.,   12.0588236,   31.3432827
   3293,          15.,   13.5294113,   31.3432827
   3294,          15.,          15.,   31.3432827
   3295,          15.,         -10.,   29.8507462
   3296,          15.,  -8.52941132,   29.8507462
   3297,          15.,  -7.05882359,   29.8507462
   3298,          15.,  -5.58823538,   29.8507462
   3299,          15.,  -4.11764717,   29.8507462
   3300,          15.,  -2.64705873,   29.8507462
   3301,          15.,  -1.17647064,   29.8507462
   3302,          15.,  0.294117659,   29.8507462
   3303,          15.,    1.7647059,   29.8507462
   3304,          15.,    3.2352941,   29.8507462
   3305,          15.,   4.70588255,   29.8507462
   3306,          15.,   6.17647076,   29.8507462
   3307,          15.,   7.64705896,   29.8507462
   3308,          15.,   9.11764717,   29.8507462
   3309,          15.,   10.5882349,   29.8507462
   3310,          15.,   12.0588236,   29.8507462
   3311,          15.,   13.5294113,   29.8507462
   3312,          15.,          15.,   29.8507462
   3313,          15.,         -10.,   28.3582096
   3314,          15.,  -8.52941132,   28.3582096
   3315,          15.,  -7.05882359,   28.3582096
   3316,          15.,  -5.58823538,   28.3582096
   3317,          15.,  -4.11764717,   28.3582096
   3318,          15.,  -2.64705873,   28.3582096
   3319,          15.,  -1.17647064,   28.3582096
   3320,          15.,  0.294117659,   28.3582096
   3321,          15.,    1.7647059,   28.3582096
   3322,          15.,    3.2352941,   28.3582096
   3323,          15.,   4.70588255,   28.3582096
   3324,          15.,   6.17647076,   28.3582096
   3325,          15.,   7.64705896,   28.3582096
   3326,          15.,   9.11764717,   28.3582096
   3327,          15.,   10.5882349,   28.3582096
   3328,          15.,   12.0588236,   28.3582096
   3329,          15.,   13.5294113,   28.3582096
   3330,          15.,          15.,   28.3582096
   3331,          15.,         -10.,   26.8656712
   3332,          15.,  -8.52941132,   26.8656712
   3333,          15.,  -7.05882359,   26.8656712
   3334,          15.,  -5.58823538,   26.8656712
   3335,          15.,  -4.11764717,   26.8656712
   3336,          15.,  -2.64705873,   26.8656712
   3337,          15.,  -1.17647064,   26.8656712
   3338,          15.,  0.294117659,   26.8656712
   3339,          15.,    1.7647059,   26.8656712
   3340,          15.,    3.2352941,   26.8656712
   3341,          15.,   4.70588255,   26.8656712
   3342,          15.,   6.17647076,   26.8656712
   3343,          15.,   7.64705896,   26.8656712
   3344,          15.,   9.11764717,   26.8656712
   3345,          15.,   10.5882349,   26.8656712
   3346,          15.,   12.0588236,   26.8656712
   3347,          15.,   13.5294113,   26.8656712
   3348,          15.,          15.,   26.8656712
   3349,          15.,         -10.,   25.3731346
   3350,          15.,  -8.52941132,   25.3731346
   3351,          15.,  -7.05882359,   25.3731346
   3352,          15.,  -5.58823538,   25.3731346
   3353,          15.,  -4.11764717,   25.3731346
   3354,          15.,  -2.64705873,   25.3731346
   3355,          15.,  -1.17647064,   25.3731346
   3356,          15.,  0.294117659,   25.3731346
   3357,          15.,    1.7647059,   25.3731346
   3358,          15.,    3.2352941,   25.3731346
   3359,          15.,   4.70588255,   25.3731346
   3360,          15.,   6.17647076,   25.3731346
   3361,          15.,   7.64705896,   25.3731346
   3362,          15.,   9.11764717,   25.3731346
   3363,          15.,   10.5882349,   25.3731346
   3364,          15.,   12.0588236,   25.3731346
   3365,          15.,   13.5294113,   25.3731346
   3366,          15.,          15.,   25.3731346
   3367,          15.,         -10.,   23.8805962
   3368,          15.,  -8.52941132,   23.8805962
   3369,          15.,  -7.05882359,   23.8805962
   3370,          15.,  -5.58823538,   23.8805962
   3371,          15.,  -4.11764717,   23.8805962
   3372,          15.,  -2.64705873,   23.8805962
   3373,          15.,  -1.17647064,   23.8805962
   3374,          15.,  0.294117659,   23.8805962
   3375,          15.,    1.7647059,   23.8805962
   3376,          15.,    3.2352941,   23.8805962
   3377,          15.,   4.70588255,   23.8805962
   3378,          15.,   6.17647076,   23.8805962
   3379,          15.,   7.64705896,   23.8805962
   3380,          15.,   9.11764717,   23.8805962
   3381,          15.,   10.5882349,   23.8805962
   3382,          15.,   12.0588236,   23.8805962
   3383,          15.,   13.5294113,   23.8805962
   3384,          15.,          15.,   23.8805962
   3385,          15.,         -10.,   22.3880596
   3386,          15.,  -8.52941132,   22.3880596
   3387,          15.,  -7.05882359,   22.3880596
   3388,          15.,  -5.58823538,   22.3880596
   3389,          15.,  -4.11764717,   22.3880596
   3390,          15.,  -2.64705873,   22.3880596
   3391,          15.,  -1.17647064,   22.3880596
   3392,          15.,  0.294117659,   22.3880596
   3393,          15.,    1.7647059,   22.3880596
   3394,          15.,    3.2352941,   22.3880596
   3395,          15.,   4.70588255,   22.3880596
   3396,          15.,   6.17647076,   22.3880596
   3397,          15.,   7.64705896,   22.3880596
   3398,          15.,   9.11764717,   22.3880596
   3399,          15.,   10.5882349,   22.3880596
   3400,          15.,   12.0588236,   22.3880596
   3401,          15.,   13.5294113,   22.3880596
   3402,          15.,          15.,   22.3880596
   3403,          15.,         -10.,   20.8955231
   3404,          15.,  -8.52941132,   20.8955231
   3405,          15.,  -7.05882359,   20.8955231
   3406,          15.,  -5.58823538,   20.8955231
   3407,          15.,  -4.11764717,   20.8955231
   3408,          15.,  -2.64705873,   20.8955231
   3409,          15.,  -1.17647064,   20.8955231
   3410,          15.,  0.294117659,   20.8955231
   3411,          15.,    1.7647059,   20.8955231
   3412,          15.,    3.2352941,   20.8955231
   3413,          15.,   4.70588255,   20.8955231
   3414,          15.,   6.17647076,   20.8955231
   3415,          15.,   7.64705896,   20.8955231
   3416,          15.,   9.11764717,   20.8955231
   3417,          15.,   10.5882349,   20.8955231
   3418,          15.,   12.0588236,   20.8955231
   3419,          15.,   13.5294113,   20.8955231
   3420,          15.,          15.,   20.8955231
   3421,          15.,         -10.,   19.4029846
   3422,          15.,  -8.52941132,   19.4029846
   3423,          15.,  -7.05882359,   19.4029846
   3424,          15.,  -5.58823538,   19.4029846
   3425,          15.,  -4.11764717,   19.4029846
   3426,          15.,  -2.64705873,   19.4029846
   3427,          15.,  -1.17647064,   19.4029846
   3428,          15.,  0.294117659,   19.4029846
   3429,          15.,    1.7647059,   19.4029846
   3430,          15.,    3.2352941,   19.4029846
   3431,          15.,   4.70588255,   19.4029846
   3432,          15.,   6.17647076,   19.4029846
   3433,          15.,   7.64705896,   19.4029846
   3434,          15.,   9.11764717,   19.4029846
   3435,          15.,   10.5882349,   19.4029846
   3436,          15.,   12.0588236,   19.4029846
   3437,          15.,   13.5294113,   19.4029846
   3438,          15.,          15.,   19.4029846
   3439,          15.,         -10.,   17.9104481
   3440,          15.,  -8.52941132,   17.9104481
   3441,          15.,  -7.05882359,   17.9104481
   3442,          15.,  -5.58823538,   17.9104481
   3443,          15.,  -4.11764717,   17.9104481
   3444,          15.,  -2.64705873,   17.9104481
   3445,          15.,  -1.17647064,   17.9104481
   3446,          15.,  0.294117659,   17.9104481
   3447,          15.,    1.7647059,   17.9104481
   3448,          15.,    3.2352941,   17.9104481
   3449,          15.,   4.70588255,   17.9104481
   3450,          15.,   6.17647076,   17.9104481
   3451,          15.,   7.64705896,   17.9104481
   3452,          15.,   9.11764717,   17.9104481
   3453,          15.,   10.5882349,   17.9104481
   3454,          15.,   12.0588236,   17.9104481
   3455,          15.,   13.5294113,   17.9104481
   3456,          15.,          15.,   17.9104481
   3457,          15.,         -10.,   16.4179096
   3458,          15.,  -8.52941132,   16.4179096
   3459,          15.,  -7.05882359,   16.4179096
   3460,          15.,  -5.58823538,   16.4179096
   3461,          15.,  -4.11764717,   16.4179096
   3462,          15.,  -2.64705873,   16.4179096
   3463,          15.,  -1.17647064,   16.4179096
   3464,          15.,  0.294117659,   16.4179096
   3465,          15.,    1.7647059,   16.4179096
   3466,          15.,    3.2352941,   16.4179096
   3467,          15.,   4.70588255,   16.4179096
   3468,          15.,   6.17647076,   16.4179096
   3469,          15.,   7.64705896,   16.4179096
   3470,          15.,   9.11764717,   16.4179096
   3471,          15.,   10.5882349,   16.4179096
   3472,          15.,   12.0588236,   16.4179096
   3473,          15.,   13.5294113,   16.4179096
   3474,          15.,          15.,   16.4179096
   3475,          15.,         -10.,   14.9253731
   3476,          15.,  -8.52941132,   14.9253731
   3477,          15.,  -7.05882359,   14.9253731
   3478,          15.,  -5.58823538,   14.9253731
   3479,          15.,  -4.11764717,   14.9253731
   3480,          15.,  -2.64705873,   14.9253731
   3481,          15.,  -1.17647064,   14.9253731
   3482,          15.,  0.294117659,   14.9253731
   3483,          15.,    1.7647059,   14.9253731
   3484,          15.,    3.2352941,   14.9253731
   3485,          15.,   4.70588255,   14.9253731
   3486,          15.,   6.17647076,   14.9253731
   3487,          15.,   7.64705896,   14.9253731
   3488,          15.,   9.11764717,   14.9253731
   3489,          15.,   10.5882349,   14.9253731
   3490,          15.,   12.0588236,   14.9253731
   3491,          15.,   13.5294113,   14.9253731
   3492,          15.,          15.,   14.9253731
   3493,          15.,         -10.,   13.4328356
   3494,          15.,  -8.52941132,   13.4328356
   3495,          15.,  -7.05882359,   13.4328356
   3496,          15.,  -5.58823538,   13.4328356
   3497,          15.,  -4.11764717,   13.4328356
   3498,          15.,  -2.64705873,   13.4328356
   3499,          15.,  -1.17647064,   13.4328356
   3500,          15.,  0.294117659,   13.4328356
   3501,          15.,    1.7647059,   13.4328356
   3502,          15.,    3.2352941,   13.4328356
   3503,          15.,   4.70588255,   13.4328356
   3504,          15.,   6.17647076,   13.4328356
   3505,          15.,   7.64705896,   13.4328356
   3506,          15.,   9.11764717,   13.4328356
   3507,          15.,   10.5882349,   13.4328356
   3508,          15.,   12.0588236,   13.4328356
   3509,          15.,   13.5294113,   13.4328356
   3510,          15.,          15.,   13.4328356
   3511,          15.,         -10.,   11.9402981
   3512,          15.,  -8.52941132,   11.9402981
   3513,          15.,  -7.05882359,   11.9402981
   3514,          15.,  -5.58823538,   11.9402981
   3515,          15.,  -4.11764717,   11.9402981
   3516,          15.,  -2.64705873,   11.9402981
   3517,          15.,  -1.17647064,   11.9402981
   3518,          15.,  0.294117659,   11.9402981
   3519,          15.,    1.7647059,   11.9402981
   3520,          15.,    3.2352941,   11.9402981
   3521,          15.,   4.70588255,   11.9402981
   3522,          15.,   6.17647076,   11.9402981
   3523,          15.,   7.64705896,   11.9402981
   3524,          15.,   9.11764717,   11.9402981
   3525,          15.,   10.5882349,   11.9402981
   3526,          15.,   12.0588236,   11.9402981
   3527,          15.,   13.5294113,   11.9402981
   3528,          15.,          15.,   11.9402981
   3529,          15.,         -10.,   10.4477615
   3530,          15.,  -8.52941132,   10.4477615
   3531,          15.,  -7.05882359,   10.4477615
   3532,          15.,  -5.58823538,   10.4477615
   3533,          15.,  -4.11764717,   10.4477615
   3534,          15.,  -2.64705873,   10.4477615
   3535,          15.,  -1.17647064,   10.4477615
   3536,          15.,  0.294117659,   10.4477615
   3537,          15.,    1.7647059,   10.4477615
   3538,          15.,    3.2352941,   10.4477615
   3539,          15.,   4.70588255,   10.4477615
   3540,          15.,   6.17647076,   10.4477615
   3541,          15.,   7.64705896,   10.4477615
   3542,          15.,   9.11764717,   10.4477615
   3543,          15.,   10.5882349,   10.4477615
   3544,          15.,   12.0588236,   10.4477615
   3545,          15.,   13.5294113,   10.4477615
   3546,          15.,          15.,   10.4477615
   3547,          15.,         -10.,   8.95522404
   3548,          15.,  -8.52941132,   8.95522404
   3549,          15.,  -7.05882359,   8.95522404
   3550,          15.,  -5.58823538,   8.95522404
   3551,          15.,  -4.11764717,   8.95522404
   3552,          15.,  -2.64705873,   8.95522404
   3553,          15.,  -1.17647064,   8.95522404
   3554,          15.,  0.294117659,   8.95522404
   3555,          15.,    1.7647059,   8.95522404
   3556,          15.,    3.2352941,   8.95522404
   3557,          15.,   4.70588255,   8.95522404
   3558,          15.,   6.17647076,   8.95522404
   3559,          15.,   7.64705896,   8.95522404
   3560,          15.,   9.11764717,   8.95522404
   3561,          15.,   10.5882349,   8.95522404
   3562,          15.,   12.0588236,   8.95522404
   3563,          15.,   13.5294113,   8.95522404
   3564,          15.,          15.,   8.95522404
   3565,          15.,         -10.,   7.46268654
   3566,          15.,  -8.52941132,   7.46268654
   3567,          15.,  -7.05882359,   7.46268654
   3568,          15.,  -5.58823538,   7.46268654
   3569,          15.,  -4.11764717,   7.46268654
   3570,          15.,  -2.64705873,   7.46268654
   3571,          15.,  -1.17647064,   7.46268654
   3572,          15.,  0.294117659,   7.46268654
   3573,          15.,    1.7647059,   7.46268654
   3574,          15.,    3.2352941,   7.46268654
   3575,          15.,   4.70588255,   7.46268654
   3576,          15.,   6.17647076,   7.46268654
   3577,          15.,   7.64705896,   7.46268654
   3578,          15.,   9.11764717,   7.46268654
   3579,          15.,   10.5882349,   7.46268654
   3580,          15.,   12.0588236,   7.46268654
   3581,          15.,   13.5294113,   7.46268654
   3582,          15.,          15.,   7.46268654
   3583,          15.,         -10.,   5.97014904
   3584,          15.,  -8.52941132,   5.97014904
   3585,          15.,  -7.05882359,   5.97014904
   3586,          15.,  -5.58823538,   5.97014904
   3587,          15.,  -4.11764717,   5.97014904
   3588,          15.,  -2.64705873,   5.97014904
   3589,          15.,  -1.17647064,   5.97014904
   3590,          15.,  0.294117659,   5.97014904
   3591,          15.,    1.7647059,   5.97014904
   3592,          15.,    3.2352941,   5.97014904
   3593,          15.,   4.70588255,   5.97014904
   3594,          15.,   6.17647076,   5.97014904
   3595,          15.,   7.64705896,   5.97014904
   3596,          15.,   9.11764717,   5.97014904
   3597,          15.,   10.5882349,   5.97014904
   3598,          15.,   12.0588236,   5.97014904
   3599,          15.,   13.5294113,   5.97014904
   3600,          15.,          15.,   5.97014904
   3601,          15.,         -10.,   4.47761202
   3602,          15.,  -8.52941132,   4.47761202
   3603,          15.,  -7.05882359,   4.47761202
   3604,          15.,  -5.58823538,   4.47761202
   3605,          15.,  -4.11764717,   4.47761202
   3606,          15.,  -2.64705873,   4.47761202
   3607,          15.,  -1.17647064,   4.47761202
   3608,          15.,  0.294117659,   4.47761202
   3609,          15.,    1.7647059,   4.47761202
   3610,          15.,    3.2352941,   4.47761202
   3611,          15.,   4.70588255,   4.47761202
   3612,          15.,   6.17647076,   4.47761202
   3613,          15.,   7.64705896,   4.47761202
   3614,          15.,   9.11764717,   4.47761202
   3615,          15.,   10.5882349,   4.47761202
   3616,          15.,   12.0588236,   4.47761202
   3617,          15.,   13.5294113,   4.47761202
   3618,          15.,          15.,   4.47761202
   3619,          15.,         -10.,   2.98507452
   3620,          15.,  -8.52941132,   2.98507452
   3621,          15.,  -7.05882359,   2.98507452
   3622,          15.,  -5.58823538,   2.98507452
   3623,          15.,  -4.11764717,   2.98507452
   3624,          15.,  -2.64705873,   2.98507452
   3625,          15.,  -1.17647064,   2.98507452
   3626,          15.,  0.294117659,   2.98507452
   3627,          15.,    1.7647059,   2.98507452
   3628,          15.,    3.2352941,   2.98507452
   3629,          15.,   4.70588255,   2.98507452
   3630,          15.,   6.17647076,   2.98507452
   3631,          15.,   7.64705896,   2.98507452
   3632,          15.,   9.11764717,   2.98507452
   3633,          15.,   10.5882349,   2.98507452
   3634,          15.,   12.0588236,   2.98507452
   3635,          15.,   13.5294113,   2.98507452
   3636,          15.,          15.,   2.98507452
   3637,          15.,         -10.,   1.49253726
   3638,          15.,  -8.52941132,   1.49253726
   3639,          15.,  -7.05882359,   1.49253726
   3640,          15.,  -5.58823538,   1.49253726
   3641,          15.,  -4.11764717,   1.49253726
   3642,          15.,  -2.64705873,   1.49253726
   3643,          15.,  -1.17647064,   1.49253726
   3644,          15.,  0.294117659,   1.49253726
   3645,          15.,    1.7647059,   1.49253726
   3646,          15.,    3.2352941,   1.49253726
   3647,          15.,   4.70588255,   1.49253726
   3648,          15.,   6.17647076,   1.49253726
   3649,          15.,   7.64705896,   1.49253726
   3650,          15.,   9.11764717,   1.49253726
   3651,          15.,   10.5882349,   1.49253726
   3652,          15.,   12.0588236,   1.49253726
   3653,          15.,   13.5294113,   1.49253726
   3654,          15.,          15.,   1.49253726
   3655,          15.,         -10.,           0.
   3656,          15.,  -8.52941132,           0.
   3657,          15.,  -7.05882359,           0.
   3658,          15.,  -5.58823538,           0.
   3659,          15.,  -4.11764717,           0.
   3660,          15.,  -2.64705873,           0.
   3661,          15.,  -1.17647064,           0.
   3662,          15.,  0.294117659,           0.
   3663,          15.,    1.7647059,           0.
   3664,          15.,    3.2352941,           0.
   3665,          15.,   4.70588255,           0.
   3666,          15.,   6.17647076,           0.
   3667,          15.,   7.64705896,           0.
   3668,          15.,   9.11764717,           0.
   3669,          15.,   10.5882349,           0.
   3670,          15.,   12.0588236,           0.
   3671,          15.,   13.5294113,           0.
   3672,          15.,          15.,           0.
*Element, type=C3D8
   1, 1225, 1226, 1244, 1243,    1,    2,   20,   19
   2, 1226, 1227, 1245, 1244,    2,    3,   21,   20
   3, 1227, 1228, 1246, 1245,    3,    4,   22,   21
   4, 1228, 1229, 1247, 1246,    4,    5,   23,   22
   5, 1229, 1230, 1248, 1247,    5,    6,   24,   23
   6, 1230, 1231, 1249, 1248,    6,    7,   25,   24
   7, 1231, 1232, 1250, 1249,    7,    8,   26,   25
   8, 1232, 1233, 1251, 1250,    8,    9,   27,   26
   9, 1233, 1234, 1252, 1251,    9,   10,   28,   27
  10, 1234, 1235, 1253, 1252,   10,   11,   29,   28
  11, 1235, 1236, 1254, 1253,   11,   12,   30,   29
  12, 1236, 1237, 1255, 1254,   12,   13,   31,   30
  13, 1237, 1238, 1256, 1255,   13,   14,   32,   31
  14, 1238, 1239, 1257, 1256,   14,   15,   33,   32
  15, 1239, 1240, 1258, 1257,   15,   16,   34,   33
  16, 1240, 1241, 1259, 1258,   16,   17,   35,   34
  17, 1241, 1242, 1260, 1259,   17,   18,   36,   35
  18, 1243, 1244, 1262, 1261,   19,   20,   38,   37
  19, 1244, 1245, 1263, 1262,   20,   21,   39,   38
  20, 1245, 1246, 1264, 1263,   21,   22,   40,   39
  21, 1246, 1247, 1265, 1264,   22,   23,   41,   40
  22, 1247, 1248, 1266, 1265,   23,   24,   42,   41
  23, 1248, 1249, 1267, 1266,   24,   25,   43,   42
  24, 1249, 1250, 1268, 1267,   25,   26,   44,   43
  25, 1250, 1251, 1269, 1268,   26,   27,   45,   44
  26, 1251, 1252, 1270, 1269,   27,   28,   46,   45
  27, 1252, 1253, 1271, 1270,   28,   29,   47,   46
  28, 1253, 1254, 1272, 1271,   29,   30,   48,   47
  29, 1254, 1255, 1273, 1272,   30,   31,   49,   48
  30, 1255, 1256, 1274, 1273,   31,   32,   50,   49
  31, 1256, 1257, 1275, 1274,   32,   33,   51,   50
  32, 1257, 1258, 1276, 1275,   33,   34,   52,   51
  33, 1258, 1259, 1277, 1276,   34,   35,   53,   52
  34, 1259, 1260, 1278, 1277,   35,   36,   54,   53
  35, 1261, 1262, 1280, 1279,   37,   38,   56,   55
  36, 1262, 1263, 1281, 1280,   38,   39,   57,   56
  37, 1263, 1264, 1282, 1281,   39,   40,   58,   57
  38, 1264, 1265, 1283, 1282,   40,   41,   59,   58
  39, 1265, 1266, 1284, 1283,   41,   42,   60,   59
  40, 1266, 1267, 1285, 1284,   42,   43,   61,   60
  41, 1267, 1268, 1286, 1285,   43,   44,   62,   61
  42, 1268, 1269, 1287, 1286,   44,   45,   63,   62
  43, 1269, 1270, 1288, 1287,   45,   46,   64,   63
  44, 1270, 1271, 1289, 1288,   46,   47,   65,   64
  45, 1271, 1272, 1290, 1289,   47,   48,   66,   65
  46, 1272, 1273, 1291, 1290,   48,   49,   67,   66
  47, 1273, 1274, 1292, 1291,   49,   50,   68,   67
  48, 1274, 1275, 1293, 1292,   50,   51,   69,   68
  49, 1275, 1276, 1294, 1293,   51,   52,   70,   69
  50, 1276, 1277, 1295, 1294,   52,   53,   71,   70
  51, 1277, 1278, 1296, 1295,   53,   54,   72,   71
  52, 1279, 1280, 1298, 1297,   55,   56,   74,   73
  53, 1280, 1281, 1299, 1298,   56,   57,   75,   74
  54, 1281, 1282, 1300, 1299,   57,   58,   76,   75
  55, 1282, 1283, 1301, 1300,   58,   59,   77,   76
  56, 1283, 1284, 1302, 1301,   59,   60,   78,   77
  57, 1284, 1285, 1303, 1302,   60,   61,   79,   78
  58, 1285, 1286, 1304, 1303,   61,   62,   80,   79
  59, 1286, 1287, 1305, 1304,   62,   63,   81,   80
  60, 1287, 1288, 1306, 1305,   63,   64,   82,   81
  61, 1288, 1289, 1307, 1306,   64,   65,   83,   82
  62, 1289, 1290, 1308, 1307,   65,   66,   84,   83
  63, 1290, 1291, 1309, 1308,   66,   67,   85,   84
  64, 1291, 1292, 1310, 1309,   67,   68,   86,   85
  65, 1292, 1293, 1311, 1310,   68,   69,   87,   86
  66, 1293, 1294, 1312, 1311,   69,   70,   88,   87
  67, 1294, 1295, 1313, 1312,   70,   71,   89,   88
  68, 1295, 1296, 1314, 1313,   71,   72,   90,   89
  69, 1297, 1298, 1316, 1315,   73,   74,   92,   91
  70, 1298, 1299, 1317, 1316,   74,   75,   93,   92
  71, 1299, 1300, 1318, 1317,   75,   76,   94,   93
  72, 1300, 1301, 1319, 1318,   76,   77,   95,   94
  73, 1301, 1302, 1320, 1319,   77,   78,   96,   95
  74, 1302, 1303, 1321, 1320,   78,   79,   97,   96
  75, 1303, 1304, 1322, 1321,   79,   80,   98,   97
  76, 1304, 1305, 1323, 1322,   80,   81,   99,   98
  77, 1305, 1306, 1324, 1323,   81,   82,  100,   99
  78, 1306, 1307, 1325, 1324,   82,   83,  101,  100
  79, 1307, 1308, 1326, 1325,   83,   84,  102,  101
  80, 1308, 1309, 1327, 1326,   84,   85,  103,  102
  81, 1309, 1310, 1328, 1327,   85,   86,  104,  103
  82, 1310, 1311, 1329, 1328,   86,   87,  105,  104
  83, 1311, 1312, 1330, 1329,   87,   88,  106,  105
  84, 1312, 1313, 1331, 1330,   88,   89,  107,  106
  85, 1313, 1314, 1332, 1331,   89,   90,  108,  107
  86, 1315, 1316, 1334, 1333,   91,   92,  110,  109
  87, 1316, 1317, 1335, 1334,   92,   93,  111,  110
  88, 1317, 1318, 1336, 1335,   93,   94,  112,  111
  89, 1318, 1319, 1337, 1336,   94,   95,  113,  112
  90, 1319, 1320, 1338, 1337,   95,   96,  114,  113
  91, 1320, 1321, 1339, 1338,   96,   97,  115,  114
  92, 1321, 1322, 1340, 1339,   97,   98,  116,  115
  93, 1322, 1323, 1341, 1340,   98,   99,  117,  116
  94, 1323, 1324, 1342, 1341,   99,  100,  118,  117
  95, 1324, 1325, 1343, 1342,  100,  101,  119,  118
  96, 1325, 1326, 1344, 1343,  101,  102,  120,  119
  97, 1326, 1327, 1345, 1344,  102,  103,  121,  120
  98, 1327, 1328, 1346, 1345,  103,  104,  122,  121
  99, 1328, 1329, 1347, 1346,  104,  105,  123,  122
 100, 1329, 1330, 1348, 1347,  105,  106,  124,  123
 101, 1330, 1331, 1349, 1348,  106,  107,  125,  124
 102, 1331, 1332, 1350, 1349,  107,  108,  126,  125
 103, 1333, 1334, 1352, 1351,  109,  110,  128,  127
 104, 1334, 1335, 1353, 1352,  110,  111,  129,  128
 105, 1335, 1336, 1354, 1353,  111,  112,  130,  129
 106, 1336, 1337, 1355, 1354,  112,  113,  131,  130
 107, 1337, 1338, 1356, 1355,  113,  114,  132,  131
 108, 1338, 1339, 1357, 1356,  114,  115,  133,  132
 109, 1339, 1340, 1358, 1357,  115,  116,  134,  133
 110, 1340, 1341, 1359, 1358,  116,  117,  135,  134
 111, 1341, 1342, 1360, 1359,  117,  118,  136,  135
 112, 1342, 1343, 1361, 1360,  118,  119,  137,  136
 113, 1343, 1344, 1362, 1361,  119,  120,  138,  137
 114, 1344, 1345, 1363, 1362,  120,  121,  139,  138
 115, 1345, 1346, 1364, 1363,  121,  122,  140,  139
 116, 1346, 1347, 1365, 1364,  122,  123,  141,  140
 117, 1347, 1348, 1366, 1365,  123,  124,  142,  141
 118, 1348, 1349, 1367, 1366,  124,  125,  143,  142
 119, 1349, 1350, 1368, 1367,  125,  126,  144,  143
 120, 1351, 1352, 1370, 1369,  127,  128,  146,  145
 121, 1352, 1353, 1371, 1370,  128,  129,  147,  146
 122, 1353, 1354, 1372, 1371,  129,  130,  148,  147
 123, 1354, 1355, 1373, 1372,  130,  131,  149,  148
 124, 1355, 1356, 1374, 1373,  131,  132,  150,  149
 125, 1356, 1357, 1375, 1374,  132,  133,  151,  150
 126, 1357, 1358, 1376, 1375,  133,  134,  152,  151
 127, 1358, 1359, 1377, 1376,  134,  135,  153,  152
 128, 1359, 1360, 1378, 1377,  135,  136,  154,  153
 129, 1360, 1361, 1379, 1378,  136,  137,  155,  154
 130, 1361, 1362, 1380, 1379,  137,  138,  156,  155
 131, 1362, 1363, 1381, 1380,  138,  139,  157,  156
 132, 1363, 1364, 1382, 1381,  139,  140,  158,  157
 133, 1364, 1365, 1383, 1382,  140,  141,  159,  158
 134, 1365, 1366, 1384, 1383,  141,  142,  160,  159
 135, 1366, 1367, 1385, 1384,  142,  143,  161,  160
 136, 1367, 1368, 1386, 1385,  143,  144,  162,  161
 137, 1369, 1370, 1388, 1387,  145,  146,  164,  163
 138, 1370, 1371, 1389, 1388,  146,  147,  165,  164
 139, 1371, 1372, 1390, 1389,  147,  148,  166,  165
 140, 1372, 1373, 1391, 1390,  148,  149,  167,  166
 141, 1373, 1374, 1392, 1391,  149,  150,  168,  167
 142, 1374, 1375, 1393, 1392,  150,  151,  169,  168
 143, 1375, 1376, 1394, 1393,  151,  152,  170,  169
 144, 1376, 1377, 1395, 1394,  152,  153,  171,  170
 145, 1377, 1378, 1396, 1395,  153,  154,  172,  171
 146, 1378, 1379, 1397, 1396,  154,  155,  173,  172
 147, 1379, 1380, 1398, 1397,  155,  156,  174,  173
 148, 1380, 1381, 1399, 1398,  156,  157,  175,  174
 149, 1381, 1382, 1400, 1399,  157,  158,  176,  175
 150, 1382, 1383, 1401, 1400,  158,  159,  177,  176
 151, 1383, 1384, 1402, 1401,  159,  160,  178,  177
 152, 1384, 1385, 1403, 1402,  160,  161,  179,  178
 153, 1385, 1386, 1404, 1403,  161,  162,  180,  179
 154, 1387, 1388, 1406, 1405,  163,  164,  182,  181
 155, 1388, 1389, 1407, 1406,  164,  165,  183,  182
 156, 1389, 1390, 1408, 1407,  165,  166,  184,  183
 157, 1390, 1391, 1409, 1408,  166,  167,  185,  184
 158, 1391, 1392, 1410, 1409,  167,  168,  186,  185
 159, 1392, 1393, 1411, 1410,  168,  169,  187,  186
 160, 1393, 1394, 1412, 1411,  169,  170,  188,  187
 161, 1394, 1395, 1413, 1412,  170,  171,  189,  188
 162, 1395, 1396, 1414, 1413,  171,  172,  190,  189
 163, 1396, 1397, 1415, 1414,  172,  173,  191,  190
 164, 1397, 1398, 1416, 1415,  173,  174,  192,  191
 165, 1398, 1399, 1417, 1416,  174,  175,  193,  192
 166, 1399, 1400, 1418, 1417,  175,  176,  194,  193
 167, 1400, 1401, 1419, 1418,  176,  177,  195,  194
 168, 1401, 1402, 1420, 1419,  177,  178,  196,  195
 169, 1402, 1403, 1421, 1420,  178,  179,  197,  196
 170, 1403, 1404, 1422, 1421,  179,  180,  198,  197
 171, 1405, 1406, 1424, 1423,  181,  182,  200,  199
 172, 1406, 1407, 1425, 1424,  182,  183,  201,  200
 173, 1407, 1408, 1426, 1425,  183,  184,  202,  201
 174, 1408, 1409, 1427, 1426,  184,  185,  203,  202
 175, 1409, 1410, 1428, 1427,  185,  186,  204,  203
 176, 1410, 1411, 1429, 1428,  186,  187,  205,  204
 177, 1411, 1412, 1430, 1429,  187,  188,  206,  205
 178, 1412, 1413, 1431, 1430,  188,  189,  207,  206
 179, 1413, 1414, 1432, 1431,  189,  190,  208,  207
 180, 1414, 1415, 1433, 1432,  190,  191,  209,  208
 181, 1415, 1416, 1434, 1433,  191,  192,  210,  209
 182, 1416, 1417, 1435, 1434,  192,  193,  211,  210
 183, 1417, 1418, 1436, 1435,  193,  194,  212,  211
 184, 1418, 1419, 1437, 1436,  194,  195,  213,  212
 185, 1419, 1420, 1438, 1437,  195,  196,  214,  213
 186, 1420, 1421, 1439, 1438,  196,  197,  215,  214
 187, 1421, 1422, 1440, 1439,  197,  198,  216,  215
 188, 1423, 1424, 1442, 1441,  199,  200,  218,  217
 189, 1424, 1425, 1443, 1442,  200,  201,  219,  218
 190, 1425, 1426, 1444, 1443,  201,  202,  220,  219
 191, 1426, 1427, 1445, 1444,  202,  203,  221,  220
 192, 1427, 1428, 1446, 1445,  203,  204,  222,  221
 193, 1428, 1429, 1447, 1446,  204,  205,  223,  222
 194, 1429, 1430, 1448, 1447,  205,  206,  224,  223
 195, 1430, 1431, 1449, 1448,  206,  207,  225,  224
 196, 1431, 1432, 1450, 1449,  207,  208,  226,  225
 197, 1432, 1433, 1451, 1450,  208,  209,  227,  226
 198, 1433, 1434, 1452, 1451,  209,  210,  228,  227
 199, 1434, 1435, 1453, 1452,  210,  211,  229,  228
 200, 1435, 1436, 1454, 1453,  211,  212,  230,  229
 201, 1436, 1437, 1455, 1454,  212,  213,  231,  230
 202, 1437, 1438, 1456, 1455,  213,  214,  232,  231
 203, 1438, 1439, 1457, 1456,  214,  215,  233,  232
 204, 1439, 1440, 1458, 1457,  215,  216,  234,  233
 205, 1441, 1442, 1460, 1459,  217,  218,  236,  235
 206, 1442, 1443, 1461, 1460,  218,  219,  237,  236
 207, 1443, 1444, 1462, 1461,  219,  220,  238,  237
 208, 1444, 1445, 1463, 1462,  220,  221,  239,  238
 209, 1445, 1446, 1464, 1463,  221,  222,  240,  239
 210, 1446, 1447, 1465, 1464,  222,  223,  241,  240
 211, 1447, 1448, 1466, 1465,  223,  224,  242,  241
 212, 1448, 1449, 1467, 1466,  224,  225,  243,  242
 213, 1449, 1450, 1468, 1467,  225,  226,  244,  243
 214, 1450, 1451, 1469, 1468,  226,  227,  245,  244
 215, 1451, 1452, 1470, 1469,  227,  228,  246,  245
 216, 1452, 1453, 1471, 1470,  228,  229,  247,  246
 217, 1453, 1454, 1472, 1471,  229,  230,  248,  247
 218, 1454, 1455, 1473, 1472,  230,  231,  249,  248
 219, 1455, 1456, 1474, 1473,  231,  232,  250,  249
 220, 1456, 1457, 1475, 1474,  232,  233,  251,  250
 221, 1457, 1458, 1476, 1475,  233,  234,  252,  251
 222, 1459, 1460, 1478, 1477,  235,  236,  254,  253
 223, 1460, 1461, 1479, 1478,  236,  237,  255,  254
 224, 1461, 1462, 1480, 1479,  237,  238,  256,  255
 225, 1462, 1463, 1481, 1480,  238,  239,  257,  256
 226, 1463, 1464, 1482, 1481,  239,  240,  258,  257
 227, 1464, 1465, 1483, 1482,  240,  241,  259,  258
 228, 1465, 1466, 1484, 1483,  241,  242,  260,  259
 229, 1466, 1467, 1485, 1484,  242,  243,  261,  260
 230, 1467, 1468, 1486, 1485,  243,  244,  262,  261
 231, 1468, 1469, 1487, 1486,  244,  245,  263,  262
 232, 1469, 1470, 1488, 1487,  245,  246,  264,  263
 233, 1470, 1471, 1489, 1488,  246,  247,  265,  264
 234, 1471, 1472, 1490, 1489,  247,  248,  266,  265
 235, 1472, 1473, 1491, 1490,  248,  249,  267,  266
 236, 1473, 1474, 1492, 1491,  249,  250,  268,  267
 237, 1474, 1475, 1493, 1492,  250,  251,  269,  268
 238, 1475, 1476, 1494, 1493,  251,  252,  270,  269
 239, 1477, 1478, 1496, 1495,  253,  254,  272,  271
 240, 1478, 1479, 1497, 1496,  254,  255,  273,  272
 241, 1479, 1480, 1498, 1497,  255,  256,  274,  273
 242, 1480, 1481, 1499, 1498,  256,  257,  275,  274
 243, 1481, 1482, 1500, 1499,  257,  258,  276,  275
 244, 1482, 1483, 1501, 1500,  258,  259,  277,  276
 245, 1483, 1484, 1502, 1501,  259,  260,  278,  277
 246, 1484, 1485, 1503, 1502,  260,  261,  279,  278
 247, 1485, 1486, 1504, 1503,  261,  262,  280,  279
 248, 1486, 1487, 1505, 1504,  262,  263,  281,  280
 249, 1487, 1488, 1506, 1505,  263,  264,  282,  281
 250, 1488, 1489, 1507, 1506,  264,  265,  283,  282
 251, 1489, 1490, 1508, 1507,  265,  266,  284,  283
 252, 1490, 1491, 1509, 1508,  266,  267,  285,  284
 253, 1491, 1492, 1510, 1509,  267,  268,  286,  285
 254, 1492, 1493, 1511, 1510,  268,  269,  287,  286
 255, 1493, 1494, 1512, 1511,  269,  270,  288,  287
 256, 1495, 1496, 1514, 1513,  271,  272,  290,  289
 257, 1496, 1497, 1515, 1514,  272,  273,  291,  290
 258, 1497, 1498, 1516, 1515,  273,  274,  292,  291
 259, 1498, 1499, 1517, 1516,  274,  275,  293,  292
 260, 1499, 1500, 1518, 1517,  275,  276,  294,  293
 261, 1500, 1501, 1519, 1518,  276,  277,  295,  294
 262, 1501, 1502, 1520, 1519,  277,  278,  296,  295
 263, 1502, 1503, 1521, 1520,  278,  279,  297,  296
 264, 1503, 1504, 1522, 1521,  279,  280,  298,  297
 265, 1504, 1505, 1523, 1522,  280,  281,  299,  298
 266, 1505, 1506, 1524, 1523,  281,  282,  300,  299
 267, 1506, 1507, 1525, 1524,  282,  283,  301,  300
 268, 1507, 1508, 1526, 1525,  283,  284,  302,  301
 269, 1508, 1509, 1527, 1526,  284,  285,  303,  302
 270, 1509, 1510, 1528, 1527,  285,  286,  304,  303
 271, 1510, 1511, 1529, 1528,  286,  287,  305,  304
 272, 1511, 1512, 1530, 1529,  287,  288,  306,  305
 273, 1513, 1514, 1532, 1531,  289,  290,  308,  307
 274, 1514, 1515, 1533, 1532,  290,  291,  309,  308
 275, 1515, 1516, 1534, 1533,  291,  292,  310,  309
 276, 1516, 1517, 1535, 1534,  292,  293,  311,  310
 277, 1517, 1518, 1536, 1535,  293,  294,  312,  311
 278, 1518, 1519, 1537, 1536,  294,  295,  313,  312
 279, 1519, 1520, 1538, 1537,  295,  296,  314,  313
 280, 1520, 1521, 1539, 1538,  296,  297,  315,  314
 281, 1521, 1522, 1540, 1539,  297,  298,  316,  315
 282, 1522, 1523, 1541, 1540,  298,  299,  317,  316
 283, 1523, 1524, 1542, 1541,  299,  300,  318,  317
 284, 1524, 1525, 1543, 1542,  300,  301,  319,  318
 285, 1525, 1526, 1544, 1543,  301,  302,  320,  319
 286, 1526, 1527, 1545, 1544,  302,  303,  321,  320
 287, 1527, 1528, 1546, 1545,  303,  304,  322,  321
 288, 1528, 1529, 1547, 1546,  304,  305,  323,  322
 289, 1529, 1530, 1548, 1547,  305,  306,  324,  323
 290, 1531, 1532, 1550, 1549,  307,  308,  326,  325
 291, 1532, 1533, 1551, 1550,  308,  309,  327,  326
 292, 1533, 1534, 1552, 1551,  309,  310,  328,  327
 293, 1534, 1535, 1553, 1552,  310,  311,  329,  328
 294, 1535, 1536, 1554, 1553,  311,  312,  330,  329
 295, 1536, 1537, 1555, 1554,  312,  313,  331,  330
 296, 1537, 1538, 1556, 1555,  313,  314,  332,  331
 297, 1538, 1539, 1557, 1556,  314,  315,  333,  332
 298, 1539, 1540, 1558, 1557,  315,  316,  334,  333
 299, 1540, 1541, 1559, 1558,  316,  317,  335,  334
 300, 1541, 1542, 1560, 1559,  317,  318,  336,  335
 301, 1542, 1543, 1561, 1560,  318,  319,  337,  336
 302, 1543, 1544, 1562, 1561,  319,  320,  338,  337
 303, 1544, 1545, 1563, 1562,  320,  321,  339,  338
 304, 1545, 1546, 1564, 1563,  321,  322,  340,  339
 305, 1546, 1547, 1565, 1564,  322,  323,  341,  340
 306, 1547, 1548, 1566, 1565,  323,  324,  342,  341
 307, 1549, 1550, 1568, 1567,  325,  326,  344,  343
 308, 1550, 1551, 1569, 1568,  326,  327,  345,  344
 309, 1551, 1552, 1570, 1569,  327,  328,  346,  345
 310, 1552, 1553, 1571, 1570,  328,  329,  347,  346
 311, 1553, 1554, 1572, 1571,  329,  330,  348,  347
 312, 1554, 1555, 1573, 1572,  330,  331,  349,  348
 313, 1555, 1556, 1574, 1573,  331,  332,  350,  349
 314, 1556, 1557, 1575, 1574,  332,  333,  351,  350
 315, 1557, 1558, 1576, 1575,  333,  334,  352,  351
 316, 1558, 1559, 1577, 1576,  334,  335,  353,  352
 317, 1559, 1560, 1578, 1577,  335,  336,  354,  353
 318, 1560, 1561, 1579, 1578,  336,  337,  355,  354
 319, 1561, 1562, 1580, 1579,  337,  338,  356,  355
 320, 1562, 1563, 1581, 1580,  338,  339,  357,  356
 321, 1563, 1564, 1582, 1581,  339,  340,  358,  357
 322, 1564, 1565, 1583, 1582,  340,  341,  359,  358
 323, 1565, 1566, 1584, 1583,  341,  342,  360,  359
 324, 1567, 1568, 1586, 1585,  343,  344,  362,  361
 325, 1568, 1569, 1587, 1586,  344,  345,  363,  362
 326, 1569, 1570, 1588, 1587,  345,  346,  364,  363
 327, 1570, 1571, 1589, 1588,  346,  347,  365,  364
 328, 1571, 1572, 1590, 1589,  347,  348,  366,  365
 329, 1572, 1573, 1591, 1590,  348,  349,  367,  366
 330, 1573, 1574, 1592, 1591,  349,  350,  368,  367
 331, 1574, 1575, 1593, 1592,  350,  351,  369,  368
 332, 1575, 1576, 1594, 1593,  351,  352,  370,  369
 333, 1576, 1577, 1595, 1594,  352,  353,  371,  370
 334, 1577, 1578, 1596, 1595,  353,  354,  372,  371
 335, 1578, 1579, 1597, 1596,  354,  355,  373,  372
 336, 1579, 1580, 1598, 1597,  355,  356,  374,  373
 337, 1580, 1581, 1599, 1598,  356,  357,  375,  374
 338, 1581, 1582, 1600, 1599,  357,  358,  376,  375
 339, 1582, 1583, 1601, 1600,  358,  359,  377,  376
 340, 1583, 1584, 1602, 1601,  359,  360,  378,  377
 341, 1585, 1586, 1604, 1603,  361,  362,  380,  379
 342, 1586, 1587, 1605, 1604,  362,  363,  381,  380
 343, 1587, 1588, 1606, 1605,  363,  364,  382,  381
 344, 1588, 1589, 1607, 1606,  364,  365,  383,  382
 345, 1589, 1590, 1608, 1607,  365,  366,  384,  383
 346, 1590, 1591, 1609, 1608,  366,  367,  385,  384
 347, 1591, 1592, 1610, 1609,  367,  368,  386,  385
 348, 1592, 1593, 1611, 1610,  368,  369,  387,  386
 349, 1593, 1594, 1612, 1611,  369,  370,  388,  387
 350, 1594, 1595, 1613, 1612,  370,  371,  389,  388
 351, 1595, 1596, 1614, 1613,  371,  372,  390,  389
 352, 1596, 1597, 1615, 1614,  372,  373,  391,  390
 353, 1597, 1598, 1616, 1615,  373,  374,  392,  391
 354, 1598, 1599, 1617, 1616,  374,  375,  393,  392
 355, 1599, 1600, 1618, 1617,  375,  376,  394,  393
 356, 1600, 1601, 1619, 1618,  376,  377,  395,  394
 357, 1601, 1602, 1620, 1619,  377,  378,  396,  395
 358, 1603, 1604, 1622, 1621,  379,  380,  398,  397
 359, 1604, 1605, 1623, 1622,  380,  381,  399,  398
 360, 1605, 1606, 1624, 1623,  381,  382,  400,  399
 361, 1606, 1607, 1625, 1624,  382,  383,  401,  400
 362, 1607, 1608, 1626, 1625,  383,  384,  402,  401
 363, 1608, 1609, 1627, 1626,  384,  385,  403,  402
 364, 1609, 1610, 1628, 1627,  385,  386,  404,  403
 365, 1610, 1611, 1629, 1628,  386,  387,  405,  404
 366, 1611, 1612, 1630, 1629,  387,  388,  406,  405
 367, 1612, 1613, 1631, 1630,  388,  389,  407,  406
 368, 1613, 1614, 1632, 1631,  389,  390,  408,  407
 369, 1614, 1615, 1633, 1632,  390,  391,  409,  408
 370, 1615, 1616, 1634, 1633,  391,  392,  410,  409
 371, 1616, 1617, 1635, 1634,  392,  393,  411,  410
 372, 1617, 1618, 1636, 1635,  393,  394,  412,  411
 373, 1618, 1619, 1637, 1636,  394,  395,  413,  412
 374, 1619, 1620, 1638, 1637,  395,  396,  414,  413
 375, 1621, 1622, 1640, 1639,  397,  398,  416,  415
 376, 1622, 1623, 1641, 1640,  398,  399,  417,  416
 377, 1623, 1624, 1642, 1641,  399,  400,  418,  417
 378, 1624, 1625, 1643, 1642,  400,  401,  419,  418
 379, 1625, 1626, 1644, 1643,  401,  402,  420,  419
 380, 1626, 1627, 1645, 1644,  402,  403,  421,  420
 381, 1627, 1628, 1646, 1645,  403,  404,  422,  421
 382, 1628, 1629, 1647, 1646,  404,  405,  423,  422
 383, 1629, 1630, 1648, 1647,  405,  406,  424,  423
 384, 1630, 1631, 1649, 1648,  406,  407,  425,  424
 385, 1631, 1632, 1650, 1649,  407,  408,  426,  425
 386, 1632, 1633, 1651, 1650,  408,  409,  427,  426
 387, 1633, 1634, 1652, 1651,  409,  410,  428,  427
 388, 1634, 1635, 1653, 1652,  410,  411,  429,  428
 389, 1635, 1636, 1654, 1653,  411,  412,  430,  429
 390, 1636, 1637, 1655, 1654,  412,  413,  431,  430
 391, 1637, 1638, 1656, 1655,  413,  414,  432,  431
 392, 1639, 1640, 1658, 1657,  415,  416,  434,  433
 393, 1640, 1641, 1659, 1658,  416,  417,  435,  434
 394, 1641, 1642, 1660, 1659,  417,  418,  436,  435
 395, 1642, 1643, 1661, 1660,  418,  419,  437,  436
 396, 1643, 1644, 1662, 1661,  419,  420,  438,  437
 397, 1644, 1645, 1663, 1662,  420,  421,  439,  438
 398, 1645, 1646, 1664, 1663,  421,  422,  440,  439
 399, 1646, 1647, 1665, 1664,  422,  423,  441,  440
 400, 1647, 1648, 1666, 1665,  423,  424,  442,  441
 401, 1648, 1649, 1667, 1666,  424,  425,  443,  442
 402, 1649, 1650, 1668, 1667,  425,  426,  444,  443
 403, 1650, 1651, 1669, 1668,  426,  427,  445,  444
 404, 1651, 1652, 1670, 1669,  427,  428,  446,  445
 405, 1652, 1653, 1671, 1670,  428,  429,  447,  446
 406, 1653, 1654, 1672, 1671,  429,  430,  448,  447
 407, 1654, 1655, 1673, 1672,  430,  431,  449,  448
 408, 1655, 1656, 1674, 1673,  431,  432,  450,  449
 409, 1657, 1658, 1676, 1675,  433,  434,  452,  451
 410, 1658, 1659, 1677, 1676,  434,  435,  453,  452
 411, 1659, 1660, 1678, 1677,  435,  436,  454,  453
 412, 1660, 1661, 1679, 1678,  436,  437,  455,  454
 413, 1661, 1662, 1680, 1679,  437,  438,  456,  455
 414, 1662, 1663, 1681, 1680,  438,  439,  457,  456
 415, 1663, 1664, 1682, 1681,  439,  440,  458,  457
 416, 1664, 1665, 1683, 1682,  440,  441,  459,  458
 417, 1665, 1666, 1684, 1683,  441,  442,  460,  459
 418, 1666, 1667, 1685, 1684,  442,  443,  461,  460
 419, 1667, 1668, 1686, 1685,  443,  444,  462,  461
 420, 1668, 1669, 1687, 1686,  444,  445,  463,  462
 421, 1669, 1670, 1688, 1687,  445,  446,  464,  463
 422, 1670, 1671, 1689, 1688,  446,  447,  465,  464
 423, 1671, 1672, 1690, 1689,  447,  448,  466,  465
 424, 1672, 1673, 1691, 1690,  448,  449,  467,  466
 425, 1673, 1674, 1692, 1691,  449,  450,  468,  467
 426, 1675, 1676, 1694, 1693,  451,  452,  470,  469
 427, 1676, 1677, 1695, 1694,  452,  453,  471,  470
 428, 1677, 1678, 1696, 1695,  453,  454,  472,  471
 429, 1678, 1679, 1697, 1696,  454,  455,  473,  472
 430, 1679, 1680, 1698, 1697,  455,  456,  474,  473
 431, 1680, 1681, 1699, 1698,  456,  457,  475,  474
 432, 1681, 1682, 1700, 1699,  457,  458,  476,  475
 433, 1682, 1683, 1701, 1700,  458,  459,  477,  476
 434, 1683, 1684, 1702, 1701,  459,  460,  478,  477
 435, 1684, 1685, 1703, 1702,  460,  461,  479,  478
 436, 1685, 1686, 1704, 1703,  461,  462,  480,  479
 437, 1686, 1687, 1705, 1704,  462,  463,  481,  480
 438, 1687, 1688, 1706, 1705,  463,  464,  482,  481
 439, 1688, 1689, 1707, 1706,  464,  465,  483,  482
 440, 1689, 1690, 1708, 1707,  465,  466,  484,  483
 441, 1690, 1691, 1709, 1708,  466,  467,  485,  484
 442, 1691, 1692, 1710, 1709,  467,  468,  486,  485
 443, 1693, 1694, 1712, 1711,  469,  470,  488,  487
 444, 1694, 1695, 1713, 1712,  470,  471,  489,  488
 445, 1695, 1696, 1714, 1713,  471,  472,  490,  489
 446, 1696, 1697, 1715, 1714,  472,  473,  491,  490
 447, 1697, 1698, 1716, 1715,  473,  474,  492,  491
 448, 1698, 1699, 1717, 1716,  474,  475,  493,  492
 449, 1699, 1700, 1718, 1717,  475,  476,  494,  493
 450, 1700, 1701, 1719, 1718,  476,  477,  495,  494
 451, 1701, 1702, 1720, 1719,  477,  478,  496,  495
 452, 1702, 1703, 1721, 1720,  478,  479,  497,  496
 453, 1703, 1704, 1722, 1721,  479,  480,  498,  497
 454, 1704, 1705, 1723, 1722,  480,  481,  499,  498
 455, 1705, 1706, 1724, 1723,  481,  482,  500,  499
 456, 1706, 1707, 1725, 1724,  482,  483,  501,  500
 457, 1707, 1708, 1726, 1725,  483,  484,  502,  501
 458, 1708, 1709, 1727, 1726,  484,  485,  503,  502
 459, 1709, 1710, 1728, 1727,  485,  486,  504,  503
 460, 1711, 1712, 1730, 1729,  487,  488,  506,  505
 461, 1712, 1713, 1731, 1730,  488,  489,  507,  506
 462, 1713, 1714, 1732, 1731,  489,  490,  508,  507
 463, 1714, 1715, 1733, 1732,  490,  491,  509,  508
 464, 1715, 1716, 1734, 1733,  491,  492,  510,  509
 465, 1716, 1717, 1735, 1734,  492,  493,  511,  510
 466, 1717, 1718, 1736, 1735,  493,  494,  512,  511
 467, 1718, 1719, 1737, 1736,  494,  495,  513,  512
 468, 1719, 1720, 1738, 1737,  495,  496,  514,  513
 469, 1720, 1721, 1739, 1738,  496,  497,  515,  514
 470, 1721, 1722, 1740, 1739,  497,  498,  516,  515
 471, 1722, 1723, 1741, 1740,  498,  499,  517,  516
 472, 1723, 1724, 1742, 1741,  499,  500,  518,  517
 473, 1724, 1725, 1743, 1742,  500,  501,  519,  518
 474, 1725, 1726, 1744, 1743,  501,  502,  520,  519
 475, 1726, 1727, 1745, 1744,  502,  503,  521,  520
 476, 1727, 1728, 1746, 1745,  503,  504,  522,  521
 477, 1729, 1730, 1748, 1747,  505,  506,  524,  523
 478, 1730, 1731, 1749, 1748,  506,  507,  525,  524
 479, 1731, 1732, 1750, 1749,  507,  508,  526,  525
 480, 1732, 1733, 1751, 1750,  508,  509,  527,  526
 481, 1733, 1734, 1752, 1751,  509,  510,  528,  527
 482, 1734, 1735, 1753, 1752,  510,  511,  529,  528
 483, 1735, 1736, 1754, 1753,  511,  512,  530,  529
 484, 1736, 1737, 1755, 1754,  512,  513,  531,  530
 485, 1737, 1738, 1756, 1755,  513,  514,  532,  531
 486, 1738, 1739, 1757, 1756,  514,  515,  533,  532
 487, 1739, 1740, 1758, 1757,  515,  516,  534,  533
 488, 1740, 1741, 1759, 1758,  516,  517,  535,  534
 489, 1741, 1742, 1760, 1759,  517,  518,  536,  535
 490, 1742, 1743, 1761, 1760,  518,  519,  537,  536
 491, 1743, 1744, 1762, 1761,  519,  520,  538,  537
 492, 1744, 1745, 1763, 1762,  520,  521,  539,  538
 493, 1745, 1746, 1764, 1763,  521,  522,  540,  539
 494, 1747, 1748, 1766, 1765,  523,  524,  542,  541
 495, 1748, 1749, 1767, 1766,  524,  525,  543,  542
 496, 1749, 1750, 1768, 1767,  525,  526,  544,  543
 497, 1750, 1751, 1769, 1768,  526,  527,  545,  544
 498, 1751, 1752, 1770, 1769,  527,  528,  546,  545
 499, 1752, 1753, 1771, 1770,  528,  529,  547,  546
 500, 1753, 1754, 1772, 1771,  529,  530,  548,  547
 501, 1754, 1755, 1773, 1772,  530,  531,  549,  548
 502, 1755, 1756, 1774, 1773,  531,  532,  550,  549
 503, 1756, 1757, 1775, 1774,  532,  533,  551,  550
 504, 1757, 1758, 1776, 1775,  533,  534,  552,  551
 505, 1758, 1759, 1777, 1776,  534,  535,  553,  552
 506, 1759, 1760, 1778, 1777,  535,  536,  554,  553
 507, 1760, 1761, 1779, 1778,  536,  537,  555,  554
 508, 1761, 1762, 1780, 1779,  537,  538,  556,  555
 509, 1762, 1763, 1781, 1780,  538,  539,  557,  556
 510, 1763, 1764, 1782, 1781,  539,  540,  558,  557
 511, 1765, 1766, 1784, 1783,  541,  542,  560,  559
 512, 1766, 1767, 1785, 1784,  542,  543,  561,  560
 513, 1767, 1768, 1786, 1785,  543,  544,  562,  561
 514, 1768, 1769, 1787, 1786,  544,  545,  563,  562
 515, 1769, 1770, 1788, 1787,  545,  546,  564,  563
 516, 1770, 1771, 1789, 1788,  546,  547,  565,  564
 517, 1771, 1772, 1790, 1789,  547,  548,  566,  565
 518, 1772, 1773, 1791, 1790,  548,  549,  567,  566
 519, 1773, 1774, 1792, 1791,  549,  550,  568,  567
 520, 1774, 1775, 1793, 1792,  550,  551,  569,  568
 521, 1775, 1776, 1794, 1793,  551,  552,  570,  569
 522, 1776, 1777, 1795, 1794,  552,  553,  571,  570
 523, 1777, 1778, 1796, 1795,  553,  554,  572,  571
 524, 1778, 1779, 1797, 1796,  554,  555,  573,  572
 525, 1779, 1780, 1798, 1797,  555,  556,  574,  573
 526, 1780, 1781, 1799, 1798,  556,  557,  575,  574
 527, 1781, 1782, 1800, 1799,  557,  558,  576,  575
 528, 1783, 1784, 1802, 1801,  559,  560,  578,  577
 529, 1784, 1785, 1803, 1802,  560,  561,  579,  578
 530, 1785, 1786, 1804, 1803,  561,  562,  580,  579
 531, 1786, 1787, 1805, 1804,  562,  563,  581,  580
 532, 1787, 1788, 1806, 1805,  563,  564,  582,  581
 533, 1788, 1789, 1807, 1806,  564,  565,  583,  582
 534, 1789, 1790, 1808, 1807,  565,  566,  584,  583
 535, 1790, 1791, 1809, 1808,  566,  567,  585,  584
 536, 1791, 1792, 1810, 1809,  567,  568,  586,  585
 537, 1792, 1793, 1811, 1810,  568,  569,  587,  586
 538, 1793, 1794, 1812, 1811,  569,  570,  588,  587
 539, 1794, 1795, 1813, 1812,  570,  571,  589,  588
 540, 1795, 1796, 1814, 1813,  571,  572,  590,  589
 541, 1796, 1797, 1815, 1814,  572,  573,  591,  590
 542, 1797, 1798, 1816, 1815,  573,  574,  592,  591
 543, 1798, 1799, 1817, 1816,  574,  575,  593,  592
 544, 1799, 1800, 1818, 1817,  575,  576,  594,  593
 545, 1801, 1802, 1820, 1819,  577,  578,  596,  595
 546, 1802, 1803, 1821, 1820,  578,  579,  597,  596
 547, 1803, 1804, 1822, 1821,  579,  580,  598,  597
 548, 1804, 1805, 1823, 1822,  580,  581,  599,  598
 549, 1805, 1806, 1824, 1823,  581,  582,  600,  599
 550, 1806, 1807, 1825, 1824,  582,  583,  601,  600
 551, 1807, 1808, 1826, 1825,  583,  584,  602,  601
 552, 1808, 1809, 1827, 1826,  584,  585,  603,  602
 553, 1809, 1810, 1828, 1827,  585,  586,  604,  603
 554, 1810, 1811, 1829, 1828,  586,  587,  605,  604
 555, 1811, 1812, 1830, 1829,  587,  588,  606,  605
 556, 1812, 1813, 1831, 1830,  588,  589,  607,  606
 557, 1813, 1814, 1832, 1831,  589,  590,  608,  607
 558, 1814, 1815, 1833, 1832,  590,  591,  609,  608
 559, 1815, 1816, 1834, 1833,  591,  592,  610,  609
 560, 1816, 1817, 1835, 1834,  592,  593,  611,  610
 561, 1817, 1818, 1836, 1835,  593,  594,  612,  611
 562, 1819, 1820, 1838, 1837,  595,  596,  614,  613
 563, 1820, 1821, 1839, 1838,  596,  597,  615,  614
 564, 1821, 1822, 1840, 1839,  597,  598,  616,  615
 565, 1822, 1823, 1841, 1840,  598,  599,  617,  616
 566, 1823, 1824, 1842, 1841,  599,  600,  618,  617
 567, 1824, 1825, 1843, 1842,  600,  601,  619,  618
 568, 1825, 1826, 1844, 1843,  601,  602,  620,  619
 569, 1826, 1827, 1845, 1844,  602,  603,  621,  620
 570, 1827, 1828, 1846, 1845,  603,  604,  622,  621
 571, 1828, 1829, 1847, 1846,  604,  605,  623,  622
 572, 1829, 1830, 1848, 1847,  605,  606,  624,  623
 573, 1830, 1831, 1849, 1848,  606,  607,  625,  624
 574, 1831, 1832, 1850, 1849,  607,  608,  626,  625
 575, 1832, 1833, 1851, 1850,  608,  609,  627,  626
 576, 1833, 1834, 1852, 1851,  609,  610,  628,  627
 577, 1834, 1835, 1853, 1852,  610,  611,  629,  628
 578, 1835, 1836, 1854, 1853,  611,  612,  630,  629
 579, 1837, 1838, 1856, 1855,  613,  614,  632,  631
 580, 1838, 1839, 1857, 1856,  614,  615,  633,  632
 581, 1839, 1840, 1858, 1857,  615,  616,  634,  633
 582, 1840, 1841, 1859, 1858,  616,  617,  635,  634
 583, 1841, 1842, 1860, 1859,  617,  618,  636,  635
 584, 1842, 1843, 1861, 1860,  618,  619,  637,  636
 585, 1843, 1844, 1862, 1861,  619,  620,  638,  637
 586, 1844, 1845, 1863, 1862,  620,  621,  639,  638
 587, 1845, 1846, 1864, 1863,  621,  622,  640,  639
 588, 1846, 1847, 1865, 1864,  622,  623,  641,  640
 589, 1847, 1848, 1866, 1865,  623,  624,  642,  641
 590, 1848, 1849, 1867, 1866,  624,  625,  643,  642
 591, 1849, 1850, 1868, 1867,  625,  626,  644,  643
 592, 1850, 1851, 1869, 1868,  626,  627,  645,  644
 593, 1851, 1852, 1870, 1869,  627,  628,  646,  645
 594, 1852, 1853, 1871, 1870,  628,  629,  647,  646
 595, 1853, 1854, 1872, 1871,  629,  630,  648,  647
 596, 1855, 1856, 1874, 1873,  631,  632,  650,  649
 597, 1856, 1857, 1875, 1874,  632,  633,  651,  650
 598, 1857, 1858, 1876, 1875,  633,  634,  652,  651
 599, 1858, 1859, 1877, 1876,  634,  635,  653,  652
 600, 1859, 1860, 1878, 1877,  635,  636,  654,  653
 601, 1860, 1861, 1879, 1878,  636,  637,  655,  654
 602, 1861, 1862, 1880, 1879,  637,  638,  656,  655
 603, 1862, 1863, 1881, 1880,  638,  639,  657,  656
 604, 1863, 1864, 1882, 1881,  639,  640,  658,  657
 605, 1864, 1865, 1883, 1882,  640,  641,  659,  658
 606, 1865, 1866, 1884, 1883,  641,  642,  660,  659
 607, 1866, 1867, 1885, 1884,  642,  643,  661,  660
 608, 1867, 1868, 1886, 1885,  643,  644,  662,  661
 609, 1868, 1869, 1887, 1886,  644,  645,  663,  662
 610, 1869, 1870, 1888, 1887,  645,  646,  664,  663
 611, 1870, 1871, 1889, 1888,  646,  647,  665,  664
 612, 1871, 1872, 1890, 1889,  647,  648,  666,  665
 613, 1873, 1874, 1892, 1891,  649,  650,  668,  667
 614, 1874, 1875, 1893, 1892,  650,  651,  669,  668
 615, 1875, 1876, 1894, 1893,  651,  652,  670,  669
 616, 1876, 1877, 1895, 1894,  652,  653,  671,  670
 617, 1877, 1878, 1896, 1895,  653,  654,  672,  671
 618, 1878, 1879, 1897, 1896,  654,  655,  673,  672
 619, 1879, 1880, 1898, 1897,  655,  656,  674,  673
 620, 1880, 1881, 1899, 1898,  656,  657,  675,  674
 621, 1881, 1882, 1900, 1899,  657,  658,  676,  675
 622, 1882, 1883, 1901, 1900,  658,  659,  677,  676
 623, 1883, 1884, 1902, 1901,  659,  660,  678,  677
 624, 1884, 1885, 1903, 1902,  660,  661,  679,  678
 625, 1885, 1886, 1904, 1903,  661,  662,  680,  679
 626, 1886, 1887, 1905, 1904,  662,  663,  681,  680
 627, 1887, 1888, 1906, 1905,  663,  664,  682,  681
 628, 1888, 1889, 1907, 1906,  664,  665,  683,  682
 629, 1889, 1890, 1908, 1907,  665,  666,  684,  683
 630, 1891, 1892, 1910, 1909,  667,  668,  686,  685
 631, 1892, 1893, 1911, 1910,  668,  669,  687,  686
 632, 1893, 1894, 1912, 1911,  669,  670,  688,  687
 633, 1894, 1895, 1913, 1912,  670,  671,  689,  688
 634, 1895, 1896, 1914, 1913,  671,  672,  690,  689
 635, 1896, 1897, 1915, 1914,  672,  673,  691,  690
 636, 1897, 1898, 1916, 1915,  673,  674,  692,  691
 637, 1898, 1899, 1917, 1916,  674,  675,  693,  692
 638, 1899, 1900, 1918, 1917,  675,  676,  694,  693
 639, 1900, 1901, 1919, 1918,  676,  677,  695,  694
 640, 1901, 1902, 1920, 1919,  677,  678,  696,  695
 641, 1902, 1903, 1921, 1920,  678,  679,  697,  696
 642, 1903, 1904, 1922, 1921,  679,  680,  698,  697
 643, 1904, 1905, 1923, 1922,  680,  681,  699,  698
 644, 1905, 1906, 1924, 1923,  681,  682,  700,  699
 645, 1906, 1907, 1925, 1924,  682,  683,  701,  700
 646, 1907, 1908, 1926, 1925,  683,  684,  702,  701
 647, 1909, 1910, 1928, 1927,  685,  686,  704,  703
 648, 1910, 1911, 1929, 1928,  686,  687,  705,  704
 649, 1911, 1912, 1930, 1929,  687,  688,  706,  705
 650, 1912, 1913, 1931, 1930,  688,  689,  707,  706
 651, 1913, 1914, 1932, 1931,  689,  690,  708,  707
 652, 1914, 1915, 1933, 1932,  690,  691,  709,  708
 653, 1915, 1916, 1934, 1933,  691,  692,  710,  709
 654, 1916, 1917, 1935, 1934,  692,  693,  711,  710
 655, 1917, 1918, 1936, 1935,  693,  694,  712,  711
 656, 1918, 1919, 1937, 1936,  694,  695,  713,  712
 657, 1919, 1920, 1938, 1937,  695,  696,  714,  713
 658, 1920, 1921, 1939, 1938,  696,  697,  715,  714
 659, 1921, 1922, 1940, 1939,  697,  698,  716,  715
 660, 1922, 1923, 1941, 1940,  698,  699,  717,  716
 661, 1923, 1924, 1942, 1941,  699,  700,  718,  717
 662, 1924, 1925, 1943, 1942,  700,  701,  719,  718
 663, 1925, 1926, 1944, 1943,  701,  702,  720,  719
 664, 1927, 1928, 1946, 1945,  703,  704,  722,  721
 665, 1928, 1929, 1947, 1946,  704,  705,  723,  722
 666, 1929, 1930, 1948, 1947,  705,  706,  724,  723
 667, 1930, 1931, 1949, 1948,  706,  707,  725,  724
 668, 1931, 1932, 1950, 1949,  707,  708,  726,  725
 669, 1932, 1933, 1951, 1950,  708,  709,  727,  726
 670, 1933, 1934, 1952, 1951,  709,  710,  728,  727
 671, 1934, 1935, 1953, 1952,  710,  711,  729,  728
 672, 1935, 1936, 1954, 1953,  711,  712,  730,  729
 673, 1936, 1937, 1955, 1954,  712,  713,  731,  730
 674, 1937, 1938, 1956, 1955,  713,  714,  732,  731
 675, 1938, 1939, 1957, 1956,  714,  715,  733,  732
 676, 1939, 1940, 1958, 1957,  715,  716,  734,  733
 677, 1940, 1941, 1959, 1958,  716,  717,  735,  734
 678, 1941, 1942, 1960, 1959,  717,  718,  736,  735
 679, 1942, 1943, 1961, 1960,  718,  719,  737,  736
 680, 1943, 1944, 1962, 1961,  719,  720,  738,  737
 681, 1945, 1946, 1964, 1963,  721,  722,  740,  739
 682, 1946, 1947, 1965, 1964,  722,  723,  741,  740
 683, 1947, 1948, 1966, 1965,  723,  724,  742,  741
 684, 1948, 1949, 1967, 1966,  724,  725,  743,  742
 685, 1949, 1950, 1968, 1967,  725,  726,  744,  743
 686, 1950, 1951, 1969, 1968,  726,  727,  745,  744
 687, 1951, 1952, 1970, 1969,  727,  728,  746,  745
 688, 1952, 1953, 1971, 1970,  728,  729,  747,  746
 689, 1953, 1954, 1972, 1971,  729,  730,  748,  747
 690, 1954, 1955, 1973, 1972,  730,  731,  749,  748
 691, 1955, 1956, 1974, 1973,  731,  732,  750,  749
 692, 1956, 1957, 1975, 1974,  732,  733,  751,  750
 693, 1957, 1958, 1976, 1975,  733,  734,  752,  751
 694, 1958, 1959, 1977, 1976,  734,  735,  753,  752
 695, 1959, 1960, 1978, 1977,  735,  736,  754,  753
 696, 1960, 1961, 1979, 1978,  736,  737,  755,  754
 697, 1961, 1962, 1980, 1979,  737,  738,  756,  755
 698, 1963, 1964, 1982, 1981,  739,  740,  758,  757
 699, 1964, 1965, 1983, 1982,  740,  741,  759,  758
 700, 1965, 1966, 1984, 1983,  741,  742,  760,  759
 701, 1966, 1967, 1985, 1984,  742,  743,  761,  760
 702, 1967, 1968, 1986, 1985,  743,  744,  762,  761
 703, 1968, 1969, 1987, 1986,  744,  745,  763,  762
 704, 1969, 1970, 1988, 1987,  745,  746,  764,  763
 705, 1970, 1971, 1989, 1988,  746,  747,  765,  764
 706, 1971, 1972, 1990, 1989,  747,  748,  766,  765
 707, 1972, 1973, 1991, 1990,  748,  749,  767,  766
 708, 1973, 1974, 1992, 1991,  749,  750,  768,  767
 709, 1974, 1975, 1993, 1992,  750,  751,  769,  768
 710, 1975, 1976, 1994, 1993,  751,  752,  770,  769
 711, 1976, 1977, 1995, 1994,  752,  753,  771,  770
 712, 1977, 1978, 1996, 1995,  753,  754,  772,  771
 713, 1978, 1979, 1997, 1996,  754,  755,  773,  772
 714, 1979, 1980, 1998, 1997,  755,  756,  774,  773
 715, 1981, 1982, 2000, 1999,  757,  758,  776,  775
 716, 1982, 1983, 2001, 2000,  758,  759,  777,  776
 717, 1983, 1984, 2002, 2001,  759,  760,  778,  777
 718, 1984, 1985, 2003, 2002,  760,  761,  779,  778
 719, 1985, 1986, 2004, 2003,  761,  762,  780,  779
 720, 1986, 1987, 2005, 2004,  762,  763,  781,  780
 721, 1987, 1988, 2006, 2005,  763,  764,  782,  781
 722, 1988, 1989, 2007, 2006,  764,  765,  783,  782
 723, 1989, 1990, 2008, 2007,  765,  766,  784,  783
 724, 1990, 1991, 2009, 2008,  766,  767,  785,  784
 725, 1991, 1992, 2010, 2009,  767,  768,  786,  785
 726, 1992, 1993, 2011, 2010,  768,  769,  787,  786
 727, 1993, 1994, 2012, 2011,  769,  770,  788,  787
 728, 1994, 1995, 2013, 2012,  770,  771,  789,  788
 729, 1995, 1996, 2014, 2013,  771,  772,  790,  789
 730, 1996, 1997, 2015, 2014,  772,  773,  791,  790
 731, 1997, 1998, 2016, 2015,  773,  774,  792,  791
 732, 1999, 2000, 2018, 2017,  775,  776,  794,  793
 733, 2000, 2001, 2019, 2018,  776,  777,  795,  794
 734, 2001, 2002, 2020, 2019,  777,  778,  796,  795
 735, 2002, 2003, 2021, 2020,  778,  779,  797,  796
 736, 2003, 2004, 2022, 2021,  779,  780,  798,  797
 737, 2004, 2005, 2023, 2022,  780,  781,  799,  798
 738, 2005, 2006, 2024, 2023,  781,  782,  800,  799
 739, 2006, 2007, 2025, 2024,  782,  783,  801,  800
 740, 2007, 2008, 2026, 2025,  783,  784,  802,  801
 741, 2008, 2009, 2027, 2026,  784,  785,  803,  802
 742, 2009, 2010, 2028, 2027,  785,  786,  804,  803
 743, 2010, 2011, 2029, 2028,  786,  787,  805,  804
 744, 2011, 2012, 2030, 2029,  787,  788,  806,  805
 745, 2012, 2013, 2031, 2030,  788,  789,  807,  806
 746, 2013, 2014, 2032, 2031,  789,  790,  808,  807
 747, 2014, 2015, 2033, 2032,  790,  791,  809,  808
 748, 2015, 2016, 2034, 2033,  791,  792,  810,  809
 749, 2017, 2018, 2036, 2035,  793,  794,  812,  811
 750, 2018, 2019, 2037, 2036,  794,  795,  813,  812
 751, 2019, 2020, 2038, 2037,  795,  796,  814,  813
 752, 2020, 2021, 2039, 2038,  796,  797,  815,  814
 753, 2021, 2022, 2040, 2039,  797,  798,  816,  815
 754, 2022, 2023, 2041, 2040,  798,  799,  817,  816
 755, 2023, 2024, 2042, 2041,  799,  800,  818,  817
 756, 2024, 2025, 2043, 2042,  800,  801,  819,  818
 757, 2025, 2026, 2044, 2043,  801,  802,  820,  819
 758, 2026, 2027, 2045, 2044,  802,  803,  821,  820
 759, 2027, 2028, 2046, 2045,  803,  804,  822,  821
 760, 2028, 2029, 2047, 2046,  804,  805,  823,  822
 761, 2029, 2030, 2048, 2047,  805,  806,  824,  823
 762, 2030, 2031, 2049, 2048,  806,  807,  825,  824
 763, 2031, 2032, 2050, 2049,  807,  808,  826,  825
 764, 2032, 2033, 2051, 2050,  808,  809,  827,  826
 765, 2033, 2034, 2052, 2051,  809,  810,  828,  827
 766, 2035, 2036, 2054, 2053,  811,  812,  830,  829
 767, 2036, 2037, 2055, 2054,  812,  813,  831,  830
 768, 2037, 2038, 2056, 2055,  813,  814,  832,  831
 769, 2038, 2039, 2057, 2056,  814,  815,  833,  832
 770, 2039, 2040, 2058, 2057,  815,  816,  834,  833
 771, 2040, 2041, 2059, 2058,  816,  817,  835,  834
 772, 2041, 2042, 2060, 2059,  817,  818,  836,  835
 773, 2042, 2043, 2061, 2060,  818,  819,  837,  836
 774, 2043, 2044, 2062, 2061,  819,  820,  838,  837
 775, 2044, 2045, 2063, 2062,  820,  821,  839,  838
 776, 2045, 2046, 2064, 2063,  821,  822,  840,  839
 777, 2046, 2047, 2065, 2064,  822,  823,  841,  840
 778, 2047, 2048, 2066, 2065,  823,  824,  842,  841
 779, 2048, 2049, 2067, 2066,  824,  825,  843,  842
 780, 2049, 2050, 2068, 2067,  825,  826,  844,  843
 781, 2050, 2051, 2069, 2068,  826,  827,  845,  844
 782, 2051, 2052, 2070, 2069,  827,  828,  846,  845
 783, 2053, 2054, 2072, 2071,  829,  830,  848,  847
 784, 2054, 2055, 2073, 2072,  830,  831,  849,  848
 785, 2055, 2056, 2074, 2073,  831,  832,  850,  849
 786, 2056, 2057, 2075, 2074,  832,  833,  851,  850
 787, 2057, 2058, 2076, 2075,  833,  834,  852,  851
 788, 2058, 2059, 2077, 2076,  834,  835,  853,  852
 789, 2059, 2060, 2078, 2077,  835,  836,  854,  853
 790, 2060, 2061, 2079, 2078,  836,  837,  855,  854
 791, 2061, 2062, 2080, 2079,  837,  838,  856,  855
 792, 2062, 2063, 2081, 2080,  838,  839,  857,  856
 793, 2063, 2064, 2082, 2081,  839,  840,  858,  857
 794, 2064, 2065, 2083, 2082,  840,  841,  859,  858
 795, 2065, 2066, 2084, 2083,  841,  842,  860,  859
 796, 2066, 2067, 2085, 2084,  842,  843,  861,  860
 797, 2067, 2068, 2086, 2085,  843,  844,  862,  861
 798, 2068, 2069, 2087, 2086,  844,  845,  863,  862
 799, 2069, 2070, 2088, 2087,  845,  846,  864,  863
 800, 2071, 2072, 2090, 2089,  847,  848,  866,  865
 801, 2072, 2073, 2091, 2090,  848,  849,  867,  866
 802, 2073, 2074, 2092, 2091,  849,  850,  868,  867
 803, 2074, 2075, 2093, 2092,  850,  851,  869,  868
 804, 2075, 2076, 2094, 2093,  851,  852,  870,  869
 805, 2076, 2077, 2095, 2094,  852,  853,  871,  870
 806, 2077, 2078, 2096, 2095,  853,  854,  872,  871
 807, 2078, 2079, 2097, 2096,  854,  855,  873,  872
 808, 2079, 2080, 2098, 2097,  855,  856,  874,  873
 809, 2080, 2081, 2099, 2098,  856,  857,  875,  874
 810, 2081, 2082, 2100, 2099,  857,  858,  876,  875
 811, 2082, 2083, 2101, 2100,  858,  859,  877,  876
 812, 2083, 2084, 2102, 2101,  859,  860,  878,  877
 813, 2084, 2085, 2103, 2102,  860,  861,  879,  878
 814, 2085, 2086, 2104, 2103,  861,  862,  880,  879
 815, 2086, 2087, 2105, 2104,  862,  863,  881,  880
 816, 2087, 2088, 2106, 2105,  863,  864,  882,  881
 817, 2089, 2090, 2108, 2107,  865,  866,  884,  883
 818, 2090, 2091, 2109, 2108,  866,  867,  885,  884
 819, 2091, 2092, 2110, 2109,  867,  868,  886,  885
 820, 2092, 2093, 2111, 2110,  868,  869,  887,  886
 821, 2093, 2094, 2112, 2111,  869,  870,  888,  887
 822, 2094, 2095, 2113, 2112,  870,  871,  889,  888
 823, 2095, 2096, 2114, 2113,  871,  872,  890,  889
 824, 2096, 2097, 2115, 2114,  872,  873,  891,  890
 825, 2097, 2098, 2116, 2115,  873,  874,  892,  891
 826, 2098, 2099, 2117, 2116,  874,  875,  893,  892
 827, 2099, 2100, 2118, 2117,  875,  876,  894,  893
 828, 2100, 2101, 2119, 2118,  876,  877,  895,  894
 829, 2101, 2102, 2120, 2119,  877,  878,  896,  895
 830, 2102, 2103, 2121, 2120,  878,  879,  897,  896
 831, 2103, 2104, 2122, 2121,  879,  880,  898,  897
 832, 2104, 2105, 2123, 2122,  880,  881,  899,  898
 833, 2105, 2106, 2124, 2123,  881,  882,  900,  899
 834, 2107, 2108, 2126, 2125,  883,  884,  902,  901
 835, 2108, 2109, 2127, 2126,  884,  885,  903,  902
 836, 2109, 2110, 2128, 2127,  885,  886,  904,  903
 837, 2110, 2111, 2129, 2128,  886,  887,  905,  904
 838, 2111, 2112, 2130, 2129,  887,  888,  906,  905
 839, 2112, 2113, 2131, 2130,  888,  889,  907,  906
 840, 2113, 2114, 2132, 2131,  889,  890,  908,  907
 841, 2114, 2115, 2133, 2132,  890,  891,  909,  908
 842, 2115, 2116, 2134, 2133,  891,  892,  910,  909
 843, 2116, 2117, 2135, 2134,  892,  893,  911,  910
 844, 2117, 2118, 2136, 2135,  893,  894,  912,  911
 845, 2118, 2119, 2137, 2136,  894,  895,  913,  912
 846, 2119, 2120, 2138, 2137,  895,  896,  914,  913
 847, 2120, 2121, 2139, 2138,  896,  897,  915,  914
 848, 2121, 2122, 2140, 2139,  897,  898,  916,  915
 849, 2122, 2123, 2141, 2140,  898,  899,  917,  916
 850, 2123, 2124, 2142, 2141,  899,  900,  918,  917
 851, 2125, 2126, 2144, 2143,  901,  902,  920,  919
 852, 2126, 2127, 2145, 2144,  902,  903,  921,  920
 853, 2127, 2128, 2146, 2145,  903,  904,  922,  921
 854, 2128, 2129, 2147, 2146,  904,  905,  923,  922
 855, 2129, 2130, 2148, 2147,  905,  906,  924,  923
 856, 2130, 2131, 2149, 2148,  906,  907,  925,  924
 857, 2131, 2132, 2150, 2149,  907,  908,  926,  925
 858, 2132, 2133, 2151, 2150,  908,  909,  927,  926
 859, 2133, 2134, 2152, 2151,  909,  910,  928,  927
 860, 2134, 2135, 2153, 2152,  910,  911,  929,  928
 861, 2135, 2136, 2154, 2153,  911,  912,  930,  929
 862, 2136, 2137, 2155, 2154,  912,  913,  931,  930
 863, 2137, 2138, 2156, 2155,  913,  914,  932,  931
 864, 2138, 2139, 2157, 2156,  914,  915,  933,  932
 865, 2139, 2140, 2158, 2157,  915,  916,  934,  933
 866, 2140, 2141, 2159, 2158,  916,  917,  935,  934
 867, 2141, 2142, 2160, 2159,  917,  918,  936,  935
 868, 2143, 2144, 2162, 2161,  919,  920,  938,  937
 869, 2144, 2145, 2163, 2162,  920,  921,  939,  938
 870, 2145, 2146, 2164, 2163,  921,  922,  940,  939
 871, 2146, 2147, 2165, 2164,  922,  923,  941,  940
 872, 2147, 2148, 2166, 2165,  923,  924,  942,  941
 873, 2148, 2149, 2167, 2166,  924,  925,  943,  942
 874, 2149, 2150, 2168, 2167,  925,  926,  944,  943
 875, 2150, 2151, 2169, 2168,  926,  927,  945,  944
 876, 2151, 2152, 2170, 2169,  927,  928,  946,  945
 877, 2152, 2153, 2171, 2170,  928,  929,  947,  946
 878, 2153, 2154, 2172, 2171,  929,  930,  948,  947
 879, 2154, 2155, 2173, 2172,  930,  931,  949,  948
 880, 2155, 2156, 2174, 2173,  931,  932,  950,  949
 881, 2156, 2157, 2175, 2174,  932,  933,  951,  950
 882, 2157, 2158, 2176, 2175,  933,  934,  952,  951
 883, 2158, 2159, 2177, 2176,  934,  935,  953,  952
 884, 2159, 2160, 2178, 2177,  935,  936,  954,  953
 885, 2161, 2162, 2180, 2179,  937,  938,  956,  955
 886, 2162, 2163, 2181, 2180,  938,  939,  957,  956
 887, 2163, 2164, 2182, 2181,  939,  940,  958,  957
 888, 2164, 2165, 2183, 2182,  940,  941,  959,  958
 889, 2165, 2166, 2184, 2183,  941,  942,  960,  959
 890, 2166, 2167, 2185, 2184,  942,  943,  961,  960
 891, 2167, 2168, 2186, 2185,  943,  944,  962,  961
 892, 2168, 2169, 2187, 2186,  944,  945,  963,  962
 893, 2169, 2170, 2188, 2187,  945,  946,  964,  963
 894, 2170, 2171, 2189, 2188,  946,  947,  965,  964
 895, 2171, 2172, 2190, 2189,  947,  948,  966,  965
 896, 2172, 2173, 2191, 2190,  948,  949,  967,  966
 897, 2173, 2174, 2192, 2191,  949,  950,  968,  967
 898, 2174, 2175, 2193, 2192,  950,  951,  969,  968
 899, 2175, 2176, 2194, 2193,  951,  952,  970,  969
 900, 2176, 2177, 2195, 2194,  952,  953,  971,  970
 901, 2177, 2178, 2196, 2195,  953,  954,  972,  971
 902, 2179, 2180, 2198, 2197,  955,  956,  974,  973
 903, 2180, 2181, 2199, 2198,  956,  957,  975,  974
 904, 2181, 2182, 2200, 2199,  957,  958,  976,  975
 905, 2182, 2183, 2201, 2200,  958,  959,  977,  976
 906, 2183, 2184, 2202, 2201,  959,  960,  978,  977
 907, 2184, 2185, 2203, 2202,  960,  961,  979,  978
 908, 2185, 2186, 2204, 2203,  961,  962,  980,  979
 909, 2186, 2187, 2205, 2204,  962,  963,  981,  980
 910, 2187, 2188, 2206, 2205,  963,  964,  982,  981
 911, 2188, 2189, 2207, 2206,  964,  965,  983,  982
 912, 2189, 2190, 2208, 2207,  965,  966,  984,  983
 913, 2190, 2191, 2209, 2208,  966,  967,  985,  984
 914, 2191, 2192, 2210, 2209,  967,  968,  986,  985
 915, 2192, 2193, 2211, 2210,  968,  969,  987,  986
 916, 2193, 2194, 2212, 2211,  969,  970,  988,  987
 917, 2194, 2195, 2213, 2212,  970,  971,  989,  988
 918, 2195, 2196, 2214, 2213,  971,  972,  990,  989
 919, 2197, 2198, 2216, 2215,  973,  974,  992,  991
 920, 2198, 2199, 2217, 2216,  974,  975,  993,  992
 921, 2199, 2200, 2218, 2217,  975,  976,  994,  993
 922, 2200, 2201, 2219, 2218,  976,  977,  995,  994
 923, 2201, 2202, 2220, 2219,  977,  978,  996,  995
 924, 2202, 2203, 2221, 2220,  978,  979,  997,  996
 925, 2203, 2204, 2222, 2221,  979,  980,  998,  997
 926, 2204, 2205, 2223, 2222,  980,  981,  999,  998
 927, 2205, 2206, 2224, 2223,  981,  982, 1000,  999
 928, 2206, 2207, 2225, 2224,  982,  983, 1001, 1000
 929, 2207, 2208, 2226, 2225,  983,  984, 1002, 1001
 930, 2208, 2209, 2227, 2226,  984,  985, 1003, 1002
 931, 2209, 2210, 2228, 2227,  985,  986, 1004, 1003
 932, 2210, 2211, 2229, 2228,  986,  987, 1005, 1004
 933, 2211, 2212, 2230, 2229,  987,  988, 1006, 1005
 934, 2212, 2213, 2231, 2230,  988,  989, 1007, 1006
 935, 2213, 2214, 2232, 2231,  989,  990, 1008, 1007
 936, 2215, 2216, 2234, 2233,  991,  992, 1010, 1009
 937, 2216, 2217, 2235, 2234,  992,  993, 1011, 1010
 938, 2217, 2218, 2236, 2235,  993,  994, 1012, 1011
 939, 2218, 2219, 2237, 2236,  994,  995, 1013, 1012
 940, 2219, 2220, 2238, 2237,  995,  996, 1014, 1013
 941, 2220, 2221, 2239, 2238,  996,  997, 1015, 1014
 942, 2221, 2222, 2240, 2239,  997,  998, 1016, 1015
 943, 2222, 2223, 2241, 2240,  998,  999, 1017, 1016
 944, 2223, 2224, 2242, 2241,  999, 1000, 1018, 1017
 945, 2224, 2225, 2243, 2242, 1000, 1001, 1019, 1018
 946, 2225, 2226, 2244, 2243, 1001, 1002, 1020, 1019
 947, 2226, 2227, 2245, 2244, 1002, 1003, 1021, 1020
 948, 2227, 2228, 2246, 2245, 1003, 1004, 1022, 1021
 949, 2228, 2229, 2247, 2246, 1004, 1005, 1023, 1022
 950, 2229, 2230, 2248, 2247, 1005, 1006, 1024, 1023
 951, 2230, 2231, 2249, 2248, 1006, 1007, 1025, 1024
 952, 2231, 2232, 2250, 2249, 1007, 1008, 1026, 1025
 953, 2233, 2234, 2252, 2251, 1009, 1010, 1028, 1027
 954, 2234, 2235, 2253, 2252, 1010, 1011, 1029, 1028
 955, 2235, 2236, 2254, 2253, 1011, 1012, 1030, 1029
 956, 2236, 2237, 2255, 2254, 1012, 1013, 1031, 1030
 957, 2237, 2238, 2256, 2255, 1013, 1014, 1032, 1031
 958, 2238, 2239, 2257, 2256, 1014, 1015, 1033, 1032
 959, 2239, 2240, 2258, 2257, 1015, 1016, 1034, 1033
 960, 2240, 2241, 2259, 2258, 1016, 1017, 1035, 1034
 961, 2241, 2242, 2260, 2259, 1017, 1018, 1036, 1035
 962, 2242, 2243, 2261, 2260, 1018, 1019, 1037, 1036
 963, 2243, 2244, 2262, 2261, 1019, 1020, 1038, 1037
 964, 2244, 2245, 2263, 2262, 1020, 1021, 1039, 1038
 965, 2245, 2246, 2264, 2263, 1021, 1022, 1040, 1039
 966, 2246, 2247, 2265, 2264, 1022, 1023, 1041, 1040
 967, 2247, 2248, 2266, 2265, 1023, 1024, 1042, 1041
 968, 2248, 2249, 2267, 2266, 1024, 1025, 1043, 1042
 969, 2249, 2250, 2268, 2267, 1025, 1026, 1044, 1043
 970, 2251, 2252, 2270, 2269, 1027, 1028, 1046, 1045
 971, 2252, 2253, 2271, 2270, 1028, 1029, 1047, 1046
 972, 2253, 2254, 2272, 2271, 1029, 1030, 1048, 1047
 973, 2254, 2255, 2273, 2272, 1030, 1031, 1049, 1048
 974, 2255, 2256, 2274, 2273, 1031, 1032, 1050, 1049
 975, 2256, 2257, 2275, 2274, 1032, 1033, 1051, 1050
 976, 2257, 2258, 2276, 2275, 1033, 1034, 1052, 1051
 977, 2258, 2259, 2277, 2276, 1034, 1035, 1053, 1052
 978, 2259, 2260, 2278, 2277, 1035, 1036, 1054, 1053
 979, 2260, 2261, 2279, 2278, 1036, 1037, 1055, 1054
 980, 2261, 2262, 2280, 2279, 1037, 1038, 1056, 1055
 981, 2262, 2263, 2281, 2280, 1038, 1039, 1057, 1056
 982, 2263, 2264, 2282, 2281, 1039, 1040, 1058, 1057
 983, 2264, 2265, 2283, 2282, 1040, 1041, 1059, 1058
 984, 2265, 2266, 2284, 2283, 1041, 1042, 1060, 1059
 985, 2266, 2267, 2285, 2284, 1042, 1043, 1061, 1060
 986, 2267, 2268, 2286, 2285, 1043, 1044, 1062, 1061
 987, 2269, 2270, 2288, 2287, 1045, 1046, 1064, 1063
 988, 2270, 2271, 2289, 2288, 1046, 1047, 1065, 1064
 989, 2271, 2272, 2290, 2289, 1047, 1048, 1066, 1065
 990, 2272, 2273, 2291, 2290, 1048, 1049, 1067, 1066
 991, 2273, 2274, 2292, 2291, 1049, 1050, 1068, 1067
 992, 2274, 2275, 2293, 2292, 1050, 1051, 1069, 1068
 993, 2275, 2276, 2294, 2293, 1051, 1052, 1070, 1069
 994, 2276, 2277, 2295, 2294, 1052, 1053, 1071, 1070
 995, 2277, 2278, 2296, 2295, 1053, 1054, 1072, 1071
 996, 2278, 2279, 2297, 2296, 1054, 1055, 1073, 1072
 997, 2279, 2280, 2298, 2297, 1055, 1056, 1074, 1073
 998, 2280, 2281, 2299, 2298, 1056, 1057, 1075, 1074
 999, 2281, 2282, 2300, 2299, 1057, 1058, 1076, 1075
1000, 2282, 2283, 2301, 2300, 1058, 1059, 1077, 1076
1001, 2283, 2284, 2302, 2301, 1059, 1060, 1078, 1077
1002, 2284, 2285, 2303, 2302, 1060, 1061, 1079, 1078
1003, 2285, 2286, 2304, 2303, 1061, 1062, 1080, 1079
1004, 2287, 2288, 2306, 2305, 1063, 1064, 1082, 1081
1005, 2288, 2289, 2307, 2306, 1064, 1065, 1083, 1082
1006, 2289, 2290, 2308, 2307, 1065, 1066, 1084, 1083
1007, 2290, 2291, 2309, 2308, 1066, 1067, 1085, 1084
1008, 2291, 2292, 2310, 2309, 1067, 1068, 1086, 1085
1009, 2292, 2293, 2311, 2310, 1068, 1069, 1087, 1086
1010, 2293, 2294, 2312, 2311, 1069, 1070, 1088, 1087
1011, 2294, 2295, 2313, 2312, 1070, 1071, 1089, 1088
1012, 2295, 2296, 2314, 2313, 1071, 1072, 1090, 1089
1013, 2296, 2297, 2315, 2314, 1072, 1073, 1091, 1090
1014, 2297, 2298, 2316, 2315, 1073, 1074, 1092, 1091
1015, 2298, 2299, 2317, 2316, 1074, 1075, 1093, 1092
1016, 2299, 2300, 2318, 2317, 1075, 1076, 1094, 1093
1017, 2300, 2301, 2319, 2318, 1076, 1077, 1095, 1094
1018, 2301, 2302, 2320, 2319, 1077, 1078, 1096, 1095
1019, 2302, 2303, 2321, 2320, 1078, 1079, 1097, 1096
1020, 2303, 2304, 2322, 2321, 1079, 1080, 1098, 1097
1021, 2305, 2306, 2324, 2323, 1081, 1082, 1100, 1099
1022, 2306, 2307, 2325, 2324, 1082, 1083, 1101, 1100
1023, 2307, 2308, 2326, 2325, 1083, 1084, 1102, 1101
1024, 2308, 2309, 2327, 2326, 1084, 1085, 1103, 1102
1025, 2309, 2310, 2328, 2327, 1085, 1086, 1104, 1103
1026, 2310, 2311, 2329, 2328, 1086, 1087, 1105, 1104
1027, 2311, 2312, 2330, 2329, 1087, 1088, 1106, 1105
1028, 2312, 2313, 2331, 2330, 1088, 1089, 1107, 1106
1029, 2313, 2314, 2332, 2331, 1089, 1090, 1108, 1107
1030, 2314, 2315, 2333, 2332, 1090, 1091, 1109, 1108
1031, 2315, 2316, 2334, 2333, 1091, 1092, 1110, 1109
1032, 2316, 2317, 2335, 2334, 1092, 1093, 1111, 1110
1033, 2317, 2318, 2336, 2335, 1093, 1094, 1112, 1111
1034, 2318, 2319, 2337, 2336, 1094, 1095, 1113, 1112
1035, 2319, 2320, 2338, 2337, 1095, 1096, 1114, 1113
1036, 2320, 2321, 2339, 2338, 1096, 1097, 1115, 1114
1037, 2321, 2322, 2340, 2339, 1097, 1098, 1116, 1115
1038, 2323, 2324, 2342, 2341, 1099, 1100, 1118, 1117
1039, 2324, 2325, 2343, 2342, 1100, 1101, 1119, 1118
1040, 2325, 2326, 2344, 2343, 1101, 1102, 1120, 1119
1041, 2326, 2327, 2345, 2344, 1102, 1103, 1121, 1120
1042, 2327, 2328, 2346, 2345, 1103, 1104, 1122, 1121
1043, 2328, 2329, 2347, 2346, 1104, 1105, 1123, 1122
1044, 2329, 2330, 2348, 2347, 1105, 1106, 1124, 1123
1045, 2330, 2331, 2349, 2348, 1106, 1107, 1125, 1124
1046, 2331, 2332, 2350, 2349, 1107, 1108, 1126, 1125
1047, 2332, 2333, 2351, 2350, 1108, 1109, 1127, 1126
1048, 2333, 2334, 2352, 2351, 1109, 1110, 1128, 1127
1049, 2334, 2335, 2353, 2352, 1110, 1111, 1129, 1128
1050, 2335, 2336, 2354, 2353, 1111, 1112, 1130, 1129
1051, 2336, 2337, 2355, 2354, 1112, 1113, 1131, 1130
1052, 2337, 2338, 2356, 2355, 1113, 1114, 1132, 1131
1053, 2338, 2339, 2357, 2356, 1114, 1115, 1133, 1132
1054, 2339, 2340, 2358, 2357, 1115, 1116, 1134, 1133
1055, 2341, 2342, 2360, 2359, 1117, 1118, 1136, 1135
1056, 2342, 2343, 2361, 2360, 1118, 1119, 1137, 1136
1057, 2343, 2344, 2362, 2361, 1119, 1120, 1138, 1137
1058, 2344, 2345, 2363, 2362, 1120, 1121, 1139, 1138
1059, 2345, 2346, 2364, 2363, 1121, 1122, 1140, 1139
1060, 2346, 2347, 2365, 2364, 1122, 1123, 1141, 1140
1061, 2347, 2348, 2366, 2365, 1123, 1124, 1142, 1141
1062, 2348, 2349, 2367, 2366, 1124, 1125, 1143, 1142
1063, 2349, 2350, 2368, 2367, 1125, 1126, 1144, 1143
1064, 2350, 2351, 2369, 2368, 1126, 1127, 1145, 1144
1065, 2351, 2352, 2370, 2369, 1127, 1128, 1146, 1145
1066, 2352, 2353, 2371, 2370, 1128, 1129, 1147, 1146
1067, 2353, 2354, 2372, 2371, 1129, 1130, 1148, 1147
1068, 2354, 2355, 2373, 2372, 1130, 1131, 1149, 1148
1069, 2355, 2356, 2374, 2373, 1131, 1132, 1150, 1149
1070, 2356, 2357, 2375, 2374, 1132, 1133, 1151, 1150
1071, 2357, 2358, 2376, 2375, 1133, 1134, 1152, 1151
1072, 2359, 2360, 2378, 2377, 1135, 1136, 1154, 1153
1073, 2360, 2361, 2379, 2378, 1136, 1137, 1155, 1154
1074, 2361, 2362, 2380, 2379, 1137, 1138, 1156, 1155
1075, 2362, 2363, 2381, 2380, 1138, 1139, 1157, 1156
1076, 2363, 2364, 2382, 2381, 1139, 1140, 1158, 1157
1077, 2364, 2365, 2383, 2382, 1140, 1141, 1159, 1158
1078, 2365, 2366, 2384, 2383, 1141, 1142, 1160, 1159
1079, 2366, 2367, 2385, 2384, 1142, 1143, 1161, 1160
1080, 2367, 2368, 2386, 2385, 1143, 1144, 1162, 1161
1081, 2368, 2369, 2387, 2386, 1144, 1145, 1163, 1162
1082, 2369, 2370, 2388, 2387, 1145, 1146, 1164, 1163
1083, 2370, 2371, 2389, 2388, 1146, 1147, 1165, 1164
1084, 2371, 2372, 2390, 2389, 1147, 1148, 1166, 1165
1085, 2372, 2373, 2391, 2390, 1148, 1149, 1167, 1166
1086, 2373, 2374, 2392, 2391, 1149, 1150, 1168, 1167
1087, 2374, 2375, 2393, 2392, 1150, 1151, 1169, 1168
1088, 2375, 2376, 2394, 2393, 1151, 1152, 1170, 1169
1089, 2377, 2378, 2396, 2395, 1153, 1154, 1172, 1171
1090, 2378, 2379, 2397, 2396, 1154, 1155, 1173, 1172
1091, 2379, 2380, 2398, 2397, 1155, 1156, 1174, 1173
1092, 2380, 2381, 2399, 2398, 1156, 1157, 1175, 1174
1093, 2381, 2382, 2400, 2399, 1157, 1158, 1176, 1175
1094, 2382, 2383, 2401, 2400, 1158, 1159, 1177, 1176
1095, 2383, 2384, 2402, 2401, 1159, 1160, 1178, 1177
1096, 2384, 2385, 2403, 2402, 1160, 1161, 1179, 1178
1097, 2385, 2386, 2404, 2403, 1161, 1162, 1180, 1179
1098, 2386, 2387, 2405, 2404, 1162, 1163, 1181, 1180
1099, 2387, 2388, 2406, 2405, 1163, 1164, 1182, 1181
1100, 2388, 2389, 2407, 2406, 1164, 1165, 1183, 1182
1101, 2389, 2390, 2408, 2407, 1165, 1166, 1184, 1183
1102, 2390, 2391, 2409, 2408, 1166, 1167, 1185, 1184
1103, 2391, 2392, 2410, 2409, 1167, 1168, 1186, 1185
1104, 2392, 2393, 2411, 2410, 1168, 1169, 1187, 1186
1105, 2393, 2394, 2412, 2411, 1169, 1170, 1188, 1187
1106, 2395, 2396, 2414, 2413, 1171, 1172, 1190, 1189
1107, 2396, 2397, 2415, 2414, 1172, 1173, 1191, 1190
1108, 2397, 2398, 2416, 2415, 1173, 1174, 1192, 1191
1109, 2398, 2399, 2417, 2416, 1174, 1175, 1193, 1192
1110, 2399, 2400, 2418, 2417, 1175, 1176, 1194, 1193
1111, 2400, 2401, 2419, 2418, 1176, 1177, 1195, 1194
1112, 2401, 2402, 2420, 2419, 1177, 1178, 1196, 1195
1113, 2402, 2403, 2421, 2420, 1178, 1179, 1197, 1196
1114, 2403, 2404, 2422, 2421, 1179, 1180, 1198, 1197
1115, 2404, 2405, 2423, 2422, 1180, 1181, 1199, 1198
1116, 2405, 2406, 2424, 2423, 1181, 1182, 1200, 1199
1117, 2406, 2407, 2425, 2424, 1182, 1183, 1201, 1200
1118, 2407, 2408, 2426, 2425, 1183, 1184, 1202, 1201
1119, 2408, 2409, 2427, 2426, 1184, 1185, 1203, 1202
1120, 2409, 2410, 2428, 2427, 1185, 1186, 1204, 1203
1121, 2410, 2411, 2429, 2428, 1186, 1187, 1205, 1204
1122, 2411, 2412, 2430, 2429, 1187, 1188, 1206, 1205
1123, 2413, 2414, 2432, 2431, 1189, 1190, 1208, 1207
1124, 2414, 2415, 2433, 2432, 1190, 1191, 1209, 1208
1125, 2415, 2416, 2434, 2433, 1191, 1192, 1210, 1209
1126, 2416, 2417, 2435, 2434, 1192, 1193, 1211, 1210
1127, 2417, 2418, 2436, 2435, 1193, 1194, 1212, 1211
1128, 2418, 2419, 2437, 2436, 1194, 1195, 1213, 1212
1129, 2419, 2420, 2438, 2437, 1195, 1196, 1214, 1213
1130, 2420, 2421, 2439, 2438, 1196, 1197, 1215, 1214
1131, 2421, 2422, 2440, 2439, 1197, 1198, 1216, 1215
1132, 2422, 2423, 2441, 2440, 1198, 1199, 1217, 1216
1133, 2423, 2424, 2442, 2441, 1199, 1200, 1218, 1217
1134, 2424, 2425, 2443, 2442, 1200, 1201, 1219, 1218
1135, 2425, 2426, 2444, 2443, 1201, 1202, 1220, 1219
1136, 2426, 2427, 2445, 2444, 1202, 1203, 1221, 1220
1137, 2427, 2428, 2446, 2445, 1203, 1204, 1222, 1221
1138, 2428, 2429, 2447, 2446, 1204, 1205, 1223, 1222
1139, 2429, 2430, 2448, 2447, 1205, 1206, 1224, 1223
1140, 2449, 2450, 2468, 2467, 1225, 1226, 1244, 1243
1141, 2450, 2451, 2469, 2468, 1226, 1227, 1245, 1244
1142, 2451, 2452, 2470, 2469, 1227, 1228, 1246, 1245
1143, 2452, 2453, 2471, 2470, 1228, 1229, 1247, 1246
1144, 2453, 2454, 2472, 2471, 1229, 1230, 1248, 1247
1145, 2454, 2455, 2473, 2472, 1230, 1231, 1249, 1248
1146, 2455, 2456, 2474, 2473, 1231, 1232, 1250, 1249
1147, 2456, 2457, 2475, 2474, 1232, 1233, 1251, 1250
1148, 2457, 2458, 2476, 2475, 1233, 1234, 1252, 1251
1149, 2458, 2459, 2477, 2476, 1234, 1235, 1253, 1252
1150, 2459, 2460, 2478, 2477, 1235, 1236, 1254, 1253
1151, 2460, 2461, 2479, 2478, 1236, 1237, 1255, 1254
1152, 2461, 2462, 2480, 2479, 1237, 1238, 1256, 1255
1153, 2462, 2463, 2481, 2480, 1238, 1239, 1257, 1256
1154, 2463, 2464, 2482, 2481, 1239, 1240, 1258, 1257
1155, 2464, 2465, 2483, 2482, 1240, 1241, 1259, 1258
1156, 2465, 2466, 2484, 2483, 1241, 1242, 1260, 1259
1157, 2467, 2468, 2486, 2485, 1243, 1244, 1262, 1261
1158, 2468, 2469, 2487, 2486, 1244, 1245, 1263, 1262
1159, 2469, 2470, 2488, 2487, 1245, 1246, 1264, 1263
1160, 2470, 2471, 2489, 2488, 1246, 1247, 1265, 1264
1161, 2471, 2472, 2490, 2489, 1247, 1248, 1266, 1265
1162, 2472, 2473, 2491, 2490, 1248, 1249, 1267, 1266
1163, 2473, 2474, 2492, 2491, 1249, 1250, 1268, 1267
1164, 2474, 2475, 2493, 2492, 1250, 1251, 1269, 1268
1165, 2475, 2476, 2494, 2493, 1251, 1252, 1270, 1269
1166, 2476, 2477, 2495, 2494, 1252, 1253, 1271, 1270
1167, 2477, 2478, 2496, 2495, 1253, 1254, 1272, 1271
1168, 2478, 2479, 2497, 2496, 1254, 1255, 1273, 1272
1169, 2479, 2480, 2498, 2497, 1255, 1256, 1274, 1273
1170, 2480, 2481, 2499, 2498, 1256, 1257, 1275, 1274
1171, 2481, 2482, 2500, 2499, 1257, 1258, 1276, 1275
1172, 2482, 2483, 2501, 2500, 1258, 1259, 1277, 1276
1173, 2483, 2484, 2502, 2501, 1259, 1260, 1278, 1277
1174, 2485, 2486, 2504, 2503, 1261, 1262, 1280, 1279
1175, 2486, 2487, 2505, 2504, 1262, 1263, 1281, 1280
1176, 2487, 2488, 2506, 2505, 1263, 1264, 1282, 1281
1177, 2488, 2489, 2507, 2506, 1264, 1265, 1283, 1282
1178, 2489, 2490, 2508, 2507, 1265, 1266, 1284, 1283
1179, 2490, 2491, 2509, 2508, 1266, 1267, 1285, 1284
1180, 2491, 2492, 2510, 2509, 1267, 1268, 1286, 1285
1181, 2492, 2493, 2511, 2510, 1268, 1269, 1287, 1286
1182, 2493, 2494, 2512, 2511, 1269, 1270, 1288, 1287
1183, 2494, 2495, 2513, 2512, 1270, 1271, 1289, 1288
1184, 2495, 2496, 2514, 2513, 1271, 1272, 1290, 1289
1185, 2496, 2497, 2515, 2514, 1272, 1273, 1291, 1290
1186, 2497, 2498, 2516, 2515, 1273, 1274, 1292, 1291
1187, 2498, 2499, 2517, 2516, 1274, 1275, 1293, 1292
1188, 2499, 2500, 2518, 2517, 1275, 1276, 1294, 1293
1189, 2500, 2501, 2519, 2518, 1276, 1277, 1295, 1294
1190, 2501, 2502, 2520, 2519, 1277, 1278, 1296, 1295
1191, 2503, 2504, 2522, 2521, 1279, 1280, 1298, 1297
1192, 2504, 2505, 2523, 2522, 1280, 1281, 1299, 1298
1193, 2505, 2506, 2524, 2523, 1281, 1282, 1300, 1299
1194, 2506, 2507, 2525, 2524, 1282, 1283, 1301, 1300
1195, 2507, 2508, 2526, 2525, 1283, 1284, 1302, 1301
1196, 2508, 2509, 2527, 2526, 1284, 1285, 1303, 1302
1197, 2509, 2510, 2528, 2527, 1285, 1286, 1304, 1303
1198, 2510, 2511, 2529, 2528, 1286, 1287, 1305, 1304
1199, 2511, 2512, 2530, 2529, 1287, 1288, 1306, 1305
1200, 2512, 2513, 2531, 2530, 1288, 1289, 1307, 1306
1201, 2513, 2514, 2532, 2531, 1289, 1290, 1308, 1307
1202, 2514, 2515, 2533, 2532, 1290, 1291, 1309, 1308
1203, 2515, 2516, 2534, 2533, 1291, 1292, 1310, 1309
1204, 2516, 2517, 2535, 2534, 1292, 1293, 1311, 1310
1205, 2517, 2518, 2536, 2535, 1293, 1294, 1312, 1311
1206, 2518, 2519, 2537, 2536, 1294, 1295, 1313, 1312
1207, 2519, 2520, 2538, 2537, 1295, 1296, 1314, 1313
1208, 2521, 2522, 2540, 2539, 1297, 1298, 1316, 1315
1209, 2522, 2523, 2541, 2540, 1298, 1299, 1317, 1316
1210, 2523, 2524, 2542, 2541, 1299, 1300, 1318, 1317
1211, 2524, 2525, 2543, 2542, 1300, 1301, 1319, 1318
1212, 2525, 2526, 2544, 2543, 1301, 1302, 1320, 1319
1213, 2526, 2527, 2545, 2544, 1302, 1303, 1321, 1320
1214, 2527, 2528, 2546, 2545, 1303, 1304, 1322, 1321
1215, 2528, 2529, 2547, 2546, 1304, 1305, 1323, 1322
1216, 2529, 2530, 2548, 2547, 1305, 1306, 1324, 1323
1217, 2530, 2531, 2549, 2548, 1306, 1307, 1325, 1324
1218, 2531, 2532, 2550, 2549, 1307, 1308, 1326, 1325
1219, 2532, 2533, 2551, 2550, 1308, 1309, 1327, 1326
1220, 2533, 2534, 2552, 2551, 1309, 1310, 1328, 1327
1221, 2534, 2535, 2553, 2552, 1310, 1311, 1329, 1328
1222, 2535, 2536, 2554, 2553, 1311, 1312, 1330, 1329
1223, 2536, 2537, 2555, 2554, 1312, 1313, 1331, 1330
1224, 2537, 2538, 2556, 2555, 1313, 1314, 1332, 1331
1225, 2539, 2540, 2558, 2557, 1315, 1316, 1334, 1333
1226, 2540, 2541, 2559, 2558, 1316, 1317, 1335, 1334
1227, 2541, 2542, 2560, 2559, 1317, 1318, 1336, 1335
1228, 2542, 2543, 2561, 2560, 1318, 1319, 1337, 1336
1229, 2543, 2544, 2562, 2561, 1319, 1320, 1338, 1337
1230, 2544, 2545, 2563, 2562, 1320, 1321, 1339, 1338
1231, 2545, 2546, 2564, 2563, 1321, 1322, 1340, 1339
1232, 2546, 2547, 2565, 2564, 1322, 1323, 1341, 1340
1233, 2547, 2548, 2566, 2565, 1323, 1324, 1342, 1341
1234, 2548, 2549, 2567, 2566, 1324, 1325, 1343, 1342
1235, 2549, 2550, 2568, 2567, 1325, 1326, 1344, 1343
1236, 2550, 2551, 2569, 2568, 1326, 1327, 1345, 1344
1237, 2551, 2552, 2570, 2569, 1327, 1328, 1346, 1345
1238, 2552, 2553, 2571, 2570, 1328, 1329, 1347, 1346
1239, 2553, 2554, 2572, 2571, 1329, 1330, 1348, 1347
1240, 2554, 2555, 2573, 2572, 1330, 1331, 1349, 1348
1241, 2555, 2556, 2574, 2573, 1331, 1332, 1350, 1349
1242, 2557, 2558, 2576, 2575, 1333, 1334, 1352, 1351
1243, 2558, 2559, 2577, 2576, 1334, 1335, 1353, 1352
1244, 2559, 2560, 2578, 2577, 1335, 1336, 1354, 1353
1245, 2560, 2561, 2579, 2578, 1336, 1337, 1355, 1354
1246, 2561, 2562, 2580, 2579, 1337, 1338, 1356, 1355
1247, 2562, 2563, 2581, 2580, 1338, 1339, 1357, 1356
1248, 2563, 2564, 2582, 2581, 1339, 1340, 1358, 1357
1249, 2564, 2565, 2583, 2582, 1340, 1341, 1359, 1358
1250, 2565, 2566, 2584, 2583, 1341, 1342, 1360, 1359
1251, 2566, 2567, 2585, 2584, 1342, 1343, 1361, 1360
1252, 2567, 2568, 2586, 2585, 1343, 1344, 1362, 1361
1253, 2568, 2569, 2587, 2586, 1344, 1345, 1363, 1362
1254, 2569, 2570, 2588, 2587, 1345, 1346, 1364, 1363
1255, 2570, 2571, 2589, 2588, 1346, 1347, 1365, 1364
1256, 2571, 2572, 2590, 2589, 1347, 1348, 1366, 1365
1257, 2572, 2573, 2591, 2590, 1348, 1349, 1367, 1366
1258, 2573, 2574, 2592, 2591, 1349, 1350, 1368, 1367
1259, 2575, 2576, 2594, 2593, 1351, 1352, 1370, 1369
1260, 2576, 2577, 2595, 2594, 1352, 1353, 1371, 1370
1261, 2577, 2578, 2596, 2595, 1353, 1354, 1372, 1371
1262, 2578, 2579, 2597, 2596, 1354, 1355, 1373, 1372
1263, 2579, 2580, 2598, 2597, 1355, 1356, 1374, 1373
1264, 2580, 2581, 2599, 2598, 1356, 1357, 1375, 1374
1265, 2581, 2582, 2600, 2599, 1357, 1358, 1376, 1375
1266, 2582, 2583, 2601, 2600, 1358, 1359, 1377, 1376
1267, 2583, 2584, 2602, 2601, 1359, 1360, 1378, 1377
1268, 2584, 2585, 2603, 2602, 1360, 1361, 1379, 1378
1269, 2585, 2586, 2604, 2603, 1361, 1362, 1380, 1379
1270, 2586, 2587, 2605, 2604, 1362, 1363, 1381, 1380
1271, 2587, 2588, 2606, 2605, 1363, 1364, 1382, 1381
1272, 2588, 2589, 2607, 2606, 1364, 1365, 1383, 1382
1273, 2589, 2590, 2608, 2607, 1365, 1366, 1384, 1383
1274, 2590, 2591, 2609, 2608, 1366, 1367, 1385, 1384
1275, 2591, 2592, 2610, 2609, 1367, 1368, 1386, 1385
1276, 2593, 2594, 2612, 2611, 1369, 1370, 1388, 1387
1277, 2594, 2595, 2613, 2612, 1370, 1371, 1389, 1388
1278, 2595, 2596, 2614, 2613, 1371, 1372, 1390, 1389
1279, 2596, 2597, 2615, 2614, 1372, 1373, 1391, 1390
1280, 2597, 2598, 2616, 2615, 1373, 1374, 1392, 1391
1281, 2598, 2599, 2617, 2616, 1374, 1375, 1393, 1392
1282, 2599, 2600, 2618, 2617, 1375, 1376, 1394, 1393
1283, 2600, 2601, 2619, 2618, 1376, 1377, 1395, 1394
1284, 2601, 2602, 2620, 2619, 1377, 1378, 1396, 1395
1285, 2602, 2603, 2621, 2620, 1378, 1379, 1397, 1396
1286, 2603, 2604, 2622, 2621, 1379, 1380, 1398, 1397
1287, 2604, 2605, 2623, 2622, 1380, 1381, 1399, 1398
1288, 2605, 2606, 2624, 2623, 1381, 1382, 1400, 1399
1289, 2606, 2607, 2625, 2624, 1382, 1383, 1401, 1400
1290, 2607, 2608, 2626, 2625, 1383, 1384, 1402, 1401
1291, 2608, 2609, 2627, 2626, 1384, 1385, 1403, 1402
1292, 2609, 2610, 2628, 2627, 1385, 1386, 1404, 1403
1293, 2611, 2612, 2630, 2629, 1387, 1388, 1406, 1405
1294, 2612, 2613, 2631, 2630, 1388, 1389, 1407, 1406
1295, 2613, 2614, 2632, 2631, 1389, 1390, 1408, 1407
1296, 2614, 2615, 2633, 2632, 1390, 1391, 1409, 1408
1297, 2615, 2616, 2634, 2633, 1391, 1392, 1410, 1409
1298, 2616, 2617, 2635, 2634, 1392, 1393, 1411, 1410
1299, 2617, 2618, 2636, 2635, 1393, 1394, 1412, 1411
1300, 2618, 2619, 2637, 2636, 1394, 1395, 1413, 1412
1301, 2619, 2620, 2638, 2637, 1395, 1396, 1414, 1413
1302, 2620, 2621, 2639, 2638, 1396, 1397, 1415, 1414
1303, 2621, 2622, 2640, 2639, 1397, 1398, 1416, 1415
1304, 2622, 2623, 2641, 2640, 1398, 1399, 1417, 1416
1305, 2623, 2624, 2642, 2641, 1399, 1400, 1418, 1417
1306, 2624, 2625, 2643, 2642, 1400, 1401, 1419, 1418
1307, 2625, 2626, 2644, 2643, 1401, 1402, 1420, 1419
1308, 2626, 2627, 2645, 2644, 1402, 1403, 1421, 1420
1309, 2627, 2628, 2646, 2645, 1403, 1404, 1422, 1421
1310, 2629, 2630, 2648, 2647, 1405, 1406, 1424, 1423
1311, 2630, 2631, 2649, 2648, 1406, 1407, 1425, 1424
1312, 2631, 2632, 2650, 2649, 1407, 1408, 1426, 1425
1313, 2632, 2633, 2651, 2650, 1408, 1409, 1427, 1426
1314, 2633, 2634, 2652, 2651, 1409, 1410, 1428, 1427
1315, 2634, 2635, 2653, 2652, 1410, 1411, 1429, 1428
1316, 2635, 2636, 2654, 2653, 1411, 1412, 1430, 1429
1317, 2636, 2637, 2655, 2654, 1412, 1413, 1431, 1430
1318, 2637, 2638, 2656, 2655, 1413, 1414, 1432, 1431
1319, 2638, 2639, 2657, 2656, 1414, 1415, 1433, 1432
1320, 2639, 2640, 2658, 2657, 1415, 1416, 1434, 1433
1321, 2640, 2641, 2659, 2658, 1416, 1417, 1435, 1434
1322, 2641, 2642, 2660, 2659, 1417, 1418, 1436, 1435
1323, 2642, 2643, 2661, 2660, 1418, 1419, 1437, 1436
1324, 2643, 2644, 2662, 2661, 1419, 1420, 1438, 1437
1325, 2644, 2645, 2663, 2662, 1420, 1421, 1439, 1438
1326, 2645, 2646, 2664, 2663, 1421, 1422, 1440, 1439
1327, 2647, 2648, 2666, 2665, 1423, 1424, 1442, 1441
1328, 2648, 2649, 2667, 2666, 1424, 1425, 1443, 1442
1329, 2649, 2650, 2668, 2667, 1425, 1426, 1444, 1443
1330, 2650, 2651, 2669, 2668, 1426, 1427, 1445, 1444
1331, 2651, 2652, 2670, 2669, 1427, 1428, 1446, 1445
1332, 2652, 2653, 2671, 2670, 1428, 1429, 1447, 1446
1333, 2653, 2654, 2672, 2671, 1429, 1430, 1448, 1447
1334, 2654, 2655, 2673, 2672, 1430, 1431, 1449, 1448
1335, 2655, 2656, 2674, 2673, 1431, 1432, 1450, 1449
1336, 2656, 2657, 2675, 2674, 1432, 1433, 1451, 1450
1337, 2657, 2658, 2676, 2675, 1433, 1434, 1452, 1451
1338, 2658, 2659, 2677, 2676, 1434, 1435, 1453, 1452
1339, 2659, 2660, 2678, 2677, 1435, 1436, 1454, 1453
1340, 2660, 2661, 2679, 2678, 1436, 1437, 1455, 1454
1341, 2661, 2662, 2680, 2679, 1437, 1438, 1456, 1455
1342, 2662, 2663, 2681, 2680, 1438, 1439, 1457, 1456
1343, 2663, 2664, 2682, 2681, 1439, 1440, 1458, 1457
1344, 2665, 2666, 2684, 2683, 1441, 1442, 1460, 1459
1345, 2666, 2667, 2685, 2684, 1442, 1443, 1461, 1460
1346, 2667, 2668, 2686, 2685, 1443, 1444, 1462, 1461
1347, 2668, 2669, 2687, 2686, 1444, 1445, 1463, 1462
1348, 2669, 2670, 2688, 2687, 1445, 1446, 1464, 1463
1349, 2670, 2671, 2689, 2688, 1446, 1447, 1465, 1464
1350, 2671, 2672, 2690, 2689, 1447, 1448, 1466, 1465
1351, 2672, 2673, 2691, 2690, 1448, 1449, 1467, 1466
1352, 2673, 2674, 2692, 2691, 1449, 1450, 1468, 1467
1353, 2674, 2675, 2693, 2692, 1450, 1451, 1469, 1468
1354, 2675, 2676, 2694, 2693, 1451, 1452, 1470, 1469
1355, 2676, 2677, 2695, 2694, 1452, 1453, 1471, 1470
1356, 2677, 2678, 2696, 2695, 1453, 1454, 1472, 1471
1357, 2678, 2679, 2697, 2696, 1454, 1455, 1473, 1472
1358, 2679, 2680, 2698, 2697, 1455, 1456, 1474, 1473
1359, 2680, 2681, 2699, 2698, 1456, 1457, 1475, 1474
1360, 2681, 2682, 2700, 2699, 1457, 1458, 1476, 1475
1361, 2683, 2684, 2702, 2701, 1459, 1460, 1478, 1477
1362, 2684, 2685, 2703, 2702, 1460, 1461, 1479, 1478
1363, 2685, 2686, 2704, 2703, 1461, 1462, 1480, 1479
1364, 2686, 2687, 2705, 2704, 1462, 1463, 1481, 1480
1365, 2687, 2688, 2706, 2705, 1463, 1464, 1482, 1481
1366, 2688, 2689, 2707, 2706, 1464, 1465, 1483, 1482
1367, 2689, 2690, 2708, 2707, 1465, 1466, 1484, 1483
1368, 2690, 2691, 2709, 2708, 1466, 1467, 1485, 1484
1369, 2691, 2692, 2710, 2709, 1467, 1468, 1486, 1485
1370, 2692, 2693, 2711, 2710, 1468, 1469, 1487, 1486
1371, 2693, 2694, 2712, 2711, 1469, 1470, 1488, 1487
1372, 2694, 2695, 2713, 2712, 1470, 1471, 1489, 1488
1373, 2695, 2696, 2714, 2713, 1471, 1472, 1490, 1489
1374, 2696, 2697, 2715, 2714, 1472, 1473, 1491, 1490
1375, 2697, 2698, 2716, 2715, 1473, 1474, 1492, 1491
1376, 2698, 2699, 2717, 2716, 1474, 1475, 1493, 1492
1377, 2699, 2700, 2718, 2717, 1475, 1476, 1494, 1493
1378, 2701, 2702, 2720, 2719, 1477, 1478, 1496, 1495
1379, 2702, 2703, 2721, 2720, 1478, 1479, 1497, 1496
1380, 2703, 2704, 2722, 2721, 1479, 1480, 1498, 1497
1381, 2704, 2705, 2723, 2722, 1480, 1481, 1499, 1498
1382, 2705, 2706, 2724, 2723, 1481, 1482, 1500, 1499
1383, 2706, 2707, 2725, 2724, 1482, 1483, 1501, 1500
1384, 2707, 2708, 2726, 2725, 1483, 1484, 1502, 1501
1385, 2708, 2709, 2727, 2726, 1484, 1485, 1503, 1502
1386, 2709, 2710, 2728, 2727, 1485, 1486, 1504, 1503
1387, 2710, 2711, 2729, 2728, 1486, 1487, 1505, 1504
1388, 2711, 2712, 2730, 2729, 1487, 1488, 1506, 1505
1389, 2712, 2713, 2731, 2730, 1488, 1489, 1507, 1506
1390, 2713, 2714, 2732, 2731, 1489, 1490, 1508, 1507
1391, 2714, 2715, 2733, 2732, 1490, 1491, 1509, 1508
1392, 2715, 2716, 2734, 2733, 1491, 1492, 1510, 1509
1393, 2716, 2717, 2735, 2734, 1492, 1493, 1511, 1510
1394, 2717, 2718, 2736, 2735, 1493, 1494, 1512, 1511
1395, 2719, 2720, 2738, 2737, 1495, 1496, 1514, 1513
1396, 2720, 2721, 2739, 2738, 1496, 1497, 1515, 1514
1397, 2721, 2722, 2740, 2739, 1497, 1498, 1516, 1515
1398, 2722, 2723, 2741, 2740, 1498, 1499, 1517, 1516
1399, 2723, 2724, 2742, 2741, 1499, 1500, 1518, 1517
1400, 2724, 2725, 2743, 2742, 1500, 1501, 1519, 1518
1401, 2725, 2726, 2744, 2743, 1501, 1502, 1520, 1519
1402, 2726, 2727, 2745, 2744, 1502, 1503, 1521, 1520
1403, 2727, 2728, 2746, 2745, 1503, 1504, 1522, 1521
1404, 2728, 2729, 2747, 2746, 1504, 1505, 1523, 1522
1405, 2729, 2730, 2748, 2747, 1505, 1506, 1524, 1523
1406, 2730, 2731, 2749, 2748, 1506, 1507, 1525, 1524
1407, 2731, 2732, 2750, 2749, 1507, 1508, 1526, 1525
1408, 2732, 2733, 2751, 2750, 1508, 1509, 1527, 1526
1409, 2733, 2734, 2752, 2751, 1509, 1510, 1528, 1527
1410, 2734, 2735, 2753, 2752, 1510, 1511, 1529, 1528
1411, 2735, 2736, 2754, 2753, 1511, 1512, 1530, 1529
1412, 2737, 2738, 2756, 2755, 1513, 1514, 1532, 1531
1413, 2738, 2739, 2757, 2756, 1514, 1515, 1533, 1532
1414, 2739, 2740, 2758, 2757, 1515, 1516, 1534, 1533
1415, 2740, 2741, 2759, 2758, 1516, 1517, 1535, 1534
1416, 2741, 2742, 2760, 2759, 1517, 1518, 1536, 1535
1417, 2742, 2743, 2761, 2760, 1518, 1519, 1537, 1536
1418, 2743, 2744, 2762, 2761, 1519, 1520, 1538, 1537
1419, 2744, 2745, 2763, 2762, 1520, 1521, 1539, 1538
1420, 2745, 2746, 2764, 2763, 1521, 1522, 1540, 1539
1421, 2746, 2747, 2765, 2764, 1522, 1523, 1541, 1540
1422, 2747, 2748, 2766, 2765, 1523, 1524, 1542, 1541
1423, 2748, 2749, 2767, 2766, 1524, 1525, 1543, 1542
1424, 2749, 2750, 2768, 2767, 1525, 1526, 1544, 1543
1425, 2750, 2751, 2769, 2768, 1526, 1527, 1545, 1544
1426, 2751, 2752, 2770, 2769, 1527, 1528, 1546, 1545
1427, 2752, 2753, 2771, 2770, 1528, 1529, 1547, 1546
1428, 2753, 2754, 2772, 2771, 1529, 1530, 1548, 1547
1429, 2755, 2756, 2774, 2773, 1531, 1532, 1550, 1549
1430, 2756, 2757, 2775, 2774, 1532, 1533, 1551, 1550
1431, 2757, 2758, 2776, 2775, 1533, 1534, 1552, 1551
1432, 2758, 2759, 2777, 2776, 1534, 1535, 1553, 1552
1433, 2759, 2760, 2778, 2777, 1535, 1536, 1554, 1553
1434, 2760, 2761, 2779, 2778, 1536, 1537, 1555, 1554
1435, 2761, 2762, 2780, 2779, 1537, 1538, 1556, 1555
1436, 2762, 2763, 2781, 2780, 1538, 1539, 1557, 1556
1437, 2763, 2764, 2782, 2781, 1539, 1540, 1558, 1557
1438, 2764, 2765, 2783, 2782, 1540, 1541, 1559, 1558
1439, 2765, 2766, 2784, 2783, 1541, 1542, 1560, 1559
1440, 2766, 2767, 2785, 2784, 1542, 1543, 1561, 1560
1441, 2767, 2768, 2786, 2785, 1543, 1544, 1562, 1561
1442, 2768, 2769, 2787, 2786, 1544, 1545, 1563, 1562
1443, 2769, 2770, 2788, 2787, 1545, 1546, 1564, 1563
1444, 2770, 2771, 2789, 2788, 1546, 1547, 1565, 1564
1445, 2771, 2772, 2790, 2789, 1547, 1548, 1566, 1565
1446, 2773, 2774, 2792, 2791, 1549, 1550, 1568, 1567
1447, 2774, 2775, 2793, 2792, 1550, 1551, 1569, 1568
1448, 2775, 2776, 2794, 2793, 1551, 1552, 1570, 1569
1449, 2776, 2777, 2795, 2794, 1552, 1553, 1571, 1570
1450, 2777, 2778, 2796, 2795, 1553, 1554, 1572, 1571
1451, 2778, 2779, 2797, 2796, 1554, 1555, 1573, 1572
1452, 2779, 2780, 2798, 2797, 1555, 1556, 1574, 1573
1453, 2780, 2781, 2799, 2798, 1556, 1557, 1575, 1574
1454, 2781, 2782, 2800, 2799, 1557, 1558, 1576, 1575
1455, 2782, 2783, 2801, 2800, 1558, 1559, 1577, 1576
1456, 2783, 2784, 2802, 2801, 1559, 1560, 1578, 1577
1457, 2784, 2785, 2803, 2802, 1560, 1561, 1579, 1578
1458, 2785, 2786, 2804, 2803, 1561, 1562, 1580, 1579
1459, 2786, 2787, 2805, 2804, 1562, 1563, 1581, 1580
1460, 2787, 2788, 2806, 2805, 1563, 1564, 1582, 1581
1461, 2788, 2789, 2807, 2806, 1564, 1565, 1583, 1582
1462, 2789, 2790, 2808, 2807, 1565, 1566, 1584, 1583
1463, 2791, 2792, 2810, 2809, 1567, 1568, 1586, 1585
1464, 2792, 2793, 2811, 2810, 1568, 1569, 1587, 1586
1465, 2793, 2794, 2812, 2811, 1569, 1570, 1588, 1587
1466, 2794, 2795, 2813, 2812, 1570, 1571, 1589, 1588
1467, 2795, 2796, 2814, 2813, 1571, 1572, 1590, 1589
1468, 2796, 2797, 2815, 2814, 1572, 1573, 1591, 1590
1469, 2797, 2798, 2816, 2815, 1573, 1574, 1592, 1591
1470, 2798, 2799, 2817, 2816, 1574, 1575, 1593, 1592
1471, 2799, 2800, 2818, 2817, 1575, 1576, 1594, 1593
1472, 2800, 2801, 2819, 2818, 1576, 1577, 1595, 1594
1473, 2801, 2802, 2820, 2819, 1577, 1578, 1596, 1595
1474, 2802, 2803, 2821, 2820, 1578, 1579, 1597, 1596
1475, 2803, 2804, 2822, 2821, 1579, 1580, 1598, 1597
1476, 2804, 2805, 2823, 2822, 1580, 1581, 1599, 1598
1477, 2805, 2806, 2824, 2823, 1581, 1582, 1600, 1599
1478, 2806, 2807, 2825, 2824, 1582, 1583, 1601, 1600
1479, 2807, 2808, 2826, 2825, 1583, 1584, 1602, 1601
1480, 2809, 2810, 2828, 2827, 1585, 1586, 1604, 1603
1481, 2810, 2811, 2829, 2828, 1586, 1587, 1605, 1604
1482, 2811, 2812, 2830, 2829, 1587, 1588, 1606, 1605
1483, 2812, 2813, 2831, 2830, 1588, 1589, 1607, 1606
1484, 2813, 2814, 2832, 2831, 1589, 1590, 1608, 1607
1485, 2814, 2815, 2833, 2832, 1590, 1591, 1609, 1608
1486, 2815, 2816, 2834, 2833, 1591, 1592, 1610, 1609
1487, 2816, 2817, 2835, 2834, 1592, 1593, 1611, 1610
1488, 2817, 2818, 2836, 2835, 1593, 1594, 1612, 1611
1489, 2818, 2819, 2837, 2836, 1594, 1595, 1613, 1612
1490, 2819, 2820, 2838, 2837, 1595, 1596, 1614, 1613
1491, 2820, 2821, 2839, 2838, 1596, 1597, 1615, 1614
1492, 2821, 2822, 2840, 2839, 1597, 1598, 1616, 1615
1493, 2822, 2823, 2841, 2840, 1598, 1599, 1617, 1616
1494, 2823, 2824, 2842, 2841, 1599, 1600, 1618, 1617
1495, 2824, 2825, 2843, 2842, 1600, 1601, 1619, 1618
1496, 2825, 2826, 2844, 2843, 1601, 1602, 1620, 1619
1497, 2827, 2828, 2846, 2845, 1603, 1604, 1622, 1621
1498, 2828, 2829, 2847, 2846, 1604, 1605, 1623, 1622
1499, 2829, 2830, 2848, 2847, 1605, 1606, 1624, 1623
1500, 2830, 2831, 2849, 2848, 1606, 1607, 1625, 1624
1501, 2831, 2832, 2850, 2849, 1607, 1608, 1626, 1625
1502, 2832, 2833, 2851, 2850, 1608, 1609, 1627, 1626
1503, 2833, 2834, 2852, 2851, 1609, 1610, 1628, 1627
1504, 2834, 2835, 2853, 2852, 1610, 1611, 1629, 1628
1505, 2835, 2836, 2854, 2853, 1611, 1612, 1630, 1629
1506, 2836, 2837, 2855, 2854, 1612, 1613, 1631, 1630
1507, 2837, 2838, 2856, 2855, 1613, 1614, 1632, 1631
1508, 2838, 2839, 2857, 2856, 1614, 1615, 1633, 1632
1509, 2839, 2840, 2858, 2857, 1615, 1616, 1634, 1633
1510, 2840, 2841, 2859, 2858, 1616, 1617, 1635, 1634
1511, 2841, 2842, 2860, 2859, 1617, 1618, 1636, 1635
1512, 2842, 2843, 2861, 2860, 1618, 1619, 1637, 1636
1513, 2843, 2844, 2862, 2861, 1619, 1620, 1638, 1637
1514, 2845, 2846, 2864, 2863, 1621, 1622, 1640, 1639
1515, 2846, 2847, 2865, 2864, 1622, 1623, 1641, 1640
1516, 2847, 2848, 2866, 2865, 1623, 1624, 1642, 1641
1517, 2848, 2849, 2867, 2866, 1624, 1625, 1643, 1642
1518, 2849, 2850, 2868, 2867, 1625, 1626, 1644, 1643
1519, 2850, 2851, 2869, 2868, 1626, 1627, 1645, 1644
1520, 2851, 2852, 2870, 2869, 1627, 1628, 1646, 1645
1521, 2852, 2853, 2871, 2870, 1628, 1629, 1647, 1646
1522, 2853, 2854, 2872, 2871, 1629, 1630, 1648, 1647
1523, 2854, 2855, 2873, 2872, 1630, 1631, 1649, 1648
1524, 2855, 2856, 2874, 2873, 1631, 1632, 1650, 1649
1525, 2856, 2857, 2875, 2874, 1632, 1633, 1651, 1650
1526, 2857, 2858, 2876, 2875, 1633, 1634, 1652, 1651
1527, 2858, 2859, 2877, 2876, 1634, 1635, 1653, 1652
1528, 2859, 2860, 2878, 2877, 1635, 1636, 1654, 1653
1529, 2860, 2861, 2879, 2878, 1636, 1637, 1655, 1654
1530, 2861, 2862, 2880, 2879, 1637, 1638, 1656, 1655
1531, 2863, 2864, 2882, 2881, 1639, 1640, 1658, 1657
1532, 2864, 2865, 2883, 2882, 1640, 1641, 1659, 1658
1533, 2865, 2866, 2884, 2883, 1641, 1642, 1660, 1659
1534, 2866, 2867, 2885, 2884, 1642, 1643, 1661, 1660
1535, 2867, 2868, 2886, 2885, 1643, 1644, 1662, 1661
1536, 2868, 2869, 2887, 2886, 1644, 1645, 1663, 1662
1537, 2869, 2870, 2888, 2887, 1645, 1646, 1664, 1663
1538, 2870, 2871, 2889, 2888, 1646, 1647, 1665, 1664
1539, 2871, 2872, 2890, 2889, 1647, 1648, 1666, 1665
1540, 2872, 2873, 2891, 2890, 1648, 1649, 1667, 1666
1541, 2873, 2874, 2892, 2891, 1649, 1650, 1668, 1667
1542, 2874, 2875, 2893, 2892, 1650, 1651, 1669, 1668
1543, 2875, 2876, 2894, 2893, 1651, 1652, 1670, 1669
1544, 2876, 2877, 2895, 2894, 1652, 1653, 1671, 1670
1545, 2877, 2878, 2896, 2895, 1653, 1654, 1672, 1671
1546, 2878, 2879, 2897, 2896, 1654, 1655, 1673, 1672
1547, 2879, 2880, 2898, 2897, 1655, 1656, 1674, 1673
1548, 2881, 2882, 2900, 2899, 1657, 1658, 1676, 1675
1549, 2882, 2883, 2901, 2900, 1658, 1659, 1677, 1676
1550, 2883, 2884, 2902, 2901, 1659, 1660, 1678, 1677
1551, 2884, 2885, 2903, 2902, 1660, 1661, 1679, 1678
1552, 2885, 2886, 2904, 2903, 1661, 1662, 1680, 1679
1553, 2886, 2887, 2905, 2904, 1662, 1663, 1681, 1680
1554, 2887, 2888, 2906, 2905, 1663, 1664, 1682, 1681
1555, 2888, 2889, 2907, 2906, 1664, 1665, 1683, 1682
1556, 2889, 2890, 2908, 2907, 1665, 1666, 1684, 1683
1557, 2890, 2891, 2909, 2908, 1666, 1667, 1685, 1684
1558, 2891, 2892, 2910, 2909, 1667, 1668, 1686, 1685
1559, 2892, 2893, 2911, 2910, 1668, 1669, 1687, 1686
1560, 2893, 2894, 2912, 2911, 1669, 1670, 1688, 1687
1561, 2894, 2895, 2913, 2912, 1670, 1671, 1689, 1688
1562, 2895, 2896, 2914, 2913, 1671, 1672, 1690, 1689
1563, 2896, 2897, 2915, 2914, 1672, 1673, 1691, 1690
1564, 2897, 2898, 2916, 2915, 1673, 1674, 1692, 1691
1565, 2899, 2900, 2918, 2917, 1675, 1676, 1694, 1693
1566, 2900, 2901, 2919, 2918, 1676, 1677, 1695, 1694
1567, 2901, 2902, 2920, 2919, 1677, 1678, 1696, 1695
1568, 2902, 2903, 2921, 2920, 1678, 1679, 1697, 1696
1569, 2903, 2904, 2922, 2921, 1679, 1680, 1698, 1697
1570, 2904, 2905, 2923, 2922, 1680, 1681, 1699, 1698
1571, 2905, 2906, 2924, 2923, 1681, 1682, 1700, 1699
1572, 2906, 2907, 2925, 2924, 1682, 1683, 1701, 1700
1573, 2907, 2908, 2926, 2925, 1683, 1684, 1702, 1701
1574, 2908, 2909, 2927, 2926, 1684, 1685, 1703, 1702
1575, 2909, 2910, 2928, 2927, 1685, 1686, 1704, 1703
1576, 2910, 2911, 2929, 2928, 1686, 1687, 1705, 1704
1577, 2911, 2912, 2930, 2929, 1687, 1688, 1706, 1705
1578, 2912, 2913, 2931, 2930, 1688, 1689, 1707, 1706
1579, 2913, 2914, 2932, 2931, 1689, 1690, 1708, 1707
1580, 2914, 2915, 2933, 2932, 1690, 1691, 1709, 1708
1581, 2915, 2916, 2934, 2933, 1691, 1692, 1710, 1709
1582, 2917, 2918, 2936, 2935, 1693, 1694, 1712, 1711
1583, 2918, 2919, 2937, 2936, 1694, 1695, 1713, 1712
1584, 2919, 2920, 2938, 2937, 1695, 1696, 1714, 1713
1585, 2920, 2921, 2939, 2938, 1696, 1697, 1715, 1714
1586, 2921, 2922, 2940, 2939, 1697, 1698, 1716, 1715
1587, 2922, 2923, 2941, 2940, 1698, 1699, 1717, 1716
1588, 2923, 2924, 2942, 2941, 1699, 1700, 1718, 1717
1589, 2924, 2925, 2943, 2942, 1700, 1701, 1719, 1718
1590, 2925, 2926, 2944, 2943, 1701, 1702, 1720, 1719
1591, 2926, 2927, 2945, 2944, 1702, 1703, 1721, 1720
1592, 2927, 2928, 2946, 2945, 1703, 1704, 1722, 1721
1593, 2928, 2929, 2947, 2946, 1704, 1705, 1723, 1722
1594, 2929, 2930, 2948, 2947, 1705, 1706, 1724, 1723
1595, 2930, 2931, 2949, 2948, 1706, 1707, 1725, 1724
1596, 2931, 2932, 2950, 2949, 1707, 1708, 1726, 1725
1597, 2932, 2933, 2951, 2950, 1708, 1709, 1727, 1726
1598, 2933, 2934, 2952, 2951, 1709, 1710, 1728, 1727
1599, 2935, 2936, 2954, 2953, 1711, 1712, 1730, 1729
1600, 2936, 2937, 2955, 2954, 1712, 1713, 1731, 1730
1601, 2937, 2938, 2956, 2955, 1713, 1714, 1732, 1731
1602, 2938, 2939, 2957, 2956, 1714, 1715, 1733, 1732
1603, 2939, 2940, 2958, 2957, 1715, 1716, 1734, 1733
1604, 2940, 2941, 2959, 2958, 1716, 1717, 1735, 1734
1605, 2941, 2942, 2960, 2959, 1717, 1718, 1736, 1735
1606, 2942, 2943, 2961, 2960, 1718, 1719, 1737, 1736
1607, 2943, 2944, 2962, 2961, 1719, 1720, 1738, 1737
1608, 2944, 2945, 2963, 2962, 1720, 1721, 1739, 1738
1609, 2945, 2946, 2964, 2963, 1721, 1722, 1740, 1739
1610, 2946, 2947, 2965, 2964, 1722, 1723, 1741, 1740
1611, 2947, 2948, 2966, 2965, 1723, 1724, 1742, 1741
1612, 2948, 2949, 2967, 2966, 1724, 1725, 1743, 1742
1613, 2949, 2950, 2968, 2967, 1725, 1726, 1744, 1743
1614, 2950, 2951, 2969, 2968, 1726, 1727, 1745, 1744
1615, 2951, 2952, 2970, 2969, 1727, 1728, 1746, 1745
1616, 2953, 2954, 2972, 2971, 1729, 1730, 1748, 1747
1617, 2954, 2955, 2973, 2972, 1730, 1731, 1749, 1748
1618, 2955, 2956, 2974, 2973, 1731, 1732, 1750, 1749
1619, 2956, 2957, 2975, 2974, 1732, 1733, 1751, 1750
1620, 2957, 2958, 2976, 2975, 1733, 1734, 1752, 1751
1621, 2958, 2959, 2977, 2976, 1734, 1735, 1753, 1752
1622, 2959, 2960, 2978, 2977, 1735, 1736, 1754, 1753
1623, 2960, 2961, 2979, 2978, 1736, 1737, 1755, 1754
1624, 2961, 2962, 2980, 2979, 1737, 1738, 1756, 1755
1625, 2962, 2963, 2981, 2980, 1738, 1739, 1757, 1756
1626, 2963, 2964, 2982, 2981, 1739, 1740, 1758, 1757
1627, 2964, 2965, 2983, 2982, 1740, 1741, 1759, 1758
1628, 2965, 2966, 2984, 2983, 1741, 1742, 1760, 1759
1629, 2966, 2967, 2985, 2984, 1742, 1743, 1761, 1760
1630, 2967, 2968, 2986, 2985, 1743, 1744, 1762, 1761
1631, 2968, 2969, 2987, 2986, 1744, 1745, 1763, 1762
1632, 2969, 2970, 2988, 2987, 1745, 1746, 1764, 1763
1633, 2971, 2972, 2990, 2989, 1747, 1748, 1766, 1765
1634, 2972, 2973, 2991, 2990, 1748, 1749, 1767, 1766
1635, 2973, 2974, 2992, 2991, 1749, 1750, 1768, 1767
1636, 2974, 2975, 2993, 2992, 1750, 1751, 1769, 1768
1637, 2975, 2976, 2994, 2993, 1751, 1752, 1770, 1769
1638, 2976, 2977, 2995, 2994, 1752, 1753, 1771, 1770
1639, 2977, 2978, 2996, 2995, 1753, 1754, 1772, 1771
1640, 2978, 2979, 2997, 2996, 1754, 1755, 1773, 1772
1641, 2979, 2980, 2998, 2997, 1755, 1756, 1774, 1773
1642, 2980, 2981, 2999, 2998, 1756, 1757, 1775, 1774
1643, 2981, 2982, 3000, 2999, 1757, 1758, 1776, 1775
1644, 2982, 2983, 3001, 3000, 1758, 1759, 1777, 1776
1645, 2983, 2984, 3002, 3001, 1759, 1760, 1778, 1777
1646, 2984, 2985, 3003, 3002, 1760, 1761, 1779, 1778
1647, 2985, 2986, 3004, 3003, 1761, 1762, 1780, 1779
1648, 2986, 2987, 3005, 3004, 1762, 1763, 1781, 1780
1649, 2987, 2988, 3006, 3005, 1763, 1764, 1782, 1781
1650, 2989, 2990, 3008, 3007, 1765, 1766, 1784, 1783
1651, 2990, 2991, 3009, 3008, 1766, 1767, 1785, 1784
1652, 2991, 2992, 3010, 3009, 1767, 1768, 1786, 1785
1653, 2992, 2993, 3011, 3010, 1768, 1769, 1787, 1786
1654, 2993, 2994, 3012, 3011, 1769, 1770, 1788, 1787
1655, 2994, 2995, 3013, 3012, 1770, 1771, 1789, 1788
1656, 2995, 2996, 3014, 3013, 1771, 1772, 1790, 1789
1657, 2996, 2997, 3015, 3014, 1772, 1773, 1791, 1790
1658, 2997, 2998, 3016, 3015, 1773, 1774, 1792, 1791
1659, 2998, 2999, 3017, 3016, 1774, 1775, 1793, 1792
1660, 2999, 3000, 3018, 3017, 1775, 1776, 1794, 1793
1661, 3000, 3001, 3019, 3018, 1776, 1777, 1795, 1794
1662, 3001, 3002, 3020, 3019, 1777, 1778, 1796, 1795
1663, 3002, 3003, 3021, 3020, 1778, 1779, 1797, 1796
1664, 3003, 3004, 3022, 3021, 1779, 1780, 1798, 1797
1665, 3004, 3005, 3023, 3022, 1780, 1781, 1799, 1798
1666, 3005, 3006, 3024, 3023, 1781, 1782, 1800, 1799
1667, 3007, 3008, 3026, 3025, 1783, 1784, 1802, 1801
1668, 3008, 3009, 3027, 3026, 1784, 1785, 1803, 1802
1669, 3009, 3010, 3028, 3027, 1785, 1786, 1804, 1803
1670, 3010, 3011, 3029, 3028, 1786, 1787, 1805, 1804
1671, 3011, 3012, 3030, 3029, 1787, 1788, 1806, 1805
1672, 3012, 3013, 3031, 3030, 1788, 1789, 1807, 1806
1673, 3013, 3014, 3032, 3031, 1789, 1790, 1808, 1807
1674, 3014, 3015, 3033, 3032, 1790, 1791, 1809, 1808
1675, 3015, 3016, 3034, 3033, 1791, 1792, 1810, 1809
1676, 3016, 3017, 3035, 3034, 1792, 1793, 1811, 1810
1677, 3017, 3018, 3036, 3035, 1793, 1794, 1812, 1811
1678, 3018, 3019, 3037, 3036, 1794, 1795, 1813, 1812
1679, 3019, 3020, 3038, 3037, 1795, 1796, 1814, 1813
1680, 3020, 3021, 3039, 3038, 1796, 1797, 1815, 1814
1681, 3021, 3022, 3040, 3039, 1797, 1798, 1816, 1815
1682, 3022, 3023, 3041, 3040, 1798, 1799, 1817, 1816
1683, 3023, 3024, 3042, 3041, 1799, 1800, 1818, 1817
1684, 3025, 3026, 3044, 3043, 1801, 1802, 1820, 1819
1685, 3026, 3027, 3045, 3044, 1802, 1803, 1821, 1820
1686, 3027, 3028, 3046, 3045, 1803, 1804, 1822, 1821
1687, 3028, 3029, 3047, 3046, 1804, 1805, 1823, 1822
1688, 3029, 3030, 3048, 3047, 1805, 1806, 1824, 1823
1689, 3030, 3031, 3049, 3048, 1806, 1807, 1825, 1824
1690, 3031, 3032, 3050, 3049, 1807, 1808, 1826, 1825
1691, 3032, 3033, 3051, 3050, 1808, 1809, 1827, 1826
1692, 3033, 3034, 3052, 3051, 1809, 1810, 1828, 1827
1693, 3034, 3035, 3053, 3052, 1810, 1811, 1829, 1828
1694, 3035, 3036, 3054, 3053, 1811, 1812, 1830, 1829
1695, 3036, 3037, 3055, 3054, 1812, 1813, 1831, 1830
1696, 3037, 3038, 3056, 3055, 1813, 1814, 1832, 1831
1697, 3038, 3039, 3057, 3056, 1814, 1815, 1833, 1832
1698, 3039, 3040, 3058, 3057, 1815, 1816, 1834, 1833
1699, 3040, 3041, 3059, 3058, 1816, 1817, 1835, 1834
1700, 3041, 3042, 3060, 3059, 1817, 1818, 1836, 1835
1701, 3043, 3044, 3062, 3061, 1819, 1820, 1838, 1837
1702, 3044, 3045, 3063, 3062, 1820, 1821, 1839, 1838
1703, 3045, 3046, 3064, 3063, 1821, 1822, 1840, 1839
1704, 3046, 3047, 3065, 3064, 1822, 1823, 1841, 1840
1705, 3047, 3048, 3066, 3065, 1823, 1824, 1842, 1841
1706, 3048, 3049, 3067, 3066, 1824, 1825, 1843, 1842
1707, 3049, 3050, 3068, 3067, 1825, 1826, 1844, 1843
1708, 3050, 3051, 3069, 3068, 1826, 1827, 1845, 1844
1709, 3051, 3052, 3070, 3069, 1827, 1828, 1846, 1845
1710, 3052, 3053, 3071, 3070, 1828, 1829, 1847, 1846
1711, 3053, 3054, 3072, 3071, 1829, 1830, 1848, 1847
1712, 3054, 3055, 3073, 3072, 1830, 1831, 1849, 1848
1713, 3055, 3056, 3074, 3073, 1831, 1832, 1850, 1849
1714, 3056, 3057, 3075, 3074, 1832, 1833, 1851, 1850
1715, 3057, 3058, 3076, 3075, 1833, 1834, 1852, 1851
1716, 3058, 3059, 3077, 3076, 1834, 1835, 1853, 1852
1717, 3059, 3060, 3078, 3077, 1835, 1836, 1854, 1853
1718, 3061, 3062, 3080, 3079, 1837, 1838, 1856, 1855
1719, 3062, 3063, 3081, 3080, 1838, 1839, 1857, 1856
1720, 3063, 3064, 3082, 3081, 1839, 1840, 1858, 1857
1721, 3064, 3065, 3083, 3082, 1840, 1841, 1859, 1858
1722, 3065, 3066, 3084, 3083, 1841, 1842, 1860, 1859
1723, 3066, 3067, 3085, 3084, 1842, 1843, 1861, 1860
1724, 3067, 3068, 3086, 3085, 1843, 1844, 1862, 1861
1725, 3068, 3069, 3087, 3086, 1844, 1845, 1863, 1862
1726, 3069, 3070, 3088, 3087, 1845, 1846, 1864, 1863
1727, 3070, 3071, 3089, 3088, 1846, 1847, 1865, 1864
1728, 3071, 3072, 3090, 3089, 1847, 1848, 1866, 1865
1729, 3072, 3073, 3091, 3090, 1848, 1849, 1867, 1866
1730, 3073, 3074, 3092, 3091, 1849, 1850, 1868, 1867
1731, 3074, 3075, 3093, 3092, 1850, 1851, 1869, 1868
1732, 3075, 3076, 3094, 3093, 1851, 1852, 1870, 1869
1733, 3076, 3077, 3095, 3094, 1852, 1853, 1871, 1870
1734, 3077, 3078, 3096, 3095, 1853, 1854, 1872, 1871
1735, 3079, 3080, 3098, 3097, 1855, 1856, 1874, 1873
1736, 3080, 3081, 3099, 3098, 1856, 1857, 1875, 1874
1737, 3081, 3082, 3100, 3099, 1857, 1858, 1876, 1875
1738, 3082, 3083, 3101, 3100, 1858, 1859, 1877, 1876
1739, 3083, 3084, 3102, 3101, 1859, 1860, 1878, 1877
1740, 3084, 3085, 3103, 3102, 1860, 1861, 1879, 1878
1741, 3085, 3086, 3104, 3103, 1861, 1862, 1880, 1879
1742, 3086, 3087, 3105, 3104, 1862, 1863, 1881, 1880
1743, 3087, 3088, 3106, 3105, 1863, 1864, 1882, 1881
1744, 3088, 3089, 3107, 3106, 1864, 1865, 1883, 1882
1745, 3089, 3090, 3108, 3107, 1865, 1866, 1884, 1883
1746, 3090, 3091, 3109, 3108, 1866, 1867, 1885, 1884
1747, 3091, 3092, 3110, 3109, 1867, 1868, 1886, 1885
1748, 3092, 3093, 3111, 3110, 1868, 1869, 1887, 1886
1749, 3093, 3094, 3112, 3111, 1869, 1870, 1888, 1887
1750, 3094, 3095, 3113, 3112, 1870, 1871, 1889, 1888
1751, 3095, 3096, 3114, 3113, 1871, 1872, 1890, 1889
1752, 3097, 3098, 3116, 3115, 1873, 1874, 1892, 1891
1753, 3098, 3099, 3117, 3116, 1874, 1875, 1893, 1892
1754, 3099, 3100, 3118, 3117, 1875, 1876, 1894, 1893
1755, 3100, 3101, 3119, 3118, 1876, 1877, 1895, 1894
1756, 3101, 3102, 3120, 3119, 1877, 1878, 1896, 1895
1757, 3102, 3103, 3121, 3120, 1878, 1879, 1897, 1896
1758, 3103, 3104, 3122, 3121, 1879, 1880, 1898, 1897
1759, 3104, 3105, 3123, 3122, 1880, 1881, 1899, 1898
1760, 3105, 3106, 3124, 3123, 1881, 1882, 1900, 1899
1761, 3106, 3107, 3125, 3124, 1882, 1883, 1901, 1900
1762, 3107, 3108, 3126, 3125, 1883, 1884, 1902, 1901
1763, 3108, 3109, 3127, 3126, 1884, 1885, 1903, 1902
1764, 3109, 3110, 3128, 3127, 1885, 1886, 1904, 1903
1765, 3110, 3111, 3129, 3128, 1886, 1887, 1905, 1904
1766, 3111, 3112, 3130, 3129, 1887, 1888, 1906, 1905
1767, 3112, 3113, 3131, 3130, 1888, 1889, 1907, 1906
1768, 3113, 3114, 3132, 3131, 1889, 1890, 1908, 1907
1769, 3115, 3116, 3134, 3133, 1891, 1892, 1910, 1909
1770, 3116, 3117, 3135, 3134, 1892, 1893, 1911, 1910
1771, 3117, 3118, 3136, 3135, 1893, 1894, 1912, 1911
1772, 3118, 3119, 3137, 3136, 1894, 1895, 1913, 1912
1773, 3119, 3120, 3138, 3137, 1895, 1896, 1914, 1913
1774, 3120, 3121, 3139, 3138, 1896, 1897, 1915, 1914
1775, 3121, 3122, 3140, 3139, 1897, 1898, 1916, 1915
1776, 3122, 3123, 3141, 3140, 1898, 1899, 1917, 1916
1777, 3123, 3124, 3142, 3141, 1899, 1900, 1918, 1917
1778, 3124, 3125, 3143, 3142, 1900, 1901, 1919, 1918
1779, 3125, 3126, 3144, 3143, 1901, 1902, 1920, 1919
1780, 3126, 3127, 3145, 3144, 1902, 1903, 1921, 1920
1781, 3127, 3128, 3146, 3145, 1903, 1904, 1922, 1921
1782, 3128, 3129, 3147, 3146, 1904, 1905, 1923, 1922
1783, 3129, 3130, 3148, 3147, 1905, 1906, 1924, 1923
1784, 3130, 3131, 3149, 3148, 1906, 1907, 1925, 1924
1785, 3131, 3132, 3150, 3149, 1907, 1908, 1926, 1925
1786, 3133, 3134, 3152, 3151, 1909, 1910, 1928, 1927
1787, 3134, 3135, 3153, 3152, 1910, 1911, 1929, 1928
1788, 3135, 3136, 3154, 3153, 1911, 1912, 1930, 1929
1789, 3136, 3137, 3155, 3154, 1912, 1913, 1931, 1930
1790, 3137, 3138, 3156, 3155, 1913, 1914, 1932, 1931
1791, 3138, 3139, 3157, 3156, 1914, 1915, 1933, 1932
1792, 3139, 3140, 3158, 3157, 1915, 1916, 1934, 1933
1793, 3140, 3141, 3159, 3158, 1916, 1917, 1935, 1934
1794, 3141, 3142, 3160, 3159, 1917, 1918, 1936, 1935
1795, 3142, 3143, 3161, 3160, 1918, 1919, 1937, 1936
1796, 3143, 3144, 3162, 3161, 1919, 1920, 1938, 1937
1797, 3144, 3145, 3163, 3162, 1920, 1921, 1939, 1938
1798, 3145, 3146, 3164, 3163, 1921, 1922, 1940, 1939
1799, 3146, 3147, 3165, 3164, 1922, 1923, 1941, 1940
1800, 3147, 3148, 3166, 3165, 1923, 1924, 1942, 1941
1801, 3148, 3149, 3167, 3166, 1924, 1925, 1943, 1942
1802, 3149, 3150, 3168, 3167, 1925, 1926, 1944, 1943
1803, 3151, 3152, 3170, 3169, 1927, 1928, 1946, 1945
1804, 3152, 3153, 3171, 3170, 1928, 1929, 1947, 1946
1805, 3153, 3154, 3172, 3171, 1929, 1930, 1948, 1947
1806, 3154, 3155, 3173, 3172, 1930, 1931, 1949, 1948
1807, 3155, 3156, 3174, 3173, 1931, 1932, 1950, 1949
1808, 3156, 3157, 3175, 3174, 1932, 1933, 1951, 1950
1809, 3157, 3158, 3176, 3175, 1933, 1934, 1952, 1951
1810, 3158, 3159, 3177, 3176, 1934, 1935, 1953, 1952
1811, 3159, 3160, 3178, 3177, 1935, 1936, 1954, 1953
1812, 3160, 3161, 3179, 3178, 1936, 1937, 1955, 1954
1813, 3161, 3162, 3180, 3179, 1937, 1938, 1956, 1955
1814, 3162, 3163, 3181, 3180, 1938, 1939, 1957, 1956
1815, 3163, 3164, 3182, 3181, 1939, 1940, 1958, 1957
1816, 3164, 3165, 3183, 3182, 1940, 1941, 1959, 1958
1817, 3165, 3166, 3184, 3183, 1941, 1942, 1960, 1959
1818, 3166, 3167, 3185, 3184, 1942, 1943, 1961, 1960
1819, 3167, 3168, 3186, 3185, 1943, 1944, 1962, 1961
1820, 3169, 3170, 3188, 3187, 1945, 1946, 1964, 1963
1821, 3170, 3171, 3189, 3188, 1946, 1947, 1965, 1964
1822, 3171, 3172, 3190, 3189, 1947, 1948, 1966, 1965
1823, 3172, 3173, 3191, 3190, 1948, 1949, 1967, 1966
1824, 3173, 3174, 3192, 3191, 1949, 1950, 1968, 1967
1825, 3174, 3175, 3193, 3192, 1950, 1951, 1969, 1968
1826, 3175, 3176, 3194, 3193, 1951, 1952, 1970, 1969
1827, 3176, 3177, 3195, 3194, 1952, 1953, 1971, 1970
1828, 3177, 3178, 3196, 3195, 1953, 1954, 1972, 1971
1829, 3178, 3179, 3197, 3196, 1954, 1955, 1973, 1972
1830, 3179, 3180, 3198, 3197, 1955, 1956, 1974, 1973
1831, 3180, 3181, 3199, 3198, 1956, 1957, 1975, 1974
1832, 3181, 3182, 3200, 3199, 1957, 1958, 1976, 1975
1833, 3182, 3183, 3201, 3200, 1958, 1959, 1977, 1976
1834, 3183, 3184, 3202, 3201, 1959, 1960, 1978, 1977
1835, 3184, 3185, 3203, 3202, 1960, 1961, 1979, 1978
1836, 3185, 3186, 3204, 3203, 1961, 1962, 1980, 1979
1837, 3187, 3188, 3206, 3205, 1963, 1964, 1982, 1981
1838, 3188, 3189, 3207, 3206, 1964, 1965, 1983, 1982
1839, 3189, 3190, 3208, 3207, 1965, 1966, 1984, 1983
1840, 3190, 3191, 3209, 3208, 1966, 1967, 1985, 1984
1841, 3191, 3192, 3210, 3209, 1967, 1968, 1986, 1985
1842, 3192, 3193, 3211, 3210, 1968, 1969, 1987, 1986
1843, 3193, 3194, 3212, 3211, 1969, 1970, 1988, 1987
1844, 3194, 3195, 3213, 3212, 1970, 1971, 1989, 1988
1845, 3195, 3196, 3214, 3213, 1971, 1972, 1990, 1989
1846, 3196, 3197, 3215, 3214, 1972, 1973, 1991, 1990
1847, 3197, 3198, 3216, 3215, 1973, 1974, 1992, 1991
1848, 3198, 3199, 3217, 3216, 1974, 1975, 1993, 1992
1849, 3199, 3200, 3218, 3217, 1975, 1976, 1994, 1993
1850, 3200, 3201, 3219, 3218, 1976, 1977, 1995, 1994
1851, 3201, 3202, 3220, 3219, 1977, 1978, 1996, 1995
1852, 3202, 3203, 3221, 3220, 1978, 1979, 1997, 1996
1853, 3203, 3204, 3222, 3221, 1979, 1980, 1998, 1997
1854, 3205, 3206, 3224, 3223, 1981, 1982, 2000, 1999
1855, 3206, 3207, 3225, 3224, 1982, 1983, 2001, 2000
1856, 3207, 3208, 3226, 3225, 1983, 1984, 2002, 2001
1857, 3208, 3209, 3227, 3226, 1984, 1985, 2003, 2002
1858, 3209, 3210, 3228, 3227, 1985, 1986, 2004, 2003
1859, 3210, 3211, 3229, 3228, 1986, 1987, 2005, 2004
1860, 3211, 3212, 3230, 3229, 1987, 1988, 2006, 2005
1861, 3212, 3213, 3231, 3230, 1988, 1989, 2007, 2006
1862, 3213, 3214, 3232, 3231, 1989, 1990, 2008, 2007
1863, 3214, 3215, 3233, 3232, 1990, 1991, 2009, 2008
1864, 3215, 3216, 3234, 3233, 1991, 1992, 2010, 2009
1865, 3216, 3217, 3235, 3234, 1992, 1993, 2011, 2010
1866, 3217, 3218, 3236, 3235, 1993, 1994, 2012, 2011
1867, 3218, 3219, 3237, 3236, 1994, 1995, 2013, 2012
1868, 3219, 3220, 3238, 3237, 1995, 1996, 2014, 2013
1869, 3220, 3221, 3239, 3238, 1996, 1997, 2015, 2014
1870, 3221, 3222, 3240, 3239, 1997, 1998, 2016, 2015
1871, 3223, 3224, 3242, 3241, 1999, 2000, 2018, 2017
1872, 3224, 3225, 3243, 3242, 2000, 2001, 2019, 2018
1873, 3225, 3226, 3244, 3243, 2001, 2002, 2020, 2019
1874, 3226, 3227, 3245, 3244, 2002, 2003, 2021, 2020
1875, 3227, 3228, 3246, 3245, 2003, 2004, 2022, 2021
1876, 3228, 3229, 3247, 3246, 2004, 2005, 2023, 2022
1877, 3229, 3230, 3248, 3247, 2005, 2006, 2024, 2023
1878, 3230, 3231, 3249, 3248, 2006, 2007, 2025, 2024
1879, 3231, 3232, 3250, 3249, 2007, 2008, 2026, 2025
1880, 3232, 3233, 3251, 3250, 2008, 2009, 2027, 2026
1881, 3233, 3234, 3252, 3251, 2009, 2010, 2028, 2027
1882, 3234, 3235, 3253, 3252, 2010, 2011, 2029, 2028
1883, 3235, 3236, 3254, 3253, 2011, 2012, 2030, 2029
1884, 3236, 3237, 3255, 3254, 2012, 2013, 2031, 2030
1885, 3237, 3238, 3256, 3255, 2013, 2014, 2032, 2031
1886, 3238, 3239, 3257, 3256, 2014, 2015, 2033, 2032
1887, 3239, 3240, 3258, 3257, 2015, 2016, 2034, 2033
1888, 3241, 3242, 3260, 3259, 2017, 2018, 2036, 2035
1889, 3242, 3243, 3261, 3260, 2018, 2019, 2037, 2036
1890, 3243, 3244, 3262, 3261, 2019, 2020, 2038, 2037
1891, 3244, 3245, 3263, 3262, 2020, 2021, 2039, 2038
1892, 3245, 3246, 3264, 3263, 2021, 2022, 2040, 2039
1893, 3246, 3247, 3265, 3264, 2022, 2023, 2041, 2040
1894, 3247, 3248, 3266, 3265, 2023, 2024, 2042, 2041
1895, 3248, 3249, 3267, 3266, 2024, 2025, 2043, 2042
1896, 3249, 3250, 3268, 3267, 2025, 2026, 2044, 2043
1897, 3250, 3251, 3269, 3268, 2026, 2027, 2045, 2044
1898, 3251, 3252, 3270, 3269, 2027, 2028, 2046, 2045
1899, 3252, 3253, 3271, 3270, 2028, 2029, 2047, 2046
1900, 3253, 3254, 3272, 3271, 2029, 2030, 2048, 2047
1901, 3254, 3255, 3273, 3272, 2030, 2031, 2049, 2048
1902, 3255, 3256, 3274, 3273, 2031, 2032, 2050, 2049
1903, 3256, 3257, 3275, 3274, 2032, 2033, 2051, 2050
1904, 3257, 3258, 3276, 3275, 2033, 2034, 2052, 2051
1905, 3259, 3260, 3278, 3277, 2035, 2036, 2054, 2053
1906, 3260, 3261, 3279, 3278, 2036, 2037, 2055, 2054
1907, 3261, 3262, 3280, 3279, 2037, 2038, 2056, 2055
1908, 3262, 3263, 3281, 3280, 2038, 2039, 2057, 2056
1909, 3263, 3264, 3282, 3281, 2039, 2040, 2058, 2057
1910, 3264, 3265, 3283, 3282, 2040, 2041, 2059, 2058
1911, 3265, 3266, 3284, 3283, 2041, 2042, 2060, 2059
1912, 3266, 3267, 3285, 3284, 2042, 2043, 2061, 2060
1913, 3267, 3268, 3286, 3285, 2043, 2044, 2062, 2061
1914, 3268, 3269, 3287, 3286, 2044, 2045, 2063, 2062
1915, 3269, 3270, 3288, 3287, 2045, 2046, 2064, 2063
1916, 3270, 3271, 3289, 3288, 2046, 2047, 2065, 2064
1917, 3271, 3272, 3290, 3289, 2047, 2048, 2066, 2065
1918, 3272, 3273, 3291, 3290, 2048, 2049, 2067, 2066
1919, 3273, 3274, 3292, 3291, 2049, 2050, 2068, 2067
1920, 3274, 3275, 3293, 3292, 2050, 2051, 2069, 2068
1921, 3275, 3276, 3294, 3293, 2051, 2052, 2070, 2069
1922, 3277, 3278, 3296, 3295, 2053, 2054, 2072, 2071
1923, 3278, 3279, 3297, 3296, 2054, 2055, 2073, 2072
1924, 3279, 3280, 3298, 3297, 2055, 2056, 2074, 2073
1925, 3280, 3281, 3299, 3298, 2056, 2057, 2075, 2074
1926, 3281, 3282, 3300, 3299, 2057, 2058, 2076, 2075
1927, 3282, 3283, 3301, 3300, 2058, 2059, 2077, 2076
1928, 3283, 3284, 3302, 3301, 2059, 2060, 2078, 2077
1929, 3284, 3285, 3303, 3302, 2060, 2061, 2079, 2078
1930, 3285, 3286, 3304, 3303, 2061, 2062, 2080, 2079
1931, 3286, 3287, 3305, 3304, 2062, 2063, 2081, 2080
1932, 3287, 3288, 3306, 3305, 2063, 2064, 2082, 2081
1933, 3288, 3289, 3307, 3306, 2064, 2065, 2083, 2082
1934, 3289, 3290, 3308, 3307, 2065, 2066, 2084, 2083
1935, 3290, 3291, 3309, 3308, 2066, 2067, 2085, 2084
1936, 3291, 3292, 3310, 3309, 2067, 2068, 2086, 2085
1937, 3292, 3293, 3311, 3310, 2068, 2069, 2087, 2086
1938, 3293, 3294, 3312, 3311, 2069, 2070, 2088, 2087
1939, 3295, 3296, 3314, 3313, 2071, 2072, 2090, 2089
1940, 3296, 3297, 3315, 3314, 2072, 2073, 2091, 2090
1941, 3297, 3298, 3316, 3315, 2073, 2074, 2092, 2091
1942, 3298, 3299, 3317, 3316, 2074, 2075, 2093, 2092
1943, 3299, 3300, 3318, 3317, 2075, 2076, 2094, 2093
1944, 3300, 3301, 3319, 3318, 2076, 2077, 2095, 2094
1945, 3301, 3302, 3320, 3319, 2077, 2078, 2096, 2095
1946, 3302, 3303, 3321, 3320, 2078, 2079, 2097, 2096
1947, 3303, 3304, 3322, 3321, 2079, 2080, 2098, 2097
1948, 3304, 3305, 3323, 3322, 2080, 2081, 2099, 2098
1949, 3305, 3306, 3324, 3323, 2081, 2082, 2100, 2099
1950, 3306, 3307, 3325, 3324, 2082, 2083, 2101, 2100
1951, 3307, 3308, 3326, 3325, 2083, 2084, 2102, 2101
1952, 3308, 3309, 3327, 3326, 2084, 2085, 2103, 2102
1953, 3309, 3310, 3328, 3327, 2085, 2086, 2104, 2103
1954, 3310, 3311, 3329, 3328, 2086, 2087, 2105, 2104
1955, 3311, 3312, 3330, 3329, 2087, 2088, 2106, 2105
1956, 3313, 3314, 3332, 3331, 2089, 2090, 2108, 2107
1957, 3314, 3315, 3333, 3332, 2090, 2091, 2109, 2108
1958, 3315, 3316, 3334, 3333, 2091, 2092, 2110, 2109
1959, 3316, 3317, 3335, 3334, 2092, 2093, 2111, 2110
1960, 3317, 3318, 3336, 3335, 2093, 2094, 2112, 2111
1961, 3318, 3319, 3337, 3336, 2094, 2095, 2113, 2112
1962, 3319, 3320, 3338, 3337, 2095, 2096, 2114, 2113
1963, 3320, 3321, 3339, 3338, 2096, 2097, 2115, 2114
1964, 3321, 3322, 3340, 3339, 2097, 2098, 2116, 2115
1965, 3322, 3323, 3341, 3340, 2098, 2099, 2117, 2116
1966, 3323, 3324, 3342, 3341, 2099, 2100, 2118, 2117
1967, 3324, 3325, 3343, 3342, 2100, 2101, 2119, 2118
1968, 3325, 3326, 3344, 3343, 2101, 2102, 2120, 2119
1969, 3326, 3327, 3345, 3344, 2102, 2103, 2121, 2120
1970, 3327, 3328, 3346, 3345, 2103, 2104, 2122, 2121
1971, 3328, 3329, 3347, 3346, 2104, 2105, 2123, 2122
1972, 3329, 3330, 3348, 3347, 2105, 2106, 2124, 2123
1973, 3331, 3332, 3350, 3349, 2107, 2108, 2126, 2125
1974, 3332, 3333, 3351, 3350, 2108, 2109, 2127, 2126
1975, 3333, 3334, 3352, 3351, 2109, 2110, 2128, 2127
1976, 3334, 3335, 3353, 3352, 2110, 2111, 2129, 2128
1977, 3335, 3336, 3354, 3353, 2111, 2112, 2130, 2129
1978, 3336, 3337, 3355, 3354, 2112, 2113, 2131, 2130
1979, 3337, 3338, 3356, 3355, 2113, 2114, 2132, 2131
1980, 3338, 3339, 3357, 3356, 2114, 2115, 2133, 2132
1981, 3339, 3340, 3358, 3357, 2115, 2116, 2134, 2133
1982, 3340, 3341, 3359, 3358, 2116, 2117, 2135, 2134
1983, 3341, 3342, 3360, 3359, 2117, 2118, 2136, 2135
1984, 3342, 3343, 3361, 3360, 2118, 2119, 2137, 2136
1985, 3343, 3344, 3362, 3361, 2119, 2120, 2138, 2137
1986, 3344, 3345, 3363, 3362, 2120, 2121, 2139, 2138
1987, 3345, 3346, 3364, 3363, 2121, 2122, 2140, 2139
1988, 3346, 3347, 3365, 3364, 2122, 2123, 2141, 2140
1989, 3347, 3348, 3366, 3365, 2123, 2124, 2142, 2141
1990, 3349, 3350, 3368, 3367, 2125, 2126, 2144, 2143
1991, 3350, 3351, 3369, 3368, 2126, 2127, 2145, 2144
1992, 3351, 3352, 3370, 3369, 2127, 2128, 2146, 2145
1993, 3352, 3353, 3371, 3370, 2128, 2129, 2147, 2146
1994, 3353, 3354, 3372, 3371, 2129, 2130, 2148, 2147
1995, 3354, 3355, 3373, 3372, 2130, 2131, 2149, 2148
1996, 3355, 3356, 3374, 3373, 2131, 2132, 2150, 2149
1997, 3356, 3357, 3375, 3374, 2132, 2133, 2151, 2150
1998, 3357, 3358, 3376, 3375, 2133, 2134, 2152, 2151
1999, 3358, 3359, 3377, 3376, 2134, 2135, 2153, 2152
2000, 3359, 3360, 3378, 3377, 2135, 2136, 2154, 2153
2001, 3360, 3361, 3379, 3378, 2136, 2137, 2155, 2154
2002, 3361, 3362, 3380, 3379, 2137, 2138, 2156, 2155
2003, 3362, 3363, 3381, 3380, 2138, 2139, 2157, 2156
2004, 3363, 3364, 3382, 3381, 2139, 2140, 2158, 2157
2005, 3364, 3365, 3383, 3382, 2140, 2141, 2159, 2158
2006, 3365, 3366, 3384, 3383, 2141, 2142, 2160, 2159
2007, 3367, 3368, 3386, 3385, 2143, 2144, 2162, 2161
2008, 3368, 3369, 3387, 3386, 2144, 2145, 2163, 2162
2009, 3369, 3370, 3388, 3387, 2145, 2146, 2164, 2163
2010, 3370, 3371, 3389, 3388, 2146, 2147, 2165, 2164
2011, 3371, 3372, 3390, 3389, 2147, 2148, 2166, 2165
2012, 3372, 3373, 3391, 3390, 2148, 2149, 2167, 2166
2013, 3373, 3374, 3392, 3391, 2149, 2150, 2168, 2167
2014, 3374, 3375, 3393, 3392, 2150, 2151, 2169, 2168
2015, 3375, 3376, 3394, 3393, 2151, 2152, 2170, 2169
2016, 3376, 3377, 3395, 3394, 2152, 2153, 2171, 2170
2017, 3377, 3378, 3396, 3395, 2153, 2154, 2172, 2171
2018, 3378, 3379, 3397, 3396, 2154, 2155, 2173, 2172
2019, 3379, 3380, 3398, 3397, 2155, 2156, 2174, 2173
2020, 3380, 3381, 3399, 3398, 2156, 2157, 2175, 2174
2021, 3381, 3382, 3400, 3399, 2157, 2158, 2176, 2175
2022, 3382, 3383, 3401, 3400, 2158, 2159, 2177, 2176
2023, 3383, 3384, 3402, 3401, 2159, 2160, 2178, 2177
2024, 3385, 3386, 3404, 3403, 2161, 2162, 2180, 2179
2025, 3386, 3387, 3405, 3404, 2162, 2163, 2181, 2180
2026, 3387, 3388, 3406, 3405, 2163, 2164, 2182, 2181
2027, 3388, 3389, 3407, 3406, 2164, 2165, 2183, 2182
2028, 3389, 3390, 3408, 3407, 2165, 2166, 2184, 2183
2029, 3390, 3391, 3409, 3408, 2166, 2167, 2185, 2184
2030, 3391, 3392, 3410, 3409, 2167, 2168, 2186, 2185
2031, 3392, 3393, 3411, 3410, 2168, 2169, 2187, 2186
2032, 3393, 3394, 3412, 3411, 2169, 2170, 2188, 2187
2033, 3394, 3395, 3413, 3412, 2170, 2171, 2189, 2188
2034, 3395, 3396, 3414, 3413, 2171, 2172, 2190, 2189
2035, 3396, 3397, 3415, 3414, 2172, 2173, 2191, 2190
2036, 3397, 3398, 3416, 3415, 2173, 2174, 2192, 2191
2037, 3398, 3399, 3417, 3416, 2174, 2175, 2193, 2192
2038, 3399, 3400, 3418, 3417, 2175, 2176, 2194, 2193
2039, 3400, 3401, 3419, 3418, 2176, 2177, 2195, 2194
2040, 3401, 3402, 3420, 3419, 2177, 2178, 2196, 2195
2041, 3403, 3404, 3422, 3421, 2179, 2180, 2198, 2197
2042, 3404, 3405, 3423, 3422, 2180, 2181, 2199, 2198
2043, 3405, 3406, 3424, 3423, 2181, 2182, 2200, 2199
2044, 3406, 3407, 3425, 3424, 2182, 2183, 2201, 2200
2045, 3407, 3408, 3426, 3425, 2183, 2184, 2202, 2201
2046, 3408, 3409, 3427, 3426, 2184, 2185, 2203, 2202
2047, 3409, 3410, 3428, 3427, 2185, 2186, 2204, 2203
2048, 3410, 3411, 3429, 3428, 2186, 2187, 2205, 2204
2049, 3411, 3412, 3430, 3429, 2187, 2188, 2206, 2205
2050, 3412, 3413, 3431, 3430, 2188, 2189, 2207, 2206
2051, 3413, 3414, 3432, 3431, 2189, 2190, 2208, 2207
2052, 3414, 3415, 3433, 3432, 2190, 2191, 2209, 2208
2053, 3415, 3416, 3434, 3433, 2191, 2192, 2210, 2209
2054, 3416, 3417, 3435, 3434, 2192, 2193, 2211, 2210
2055, 3417, 3418, 3436, 3435, 2193, 2194, 2212, 2211
2056, 3418, 3419, 3437, 3436, 2194, 2195, 2213, 2212
2057, 3419, 3420, 3438, 3437, 2195, 2196, 2214, 2213
2058, 3421, 3422, 3440, 3439, 2197, 2198, 2216, 2215
2059, 3422, 3423, 3441, 3440, 2198, 2199, 2217, 2216
2060, 3423, 3424, 3442, 3441, 2199, 2200, 2218, 2217
2061, 3424, 3425, 3443, 3442, 2200, 2201, 2219, 2218
2062, 3425, 3426, 3444, 3443, 2201, 2202, 2220, 2219
2063, 3426, 3427, 3445, 3444, 2202, 2203, 2221, 2220
2064, 3427, 3428, 3446, 3445, 2203, 2204, 2222, 2221
2065, 3428, 3429, 3447, 3446, 2204, 2205, 2223, 2222
2066, 3429, 3430, 3448, 3447, 2205, 2206, 2224, 2223
2067, 3430, 3431, 3449, 3448, 2206, 2207, 2225, 2224
2068, 3431, 3432, 3450, 3449, 2207, 2208, 2226, 2225
2069, 3432, 3433, 3451, 3450, 2208, 2209, 2227, 2226
2070, 3433, 3434, 3452, 3451, 2209, 2210, 2228, 2227
2071, 3434, 3435, 3453, 3452, 2210, 2211, 2229, 2228
2072, 3435, 3436, 3454, 3453, 2211, 2212, 2230, 2229
2073, 3436, 3437, 3455, 3454, 2212, 2213, 2231, 2230
2074, 3437, 3438, 3456, 3455, 2213, 2214, 2232, 2231
2075, 3439, 3440, 3458, 3457, 2215, 2216, 2234, 2233
2076, 3440, 3441, 3459, 3458, 2216, 2217, 2235, 2234
2077, 3441, 3442, 3460, 3459, 2217, 2218, 2236, 2235
2078, 3442, 3443, 3461, 3460, 2218, 2219, 2237, 2236
2079, 3443, 3444, 3462, 3461, 2219, 2220, 2238, 2237
2080, 3444, 3445, 3463, 3462, 2220, 2221, 2239, 2238
2081, 3445, 3446, 3464, 3463, 2221, 2222, 2240, 2239
2082, 3446, 3447, 3465, 3464, 2222, 2223, 2241, 2240
2083, 3447, 3448, 3466, 3465, 2223, 2224, 2242, 2241
2084, 3448, 3449, 3467, 3466, 2224, 2225, 2243, 2242
2085, 3449, 3450, 3468, 3467, 2225, 2226, 2244, 2243
2086, 3450, 3451, 3469, 3468, 2226, 2227, 2245, 2244
2087, 3451, 3452, 3470, 3469, 2227, 2228, 2246, 2245
2088, 3452, 3453, 3471, 3470, 2228, 2229, 2247, 2246
2089, 3453, 3454, 3472, 3471, 2229, 2230, 2248, 2247
2090, 3454, 3455, 3473, 3472, 2230, 2231, 2249, 2248
2091, 3455, 3456, 3474, 3473, 2231, 2232, 2250, 2249
2092, 3457, 3458, 3476, 3475, 2233, 2234, 2252, 2251
2093, 3458, 3459, 3477, 3476, 2234, 2235, 2253, 2252
2094, 3459, 3460, 3478, 3477, 2235, 2236, 2254, 2253
2095, 3460, 3461, 3479, 3478, 2236, 2237, 2255, 2254
2096, 3461, 3462, 3480, 3479, 2237, 2238, 2256, 2255
2097, 3462, 3463, 3481, 3480, 2238, 2239, 2257, 2256
2098, 3463, 3464, 3482, 3481, 2239, 2240, 2258, 2257
2099, 3464, 3465, 3483, 3482, 2240, 2241, 2259, 2258
2100, 3465, 3466, 3484, 3483, 2241, 2242, 2260, 2259
2101, 3466, 3467, 3485, 3484, 2242, 2243, 2261, 2260
2102, 3467, 3468, 3486, 3485, 2243, 2244, 2262, 2261
2103, 3468, 3469, 3487, 3486, 2244, 2245, 2263, 2262
2104, 3469, 3470, 3488, 3487, 2245, 2246, 2264, 2263
2105, 3470, 3471, 3489, 3488, 2246, 2247, 2265, 2264
2106, 3471, 3472, 3490, 3489, 2247, 2248, 2266, 2265
2107, 3472, 3473, 3491, 3490, 2248, 2249, 2267, 2266
2108, 3473, 3474, 3492, 3491, 2249, 2250, 2268, 2267
2109, 3475, 3476, 3494, 3493, 2251, 2252, 2270, 2269
2110, 3476, 3477, 3495, 3494, 2252, 2253, 2271, 2270
2111, 3477, 3478, 3496, 3495, 2253, 2254, 2272, 2271
2112, 3478, 3479, 3497, 3496, 2254, 2255, 2273, 2272
2113, 3479, 3480, 3498, 3497, 2255, 2256, 2274, 2273
2114, 3480, 3481, 3499, 3498, 2256, 2257, 2275, 2274
2115, 3481, 3482, 3500, 3499, 2257, 2258, 2276, 2275
2116, 3482, 3483, 3501, 3500, 2258, 2259, 2277, 2276
2117, 3483, 3484, 3502, 3501, 2259, 2260, 2278, 2277
2118, 3484, 3485, 3503, 3502, 2260, 2261, 2279, 2278
2119, 3485, 3486, 3504, 3503, 2261, 2262, 2280, 2279
2120, 3486, 3487, 3505, 3504, 2262, 2263, 2281, 2280
2121, 3487, 3488, 3506, 3505, 2263, 2264, 2282, 2281
2122, 3488, 3489, 3507, 3506, 2264, 2265, 2283, 2282
2123, 3489, 3490, 3508, 3507, 2265, 2266, 2284, 2283
2124, 3490, 3491, 3509, 3508, 2266, 2267, 2285, 2284
2125, 3491, 3492, 3510, 3509, 2267, 2268, 2286, 2285
2126, 3493, 3494, 3512, 3511, 2269, 2270, 2288, 2287
2127, 3494, 3495, 3513, 3512, 2270, 2271, 2289, 2288
2128, 3495, 3496, 3514, 3513, 2271, 2272, 2290, 2289
2129, 3496, 3497, 3515, 3514, 2272, 2273, 2291, 2290
2130, 3497, 3498, 3516, 3515, 2273, 2274, 2292, 2291
2131, 3498, 3499, 3517, 3516, 2274, 2275, 2293, 2292
2132, 3499, 3500, 3518, 3517, 2275, 2276, 2294, 2293
2133, 3500, 3501, 3519, 3518, 2276, 2277, 2295, 2294
2134, 3501, 3502, 3520, 3519, 2277, 2278, 2296, 2295
2135, 3502, 3503, 3521, 3520, 2278, 2279, 2297, 2296
2136, 3503, 3504, 3522, 3521, 2279, 2280, 2298, 2297
2137, 3504, 3505, 3523, 3522, 2280, 2281, 2299, 2298
2138, 3505, 3506, 3524, 3523, 2281, 2282, 2300, 2299
2139, 3506, 3507, 3525, 3524, 2282, 2283, 2301, 2300
2140, 3507, 3508, 3526, 3525, 2283, 2284, 2302, 2301
2141, 3508, 3509, 3527, 3526, 2284, 2285, 2303, 2302
2142, 3509, 3510, 3528, 3527, 2285, 2286, 2304, 2303
2143, 3511, 3512, 3530, 3529, 2287, 2288, 2306, 2305
2144, 3512, 3513, 3531, 3530, 2288, 2289, 2307, 2306
2145, 3513, 3514, 3532, 3531, 2289, 2290, 2308, 2307
2146, 3514, 3515, 3533, 3532, 2290, 2291, 2309, 2308
2147, 3515, 3516, 3534, 3533, 2291, 2292, 2310, 2309
2148, 3516, 3517, 3535, 3534, 2292, 2293, 2311, 2310
2149, 3517, 3518, 3536, 3535, 2293, 2294, 2312, 2311
2150, 3518, 3519, 3537, 3536, 2294, 2295, 2313, 2312
2151, 3519, 3520, 3538, 3537, 2295, 2296, 2314, 2313
2152, 3520, 3521, 3539, 3538, 2296, 2297, 2315, 2314
2153, 3521, 3522, 3540, 3539, 2297, 2298, 2316, 2315
2154, 3522, 3523, 3541, 3540, 2298, 2299, 2317, 2316
2155, 3523, 3524, 3542, 3541, 2299, 2300, 2318, 2317
2156, 3524, 3525, 3543, 3542, 2300, 2301, 2319, 2318
2157, 3525, 3526, 3544, 3543, 2301, 2302, 2320, 2319
2158, 3526, 3527, 3545, 3544, 2302, 2303, 2321, 2320
2159, 3527, 3528, 3546, 3545, 2303, 2304, 2322, 2321
2160, 3529, 3530, 3548, 3547, 2305, 2306, 2324, 2323
2161, 3530, 3531, 3549, 3548, 2306, 2307, 2325, 2324
2162, 3531, 3532, 3550, 3549, 2307, 2308, 2326, 2325
2163, 3532, 3533, 3551, 3550, 2308, 2309, 2327, 2326
2164, 3533, 3534, 3552, 3551, 2309, 2310, 2328, 2327
2165, 3534, 3535, 3553, 3552, 2310, 2311, 2329, 2328
2166, 3535, 3536, 3554, 3553, 2311, 2312, 2330, 2329
2167, 3536, 3537, 3555, 3554, 2312, 2313, 2331, 2330
2168, 3537, 3538, 3556, 3555, 2313, 2314, 2332, 2331
2169, 3538, 3539, 3557, 3556, 2314, 2315, 2333, 2332
2170, 3539, 3540, 3558, 3557, 2315, 2316, 2334, 2333
2171, 3540, 3541, 3559, 3558, 2316, 2317, 2335, 2334
2172, 3541, 3542, 3560, 3559, 2317, 2318, 2336, 2335
2173, 3542, 3543, 3561, 3560, 2318, 2319, 2337, 2336
2174, 3543, 3544, 3562, 3561, 2319, 2320, 2338, 2337
2175, 3544, 3545, 3563, 3562, 2320, 2321, 2339, 2338
2176, 3545, 3546, 3564, 3563, 2321, 2322, 2340, 2339
2177, 3547, 3548, 3566, 3565, 2323, 2324, 2342, 2341
2178, 3548, 3549, 3567, 3566, 2324, 2325, 2343, 2342
2179, 3549, 3550, 3568, 3567, 2325, 2326, 2344, 2343
2180, 3550, 3551, 3569, 3568, 2326, 2327, 2345, 2344
2181, 3551, 3552, 3570, 3569, 2327, 2328, 2346, 2345
2182, 3552, 3553, 3571, 3570, 2328, 2329, 2347, 2346
2183, 3553, 3554, 3572, 3571, 2329, 2330, 2348, 2347
2184, 3554, 3555, 3573, 3572, 2330, 2331, 2349, 2348
2185, 3555, 3556, 3574, 3573, 2331, 2332, 2350, 2349
2186, 3556, 3557, 3575, 3574, 2332, 2333, 2351, 2350
2187, 3557, 3558, 3576, 3575, 2333, 2334, 2352, 2351
2188, 3558, 3559, 3577, 3576, 2334, 2335, 2353, 2352
2189, 3559, 3560, 3578, 3577, 2335, 2336, 2354, 2353
2190, 3560, 3561, 3579, 3578, 2336, 2337, 2355, 2354
2191, 3561, 3562, 3580, 3579, 2337, 2338, 2356, 2355
2192, 3562, 3563, 3581, 3580, 2338, 2339, 2357, 2356
2193, 3563, 3564, 3582, 3581, 2339, 2340, 2358, 2357
2194, 3565, 3566, 3584, 3583, 2341, 2342, 2360, 2359
2195, 3566, 3567, 3585, 3584, 2342, 2343, 2361, 2360
2196, 3567, 3568, 3586, 3585, 2343, 2344, 2362, 2361
2197, 3568, 3569, 3587, 3586, 2344, 2345, 2363, 2362
2198, 3569, 3570, 3588, 3587, 2345, 2346, 2364, 2363
2199, 3570, 3571, 3589, 3588, 2346, 2347, 2365, 2364
2200, 3571, 3572, 3590, 3589, 2347, 2348, 2366, 2365
2201, 3572, 3573, 3591, 3590, 2348, 2349, 2367, 2366
2202, 3573, 3574, 3592, 3591, 2349, 2350, 2368, 2367
2203, 3574, 3575, 3593, 3592, 2350, 2351, 2369, 2368
2204, 3575, 3576, 3594, 3593, 2351, 2352, 2370, 2369
2205, 3576, 3577, 3595, 3594, 2352, 2353, 2371, 2370
2206, 3577, 3578, 3596, 3595, 2353, 2354, 2372, 2371
2207, 3578, 3579, 3597, 3596, 2354, 2355, 2373, 2372
2208, 3579, 3580, 3598, 3597, 2355, 2356, 2374, 2373
2209, 3580, 3581, 3599, 3598, 2356, 2357, 2375, 2374
2210, 3581, 3582, 3600, 3599, 2357, 2358, 2376, 2375
2211, 3583, 3584, 3602, 3601, 2359, 2360, 2378, 2377
2212, 3584, 3585, 3603, 3602, 2360, 2361, 2379, 2378
2213, 3585, 3586, 3604, 3603, 2361, 2362, 2380, 2379
2214, 3586, 3587, 3605, 3604, 2362, 2363, 2381, 2380
2215, 3587, 3588, 3606, 3605, 2363, 2364, 2382, 2381
2216, 3588, 3589, 3607, 3606, 2364, 2365, 2383, 2382
2217, 3589, 3590, 3608, 3607, 2365, 2366, 2384, 2383
2218, 3590, 3591, 3609, 3608, 2366, 2367, 2385, 2384
2219, 3591, 3592, 3610, 3609, 2367, 2368, 2386, 2385
2220, 3592, 3593, 3611, 3610, 2368, 2369, 2387, 2386
2221, 3593, 3594, 3612, 3611, 2369, 2370, 2388, 2387
2222, 3594, 3595, 3613, 3612, 2370, 2371, 2389, 2388
2223, 3595, 3596, 3614, 3613, 2371, 2372, 2390, 2389
2224, 3596, 3597, 3615, 3614, 2372, 2373, 2391, 2390
2225, 3597, 3598, 3616, 3615, 2373, 2374, 2392, 2391
2226, 3598, 3599, 3617, 3616, 2374, 2375, 2393, 2392
2227, 3599, 3600, 3618, 3617, 2375, 2376, 2394, 2393
2228, 3601, 3602, 3620, 3619, 2377, 2378, 2396, 2395
2229, 3602, 3603, 3621, 3620, 2378, 2379, 2397, 2396
2230, 3603, 3604, 3622, 3621, 2379, 2380, 2398, 2397
2231, 3604, 3605, 3623, 3622, 2380, 2381, 2399, 2398
2232, 3605, 3606, 3624, 3623, 2381, 2382, 2400, 2399
2233, 3606, 3607, 3625, 3624, 2382, 2383, 2401, 2400
2234, 3607, 3608, 3626, 3625, 2383, 2384, 2402, 2401
2235, 3608, 3609, 3627, 3626, 2384, 2385, 2403, 2402
2236, 3609, 3610, 3628, 3627, 2385, 2386, 2404, 2403
2237, 3610, 3611, 3629, 3628, 2386, 2387, 2405, 2404
2238, 3611, 3612, 3630, 3629, 2387, 2388, 2406, 2405
2239, 3612, 3613, 3631, 3630, 2388, 2389, 2407, 2406
2240, 3613, 3614, 3632, 3631, 2389, 2390, 2408, 2407
2241, 3614, 3615, 3633, 3632, 2390, 2391, 2409, 2408
2242, 3615, 3616, 3634, 3633, 2391, 2392, 2410, 2409
2243, 3616, 3617, 3635, 3634, 2392, 2393, 2411, 2410
2244, 3617, 3618, 3636, 3635, 2393, 2394, 2412, 2411
2245, 3619, 3620, 3638, 3637, 2395, 2396, 2414, 2413
2246, 3620, 3621, 3639, 3638, 2396, 2397, 2415, 2414
2247, 3621, 3622, 3640, 3639, 2397, 2398, 2416, 2415
2248, 3622, 3623, 3641, 3640, 2398, 2399, 2417, 2416
2249, 3623, 3624, 3642, 3641, 2399, 2400, 2418, 2417
2250, 3624, 3625, 3643, 3642, 2400, 2401, 2419, 2418
2251, 3625, 3626, 3644, 3643, 2401, 2402, 2420, 2419
2252, 3626, 3627, 3645, 3644, 2402, 2403, 2421, 2420
2253, 3627, 3628, 3646, 3645, 2403, 2404, 2422, 2421
2254, 3628, 3629, 3647, 3646, 2404, 2405, 2423, 2422
2255, 3629, 3630, 3648, 3647, 2405, 2406, 2424, 2423
2256, 3630, 3631, 3649, 3648, 2406, 2407, 2425, 2424
2257, 3631, 3632, 3650, 3649, 2407, 2408, 2426, 2425
2258, 3632, 3633, 3651, 3650, 2408, 2409, 2427, 2426
2259, 3633, 3634, 3652, 3651, 2409, 2410, 2428, 2427
2260, 3634, 3635, 3653, 3652, 2410, 2411, 2429, 2428
2261, 3635, 3636, 3654, 3653, 2411, 2412, 2430, 2429
2262, 3637, 3638, 3656, 3655, 2413, 2414, 2432, 2431
2263, 3638, 3639, 3657, 3656, 2414, 2415, 2433, 2432
2264, 3639, 3640, 3658, 3657, 2415, 2416, 2434, 2433
2265, 3640, 3641, 3659, 3658, 2416, 2417, 2435, 2434
2266, 3641, 3642, 3660, 3659, 2417, 2418, 2436, 2435
2267, 3642, 3643, 3661, 3660, 2418, 2419, 2437, 2436
2268, 3643, 3644, 3662, 3661, 2419, 2420, 2438, 2437
2269, 3644, 3645, 3663, 3662, 2420, 2421, 2439, 2438
2270, 3645, 3646, 3664, 3663, 2421, 2422, 2440, 2439
2271, 3646, 3647, 3665, 3664, 2422, 2423, 2441, 2440
2272, 3647, 3648, 3666, 3665, 2423, 2424, 2442, 2441
2273, 3648, 3649, 3667, 3666, 2424, 2425, 2443, 2442
2274, 3649, 3650, 3668, 3667, 2425, 2426, 2444, 2443
2275, 3650, 3651, 3669, 3668, 2426, 2427, 2445, 2444
2276, 3651, 3652, 3670, 3669, 2427, 2428, 2446, 2445
2277, 3652, 3653, 3671, 3670, 2428, 2429, 2447, 2446
2278, 3653, 3654, 3672, 3671, 2429, 2430, 2448, 2447
*Nset, nset=Set-2, generate
    1,  3672,     1
*Elset, elset=Set-2, generate
    1,  2278,     1
*Nset, nset=contact, generate
    1,  1224,     1
*Elset, elset=contact, generate
    1,  1139,     1
*Elset, elset=_contact_S2, internal, generate
    1,  1139,     1
*Surface, type=ELEMENT, name=contact
_contact_S2, S2
** Section: Section-1
*Solid Section, elset=Set-2, material=Material-1
,
*End Part
**  
**
** ASSEMBLY
**
*Assembly, name=Assembly
**  
*Instance, name=Part-1-1, part=rec
*End Instance
**  
*End Assembly
** 
** MATERIALS
** 
*Material, name=Material-1
*Density
1.,
*Hyperelastic, neo hooke
1.,1.
