*Heading
** Job name: rec Model name: Model-1
** Generated by: Abaqus/CAE 2021
*Preprint, echo=NO, model=NO, history=NO, contact=NO
**
** PARTS
**
*Part, name=block
*Node
      1,           0.,           0.,         110.
      2,           0.,           0.,          90.
      3,           0.,   2.01756644,    109.94899
      4,           0.,   4.02987623,   109.794899
      5,           0.,   6.03118181,   109.534477
      6,           0.,   8.01464176,   109.161949
      7,           0.,   9.97145367,    108.66848
      8,           0.,   11.8894377,   108.041161
      9,           0.,    13.750535,   107.261589
     10,           0.,   15.5260038,   106.303635
     11,           0.,   17.1666584,   105.130936
     12,           0.,   18.5827141,   103.697388
     13,           0.,   19.6090298,   101.967613
     14,           0.,          20.,         100.
     15,           0.,   19.6090298,   98.0323868
     16,           0.,   18.5827141,   96.3026123
     17,           0.,   17.1666584,   94.8690643
     18,           0.,   15.5260038,   93.6963654
     19,           0.,    13.750535,   92.7384109
     20,           0.,   11.8894377,   91.9588394
     21,           0.,   9.97145367,   91.3315201
     22,           0.,   8.01464176,   90.8380508
     23,           0.,   6.03118181,   90.4655228
     24,           0.,   4.02987623,    90.205101
     25,           0.,   2.01756644,   90.0510101
     26,           0.,  -2.01756644,   90.0510101
     27,           0.,  -4.02987623,    90.205101
     28,           0.,  -6.03118181,   90.4655228
     29,           0.,  -8.01464176,   90.8380508
     30,           0.,  -9.97145367,   91.3315201
     31,           0.,  -11.8894377,   91.9588394
     32,           0.,   -13.750535,   92.7384109
     33,           0.,  -15.5260038,   93.6963654
     34,           0.,  -17.1666584,   94.8690643
     35,           0.,  -18.5827141,   96.3026123
     36,           0.,  -19.6090298,   98.0323868
     37,           0.,         -20.,         100.
     38,           0.,  -19.6090298,   101.967613
     39,           0.,  -18.5827141,   103.697388
     40,           0.,  -17.1666584,   105.130936
     41,           0.,  -15.5260038,   106.303635
     42,           0.,   -13.750535,   107.261589
     43,           0.,  -11.8894377,   108.041161
     44,           0.,  -9.97145367,    108.66848
     45,           0.,  -8.01464176,   109.161949
     46,           0.,  -6.03118181,   109.534477
     47,           0.,  -4.02987623,   109.794899
     48,           0.,  -2.01756644,    109.94899
     49,  -12.2770376,  0.450315714,   107.890999
     50,  -7.48487282,  -9.28199196,   108.028404
     51,  -2.26277208,  -5.11150551,   109.601463
     52,  -1.92265964,  -3.09666514,    109.83252
     53,  -2.10575891,  -8.62172794,   108.961464
     54,   -1.5779258,  -6.92455149,   109.348274
     55,  -3.49165654,  -10.0936241,   108.454689
     56,   -1.5748049,  -10.4554253,   108.488289
     57,  -3.51286125,  -6.80356169,   109.238121
     58,  -4.48532534,  -11.5686827,   107.842949
     59,  -4.66654205,  -8.38446045,   108.773888
     60,  -6.02681446,  -9.88869476,   108.153084
     61,  -2.46466208,  -16.4596767,   105.545372
     62,  -3.46702361,  -13.4610968,   107.189896
     63,  -4.10189247,   -15.133667,   106.207787
     64,  -2.15443325,  -11.9019127,   107.964027
     65,  -4.71665525,  -16.3184605,   105.278755
     66,  -4.67869425,  -17.6830006,   104.044174
     67,  -2.35871935,  -19.4400101,   102.032394
     68,  -2.42919016,  -19.8314228,   99.5489655
     69, -0.972936928,  -19.8702412,   101.027977
     70,  -5.81757116,  -18.5899334,   102.267723
     71,  -4.22087717,  -18.9861469,    102.32972
     72,  -5.79966497,  -19.1176071,   100.469299
     73,  -4.11072111,  -19.5698414,   100.175575
     74,  -7.90002441,   -15.865344,   104.633583
     75,  -5.60643768,  -12.6401701,   107.224854
     76,  -6.14729834,  -13.9963455,    106.44812
     77,  -7.59172773,  -14.8167696,   105.541412
     78,  -6.16053724,  -15.5253878,   105.500229
     79,  -6.49742794,  -16.7924862,   104.353043
     80,  -7.54650688,  -12.4430132,   106.859695
     81,  -6.50116873,   -11.421895,   107.537827
     82,   -8.5657959,  -13.7179117,   105.883156
     83,  -9.21756172,   -14.905611,   104.818176
     84,  -8.46894264,  -16.9767799,   103.164886
     85,   -7.0175786,  -17.9092617,   102.739159
     86,   -8.9116497,  -17.7676926,    101.10585
     87,   -7.3735466,  -18.5402412,   100.687431
     88,  -9.67249012,  -15.9580126,   103.598083
     89,  -12.2327375,  -15.4891434,   101.616058
     90,  -10.5538692,  -16.6393414,   101.713783
     91,  -3.31950092,   -2.1019783,   109.805138
     92,  -3.93529296,  -3.42115235,   109.654137
     93,  -5.93189049,  -6.60216665,   108.961365
     94,  -4.81602669,  -5.07097435,   109.368713
     95,  -7.18598986,   -4.7664752,   109.022781
     96,  -6.03582382,  -3.29234338,   109.390541
     97,  -6.87159729,  -8.18996906,   108.451416
     98,  -8.45613384,  -6.59808111,   108.440369
     99,  -2.22653198, 0.0383475423,    109.93782
    100,  -3.56574249, -0.662894487,   109.834198
    101,  -11.8111687,  -2.49730992,   107.972763
    102,  -8.10292721,  -2.65033746,   109.045967
    103,  -6.89244318,  -1.82382619,   109.341614
    104,  -5.12063169,   -1.6276468,   109.632362
    105,  -9.80318737,  -3.94198275,   108.490555
    106,  -11.7031403,  -4.22111988,   107.829727
    107,  -8.18993759, -0.896295488,   109.112099
    108,  -6.78695726, -0.234604523,   109.405876
    109,  -10.4037743, -0.656640291,   108.534203
    110,  -12.3163891, -0.786998332,   107.869041
    111,  -8.42716312,  -10.4645386,   107.407364
    112,  -10.0007153,   -9.2498188,   107.321655
    113,   -8.5996151,  -8.60640144,   107.936882
    114,  -9.84499359,  -12.1599436,   106.229202
    115,  -10.8484774,  -13.7612467,   104.820236
    116,  -11.1365499,   -10.341876,   106.500443
    117,  -12.2061558,  -11.8888454,    105.23452
    118,  -10.2686949,  -7.76309633,   107.653236
    119,  -11.6119213,  -8.77251816,   106.859413
    120,  -10.8935452,  -5.84173822,   107.861374
    121,  -12.2081156,  -7.13603401,   107.071754
    122,  -12.3843851,  -9.43197632,   106.278236
    123,  -13.1355228,  -10.1631899,   105.571526
    124,  -13.4591789,  -8.47888851,   106.061333
    125,  -14.5632029,  -9.42496395,   104.977028
    126,  -13.3150492,  -14.3567562,   102.036728
    127,  -11.9277191,  -14.7007332,   103.225601
    128,  -13.1072445,  -13.2774286,   103.602432
    129,   -14.902997,  -12.9311562,    101.63446
    130,  -13.7565603,  -14.5159225,   99.8938904
    131,  -14.6707802,    -11.08181,   103.935791
    132,  -15.4184074,  -9.44860077,   104.271904
    133,  -16.4092693,  -9.43649578,   103.228333
    134,  -16.3180809,  -10.9900064,   101.798615
    135,  -16.1141148,  -11.8283386,   100.326218
    136,  -17.6544437,  -9.13018417,   101.113594
    137,  -16.9339523,  -10.6325817,   100.217651
    138,  -14.8864985, -0.121897891,   106.677895
    139,   -13.236001,  -3.39248681,   107.302383
    140,  -12.7657118,  -5.29985714,   107.227516
    141,  -15.9704008,  -3.84321022,   105.704735
    142,   -14.081913,  -6.45705605,   106.324677
    143,  -15.8004799,  -7.60339355,   104.809708
    144,  -14.4506741,  -4.47274971,   106.541649
    145,  -16.7316818,  -5.15400505,   104.834435
    146,  -13.5400095,  0.307423115,   107.358223
    147,  -15.0361996,  -2.27529907,   106.494919
    148,  -13.5028105,  -1.46304071,    107.34053
    149,  -16.2782478, -0.578740358,   105.802666
    150,  -16.4773769,  -2.20963454,   105.559082
    151,  -17.4577332,  -6.14703035,   103.789513
    152,  -17.5801201,  -7.63166809,    102.85907
    153,  -18.0485744,   -4.3527689,   103.718277
    154,  -18.6274986,  -5.70907021,   102.259583
    155,  -19.4098511,  -4.54056454,   100.812553
    156,  -18.4407883,  -7.28153992,   101.314964
    157,  -18.4585171,  -2.26703501,   103.679123
    158,  -19.1523132,  -3.51093531,    102.28376
    159,  -17.2591705,  -3.18432426,   104.795341
    160,  -18.6047726, -0.0577521361,   103.669441
    161,  -19.5357151,  -1.23563707,   102.051155
    162,  -17.4818897,  -1.23969758,   104.817848
    163,  -19.9164371, 0.0313449204,    100.91304
    164,  -19.7532806,  -2.73733997,   100.760735
    165,  -12.0519266, -0.296083301,   92.0209122
    166,  -2.09948468,  -19.1481667,   97.3102112
    167, -0.915996194,  -19.7869549,   98.6182098
    168,  -5.49059868,  -18.9357815,   98.3200073
    169,  -3.77452588,  -19.2205391,   97.9798584
    170,  -4.90803576,  -18.1214714,   96.5531387
    171,  -3.35500669,     -18.3834,   96.4364853
    172,  -3.98106885,  -16.9733448,   95.0995789
    173,  -2.18044114,  -16.0557652,   94.1378708
    174,  -4.15172434,  -15.4354649,   93.9893951
    175,  -3.51814365,  -14.3229866,    93.245842
    176,  -2.58819938,     -13.0611,   92.5382843
    177,  -1.83573639,  -11.8157339,   91.9841003
    178,  -7.76232386,  -16.0980911,   95.5111847
    179,  -8.84219933,  -17.8087578,   98.9202271
    180,  -7.20281696,  -18.4344749,   98.5604172
    181,  -8.40313911,  -17.1453705,   97.0241165
    182,  -6.67275143,  -17.7147865,   96.7727432
    183,  -5.96123791,  -16.6741657,   95.3514557
    184,  -12.0498533,  -15.9517212,   99.7069016
    185,  -10.4637556,  -17.0001755,   99.3868408
    186,  -9.99582481,  -16.5618534,   97.4608765
    187,  -9.54163456,  -15.6043167,   95.9545517
    188,  -6.96010447,  -15.0110378,   94.3824921
    189,  -5.36605883,  -15.6589108,   94.3874283
    190,  -5.66933155,  -13.9977112,   93.4440308
    191,  -4.63960218,  -12.4852829,   92.5402451
    192,  -3.57057381,   -11.546751,   92.0325089
    193,  -7.91038609,  -13.1199713,    93.571701
    194,  -8.92812538,   -14.364624,   94.6627197
    195,  -6.78652573,  -11.7574453,   92.6565399
    196,  -2.04677963,  -8.65765667,   91.0437775
    197,  -3.15722322,  -10.1605997,   91.5325012
    198,  -1.41052556,  -10.5147934,   91.5228348
    199,  -1.53209388,  -6.93585777,   90.6519165
    200,  -5.35053778,  -10.1795044,   91.8184738
    201,  -4.30889034,  -8.27143478,    91.153862
    202,  -2.07433605,  -5.16390991,   90.3949051
    203,   -3.2270875,  -6.75092602,   90.7262344
    204,  -1.68363798,  -3.40260196,   90.1818085
    205,  -15.3024082,  -12.7870512,   99.2371674
    206,  -12.2149782,  -14.4340773,   96.7422485
    207,  -13.9852438,  -13.3768129,   97.4764175
    208,  -12.8535633,  -12.9494247,   95.9043198
    209,  -16.4250259,  -11.1930542,   98.8893661
    210,  -15.4515924,   -11.797142,   97.6507568
    211,  -17.4779911,  -9.52020359,   99.0144119
    212,  -14.4164753,  -11.1290226,   95.8675079
    213,  -16.4081535,   -9.9521246,   97.1836319
    214,  -15.6350765,  -9.13797188,   95.7561264
    215,  -11.0388327,  -13.8572464,   95.3599319
    216,  -10.1283388,  -12.2236404,   93.9172516
    217,  -12.2810326,  -11.6731043,   94.6869278
    218,   -11.339138,  -10.9455271,   93.8447266
    219,  -8.68467903,  -11.3046818,   92.9860764
    220,  -10.3492031,  -9.99228001,   93.0550766
    221,  -8.06470013,  -9.31919575,   92.1241989
    222,  -13.3856611,  -10.4247351,   94.7049789
    223,  -12.3537827,  -9.74932766,    93.828804
    224,  -14.2645702,  -8.92743874,   94.5957718
    225,  -13.0531397,  -7.74573278,   93.4881058
    226,  -11.4752865,  -8.06094265,   92.8701477
    227,  -9.90400696,   -7.9544096,   92.2760468
    228,  -12.1916933,  -6.59060431,   92.7901688
    229,  -10.7977695,  -6.00733709,    92.136795
    230,   -19.237854,  -5.28654623,   99.3004684
    231,  -18.5320396,  -7.44618988,   99.4713745
    232,  -17.3865318,  -6.59411526,   96.3180771
    233,  -15.9609385,  -7.17680454,   95.1589813
    234,   -17.675684,  -8.02524662,   97.5934677
    235,  -18.0253181,  -4.57109833,   96.3192062
    236,  -16.8981762,  -5.37222719,   95.3742371
    237,  -18.5407982,  -5.98591948,   97.7412643
    238,  -19.9619904, 0.0995180756,    99.385788
    239,  -19.8407688,  -2.05436039,   99.2713852
    240,  -18.4014435,  -2.28391123,   96.2526474
    241,  -16.9435387,  -3.29210591,   94.9483032
    242,  -19.2336788,  -3.61045027,    97.936615
    243,  -18.5047626,  0.095145911,   96.2064285
    244,  -17.2951317, -0.864747822,   94.9967346
    245,  -19.4380779,  -1.09713006,   97.7110367
    246,  -14.7365093,  0.129333824,   93.2394791
    247,  -11.3741693,  -3.30656219,   91.9424744
    248,  -14.4588795,  -6.55941868,   93.9189911
    249,  -13.2267084,  -6.00156879,   93.1254959
    250,  -15.7088184,  -4.97943115,   94.3334656
    251,  -13.9748983,  -4.06900549,   93.1416931
    252,   -12.487606,   -3.1360116,   92.3477936
    253,  -11.0858583,  -4.48035574,   91.9839172
    254,  -12.1829109,  -4.80751753,    92.442482
    255,  -16.0461025,  0.582424641,   94.0379639
    256,  -14.4872828,  -1.76089716,   93.1622772
    257,  -15.8910961,  -1.40282822,   93.9687271
    258,  -13.2957153, -0.111031316,   92.5298691
    259,  -13.0160112,  -1.82883823,   92.4627762
    260,  -11.5911016,  -1.63315487,   91.8916855
    261,  -6.42143965,  -7.63846207,   91.3337021
    262,  -5.08990288,  -6.25741529,     90.84935
    263,  -8.52859688,  -6.25462103,    91.512619
    264,  -6.65896368,  -5.56070662,   90.9897766
    265,  -3.49858308,  -3.67491961,   90.3271637
    266,  -3.90487194,  -5.19838428,   90.5431366
    267,  -5.41967583,  -4.15405607,   90.6009216
    268,   -1.6847831, -0.689160466,   90.0415039
    269,  -2.52358055,  -2.04780984,   90.1329117
    270,  -9.79051971,  -3.78401875,   91.4878464
    271,  -7.42866087,  -3.59303665,   90.8908691
    272,  -6.07747889,   -2.8273108,   90.5783386
    273,  -4.66739655,   -2.1031239,   90.3331451
    274,  -8.47972965,  -1.23060274,    90.964241
    275,  -10.2944613,  -1.87742937,   91.4779816
    276,  -6.43402529,   -1.5709089,   90.5642242
    277,  -3.31636047, -0.480801433,   90.1413651
    278,  -10.5184746,   5.53068018,   108.043213
    279,  -3.49799728,  0.971345901,   109.833878
    280,  -11.3653116,    3.3374269,   108.057472
    281,  -6.57842207,   1.57418096,   109.410713
    282,  -8.55545044,   1.20911551,   109.018623
    283,   -10.406106,   1.82808638,   108.490746
    284,  -11.7415571,   1.69717801,   108.050705
    285,  -7.56443357,    3.3457334,   109.104744
    286,  -6.21988249,   2.71382451,   109.406754
    287,   -4.9055109,   2.21489835,   109.631073
    288,  -9.81840897,   3.57799649,   108.526382
    289,  -11.0235252,   4.43453407,   108.043892
    290,  -1.81762779,   1.55321288,   109.928291
    291,   -3.1996882,   2.41134691,   109.797287
    292,  -3.83082104,   3.78667736,   109.630493
    293,  -6.77667809,   5.31935072,   109.024704
    294,  -5.72753286,   3.74374318,   109.396538
    295,  -4.74971151,    5.3866663,   109.331459
    296,  -8.94657135,   8.68792152,   107.817909
    297,  -12.5836172,    3.2265594,   107.603317
    298,  -13.1771507,   1.89999413,   107.462448
    299,  -14.5914507,   1.75146377,   106.782738
    300,  -15.9974709,   1.38701582,   105.961479
    301,  -12.2913971,   5.17598772,   107.452026
    302,  -15.6534891,   4.83206749,   105.736275
    303,  -14.0549488,    3.7554214,   106.862129
    304,  -16.8401814,   5.28640127,   104.702721
    305,  -14.1728611,   6.11068821,   106.359825
    306,   -15.774621,   6.98660612,   105.058372
    307,  -18.4376278,     2.261338,   103.706085
    308,  -19.5382614,   1.19962132,   102.050446
    309,  -17.3778133,  0.842603683,   104.932076
    310,   -18.040947,   4.53046989,   103.674202
    311,  -19.2412491,   3.60910821,   102.046257
    312,  -16.9294109,    3.1906395,   105.079735
    313,  -19.3098373,   4.89251089,   100.893517
    314,  -19.7635002,   2.44756079,   100.923782
    315,  -17.3528042,   6.57461643,   103.730103
    316,  -18.6153107,   6.02789497,   102.069702
    317,  -17.5643768,   8.16424179,   102.491875
    318,  -17.3032722,    9.7399807,   101.196823
    319,  -18.3250942,   7.85453653,   100.790123
    320,  -11.3492603,   7.18005276,   107.410149
    321,  -12.8165789,    7.2308917,   106.772179
    322,  -10.4714499,   8.40820503,   107.410309
    323,  -9.65998459,   7.04763174,   108.015854
    324,  -14.0111227,   8.16956043,   105.851212
    325,  -15.1922684,    9.1870966,   104.604134
    326,  -11.9990225,   9.19085503,   106.548889
    327,  -13.6526346,   9.89260006,   105.379173
    328,  -10.0878601,   9.68658829,   107.148514
    329,  -8.16735744,   10.9191494,   107.313652
    330,   -10.499999,   11.2380171,   106.392517
    331,  -12.4158869,   11.3576002,   105.404877
    332,  -9.12678337,   12.6440992,   106.261559
    333,  -10.8316574,   13.4762201,   105.026596
    334,  -16.2033081,   10.0775261,   102.995674
    335,  -14.3229637,   11.2331257,   104.143356
    336,  -15.2452688,   11.7488766,   102.717796
    337,  -16.1431637,     11.37288,   101.585548
    338,  -16.7222004,   10.9581594,   100.267746
    339,  -15.0519133,   12.6904221,   101.760193
    340,  -15.6206465,   12.4676867,   100.371552
    341,  -12.8612127,   12.7202892,   104.265663
    342,  -14.0524817,   12.9484758,   102.952316
    343,  -12.4716406,    14.220293,   103.249672
    344,  -12.1754074,   15.8310471,   100.533241
    345,   -13.784811,   14.3999348,   100.809456
    346,  -2.65346885,   5.41580582,   109.534515
    347,  -1.68129742,   3.59235859,   109.801376
    348,  -2.12800431,   8.82405376,   108.910774
    349,  -3.62352872,   7.07206535,   109.175491
    350,  -4.56709051,   8.81760406,   108.680313
    351,  -6.83197641,   8.88696766,   108.281693
    352,  -5.40779829,    10.794693,   107.972298
    353,  -3.65386391,   11.8175364,    107.85804
    354,  -3.20143509,   10.4886189,   108.362709
    355,  -1.45053399,   10.6471558,   108.434067
    356,  -7.59471607,   16.1752014,   104.491188
    357,  -6.16972065,   12.3139391,   107.250885
    358,  -7.30179691,   13.2622309,    106.53447
    359,  -6.56429577,    15.115386,   105.666458
    360,  -8.49941635,   14.4172974,   105.474976
    361,  -9.40393448,   15.5872431,   104.141373
    362,  -4.61623669,   12.5156679,   107.450645
    363,  -4.90993023,   14.1567745,   106.623413
    364,  -4.98178053,   15.7906904,   105.608833
    365,  -5.77176857,   16.8034401,   104.591599
    366,  -8.33300304,   17.2922058,   102.808052
    367,  -10.1053171,   16.6048584,    102.35379
    368,  -8.85712242,   17.8911247,   100.603958
    369,  -10.7509556,   16.8631783,   100.112022
    370,  -4.82422638,   18.2792397,    103.26329
    371,  -6.57394266,     17.90481,   103.008369
    372,  -5.34340477,   19.0869884,   101.335564
    373,   -7.0803051,   18.6123047,   100.928894
    374,  -2.84352207,   13.4181099,   107.277855
    375,  -2.96246648,    14.888875,   106.510475
    376,  -1.91047883,   11.9827881,   107.949257
    377,  -3.71998906,   15.6426201,    105.94706
    378,  -3.81203723,   17.1040993,   104.819702
    379,  -1.99483597,   16.2062225,    105.77449
    380,  -2.06826639,   19.1919422,   102.616852
    381,  -2.28934526,    19.845499,   100.478294
    382,   -3.2876718,   18.4876614,   103.442299
    383,  -3.64962721,   19.3095379,   101.858894
    384, -0.901824057,   19.7677765,   101.451012
    385,  -6.49648952,   9.56273651,   91.8398895
    386,  -19.3546963,    4.8623414,   99.3379288
    387,  -19.8107109,   2.47047544,   99.4015656
    388,  -18.2859249,   2.44427681,   96.1383133
    389,  -17.2114925,   1.38278008,   94.9539032
    390,   -19.406414,   1.28442585,   97.6686172
    391,  -17.8806477,   4.65382099,    96.171669
    392,  -16.7100964,   3.73121071,   94.8315659
    393,  -19.0927849,   3.63515377,   97.6414413
    394,  -17.6093121,   9.36998749,   99.2727737
    395,  -18.6278992,   7.07297516,   99.1376801
    396,  -17.3009014,   6.63533068,   96.2366486
    397,  -16.7183914,   5.58467436,   95.2748871
    398,   -18.518486,   5.85769844,   97.6149902
    399,   -17.716959,   7.92273235,   97.5844421
    400,  -12.0505352,    2.8846283,   92.1504211
    401,  -15.9249125,   2.39046931,   94.0695114
    402,  -14.7070951,   2.04786205,   93.3009796
    403,  -13.2475643,   3.39280391,   92.7028961
    404,  -13.3759356,   1.64473212,   92.6111679
    405,  -11.8516359,   1.38446772,   91.9746933
    406,  -15.6551304,   5.52083302,   94.4224243
    407,  -14.7752876,   4.17051792,   93.5910645
    408,  -15.7803888,   7.32768393,   95.0683594
    409,  -14.0561237,   6.67925072,   93.7188187
    410,  -11.7964211,   4.17441177,   92.1990585
    411,  -12.7981739,   5.21522999,   92.7714462
    412,  -16.2618008,   11.3911753,   98.7963638
    413,  -16.5808887,   9.82594395,   97.3295593
    414,  -14.8598461,   13.1191216,   98.6701889
    415,  -15.0278053,   11.6517363,   96.9015274
    416,  -15.1993151,   9.65686417,   95.6489716
    417,  -14.1827879,   11.0715427,   95.6333771
    418,  -12.1314573,    15.679553,   98.6790771
    419,  -13.5352583,   14.3510323,   98.3534393
    420,  -13.8655081,   13.2914324,   97.2122803
    421,  -13.0884085,   12.4027424,   95.6737595
    422,  -12.2485056,   14.4025373,   96.7388229
    423,  -14.2510052,   8.55172062,   94.4372482
    424,  -12.7783508,   8.49428082,   93.5859375
    425,  -13.1039772,   10.3436852,   94.4933243
    426,  -11.7862453,    9.6007328,   93.5017242
    427,   -11.953846,   7.06033707,   92.8017883
    428,   -10.854311,   5.62050581,   92.0849228
    429,  -11.3058491,   8.51719093,   92.9353867
    430,  -9.80681801,   7.66899681,   92.1735611
    431,  -11.6700954,   11.8245392,   94.4324799
    432,  -11.3252354,   10.7018318,    93.730835
    433,  -10.7519178,   13.5164824,   94.9576569
    434,  -9.67809486,   11.8397617,   93.5549545
    435,  -10.0914392,   9.74660778,   92.8731766
    436,  -8.45302582,   9.07130337,   92.1537018
    437,   -8.0103693,    10.623353,   92.5337677
    438,   -10.092453,  0.449509233,   91.3695221
    439,  -8.06941605,  0.839690864,   90.8597107
    440,  -6.69384956,    0.2911174,   90.5778503
    441,  -10.1022339,   3.45150805,   91.5437622
    442,  -8.08702087,    2.3956399,   90.9327393
    443,  -6.81706095,   1.72668028,   90.6385574
    444,   -5.1273303,   1.67440689,   90.3705292
    445,  -3.79907942,  0.849772155,   90.1912689
    446,  -8.61418724,   5.89584351,   91.4701309
    447,  -7.32027054,   4.36885262,   90.9539108
    448,  -6.09617758,   6.29167891,   91.0104065
    449,  -7.39813614,   7.78367138,    91.563736
    450,  -3.95048356,   3.32311487,   90.3388596
    451,  -6.03966522,    3.0697372,   90.5912399
    452,  -4.89150715,   4.79185486,   90.6043701
    453,  -2.02114987,  0.966576159,   90.0629425
    454,  -3.37074327,   1.95626414,   90.1916962
    455,  -7.79321146,    15.843276,   95.3027573
    456,  -8.76763344,   17.6563873,   98.3132401
    457,  -10.1770096,   16.6099415,   97.7340393
    458,  -8.24650097,   16.8586388,   96.5437927
    459,  -9.51869392,   15.8693428,   96.2066345
    460,  -9.08854771,   14.8447437,   95.0747604
    461,  -5.53309393,   19.1412277,   99.1342163
    462,  -7.17867899,   18.5159416,   98.8139877
    463,  -5.57061338,   18.5334988,   97.4762268
    464,  -6.77678728,   17.7963428,   96.9436417
    465,  -6.36260605,   16.6858044,   95.4971924
    466,   -7.4129138,    14.878005,   94.4391174
    467,  -8.29395771,   13.6725931,   93.9943695
    468,  -7.08321857,   12.3348904,   92.9700928
    469,  -6.09831762,   11.0020485,   92.2255936
    470,  -6.35048151,   15.5645361,   94.5820541
    471,  -5.61813068,    14.258111,   93.5746002
    472,  -4.76670837,   12.3820324,   92.5172882
    473,  -4.52799368,   10.8615341,   91.9141464
    474,  -1.90079606,   19.5218487,   98.0452347
    475,  -3.81391549,   19.6212845,   99.6611633
    476,  -3.92286134,    19.005312,   97.5808411
    477,  -4.54759312,   17.6600094,   95.8937988
    478,  -1.02987528,   19.9553852,   99.5751495
    479,  -4.77030754,   16.0094624,   94.5013351
    480,  -3.47120619,   15.1101942,   93.6827087
    481,  -3.00807238,   13.7579002,   92.8994446
    482,  -2.47378111,   11.8898659,   92.0546951
    483,  -2.38460016,   16.4641171,   94.4491806
    484,  -2.12331724,    8.5320015,   91.0181198
    485,  -3.43086791,   9.98056793,   91.5056305
    486,  -4.97415781,   9.80919552,   91.6477966
    487,  -4.88298512,   8.34558392,   91.2463226
    488,  -2.29018426,   4.94951105,   90.3789597
    489,  -3.61670041,    6.5943284,   90.7340088
    490,  -1.58814073,   10.4432249,   91.5085831
    491,   -1.9441514,   2.95964813,   90.1579895
    492,   -1.9473027,  -17.8362083,   95.5819244
    493,  -2.14209414,   18.2341118,   96.0336227
    494,  -1.87150979,   17.9054108,    104.35585
    495,  -16.6907997,  -8.21567917,   96.3284912
    496,   -2.3032577,  -18.2232685,   103.956245
    497,  -1.77653015,   14.9651432,   93.4256516
    498,  -2.01367021,  -14.9087839,   106.587547
    499,  -1.84069288,  -1.30803084,   109.936058
    500,  -5.08159208,  0.372913003,   109.670036
    501,   -5.0117321, -0.223549932,   90.3197021
    502,  -1.70702219,   7.04047251,   109.320915
    503,    -7.857162,   7.04644156,   108.494301
    504,  -15.4535303,  -5.52253056,   105.715988
    505,  -8.72696114,    5.3661685,   108.588425
    506,  -16.5064697,   8.24229145,   103.860085
    507,  -5.52697992,   10.3139601,    91.890213
    508,  -5.74498987,   7.10101032,   108.896217
    509,  -10.9030018,  -15.3315639,   96.6063385
    510,  -10.5589314,   14.9159279,   95.9372406
    511,  -16.6048431,   8.31793404,    96.288826
    512,  -12.8116093,  -14.9582415,   98.2597656
    513,  -19.0012951,  -6.10195732,   100.655159
    514,  -18.9955196,   6.18931198,   100.464386
    515,  -19.6432114,  -3.67380261,   99.5976791
    516,  -19.6288929,   3.68143034,   100.537033
    517,  -19.9299316,   1.25802648,   100.551186
    518,  -19.9402466,  -1.18749368,   100.494064
    519,  -1.60531712,   6.85396338,   90.6399002
    520,  -15.4455719,  -3.10878539,   93.8402557
    521,  -15.5537004,   3.08513832,   106.094345
    522,  -10.5751925,  -15.0502377,   103.926056
    523,  -10.9867992,   15.2280464,   103.442268
    524,  -1.65146959,  -14.5866852,   93.2084351
    525,  -1.53404224,   14.7822065,   106.692032
    526,  -10.9891739,   15.5868788,   96.9880524
    527,  -11.0457401,  -15.6466045,   102.879906
    528,  -11.5010338,  -15.8461142,   97.9611969
    529,  -11.8486338,   15.6893902,   101.833908
    530,   12.2770376, -0.450315714,   107.890999
    531,   7.48487282,   9.28199196,   108.028404
    532,   2.26277208,   5.11150551,   109.601463
    533,   1.92265964,   3.09666514,    109.83252
    534,   2.10575891,   8.62172794,   108.961464
    535,    1.5779258,   6.92455149,   109.348274
    536,   3.49165654,   10.0936241,   108.454689
    537,    1.5748049,   10.4554253,   108.488289
    538,   3.51286125,   6.80356169,   109.238121
    539,   4.48532534,   11.5686827,   107.842949
    540,   4.66654205,   8.38446045,   108.773888
    541,   6.02681446,   9.88869476,   108.153084
    542,   2.46466208,   16.4596767,   105.545372
    543,   3.46702361,   13.4610968,   107.189896
    544,   4.10189247,    15.133667,   106.207787
    545,   2.15443325,   11.9019127,   107.964027
    546,   4.71665525,   16.3184605,   105.278755
    547,   4.67869425,   17.6830006,   104.044174
    548,   2.35871935,   19.4400101,   102.032394
    549,   2.42919016,   19.8314228,   99.5489655
    550,  0.972936928,   19.8702412,   101.027977
    551,   5.81757116,   18.5899334,   102.267723
    552,   4.22087717,   18.9861469,    102.32972
    553,   5.79966497,   19.1176071,   100.469299
    554,   4.11072111,   19.5698414,   100.175575
    555,   7.90002441,    15.865344,   104.633583
    556,   5.60643768,   12.6401701,   107.224854
    557,   6.14729834,   13.9963455,    106.44812
    558,   7.59172773,   14.8167696,   105.541412
    559,   6.16053724,   15.5253878,   105.500229
    560,   6.49742794,   16.7924862,   104.353043
    561,   7.54650688,   12.4430132,   106.859695
    562,   6.50116873,    11.421895,   107.537827
    563,    8.5657959,   13.7179117,   105.883156
    564,   9.21756172,    14.905611,   104.818176
    565,   8.46894264,   16.9767799,   103.164886
    566,    7.0175786,   17.9092617,   102.739159
    567,    8.9116497,   17.7676926,    101.10585
    568,    7.3735466,   18.5402412,   100.687431
    569,   9.67249012,   15.9580126,   103.598083
    570,   12.2327375,   15.4891434,   101.616058
    571,   10.5538692,   16.6393414,   101.713783
    572,   3.31950092,    2.1019783,   109.805138
    573,   3.93529296,   3.42115235,   109.654137
    574,   5.93189049,   6.60216665,   108.961365
    575,   4.81602669,   5.07097435,   109.368713
    576,   7.18598986,    4.7664752,   109.022781
    577,   6.03582382,   3.29234338,   109.390541
    578,   6.87159729,   8.18996906,   108.451416
    579,   8.45613384,   6.59808111,   108.440369
    580,   2.22653198, -0.0383475423,    109.93782
    581,   3.56574249,  0.662894487,   109.834198
    582,   11.8111687,   2.49730992,   107.972763
    583,   8.10292721,   2.65033746,   109.045967
    584,   6.89244318,   1.82382619,   109.341614
    585,   5.12063169,    1.6276468,   109.632362
    586,   9.80318737,   3.94198275,   108.490555
    587,   11.7031403,   4.22111988,   107.829727
    588,   8.18993759,  0.896295488,   109.112099
    589,   6.78695726,  0.234604523,   109.405876
    590,   10.4037743,  0.656640291,   108.534203
    591,   12.3163891,  0.786998332,   107.869041
    592,   8.42716312,   10.4645386,   107.407364
    593,   10.0007153,    9.2498188,   107.321655
    594,    8.5996151,   8.60640144,   107.936882
    595,   9.84499359,   12.1599436,   106.229202
    596,   10.8484774,   13.7612467,   104.820236
    597,   11.1365499,    10.341876,   106.500443
    598,   12.2061558,   11.8888454,    105.23452
    599,   10.2686949,   7.76309633,   107.653236
    600,   11.6119213,   8.77251816,   106.859413
    601,   10.8935452,   5.84173822,   107.861374
    602,   12.2081156,   7.13603401,   107.071754
    603,   12.3843851,   9.43197632,   106.278236
    604,   13.1355228,   10.1631899,   105.571526
    605,   13.4591789,   8.47888851,   106.061333
    606,   14.5632029,   9.42496395,   104.977028
    607,   13.3150492,   14.3567562,   102.036728
    608,   11.9277191,   14.7007332,   103.225601
    609,   13.1072445,   13.2774286,   103.602432
    610,    14.902997,   12.9311562,    101.63446
    611,   13.7565603,   14.5159225,   99.8938904
    612,   14.6707802,     11.08181,   103.935791
    613,   15.4184074,   9.44860077,   104.271904
    614,   16.4092693,   9.43649578,   103.228333
    615,   16.3180809,   10.9900064,   101.798615
    616,   16.1141148,   11.8283386,   100.326218
    617,   17.6544437,   9.13018417,   101.113594
    618,   16.9339523,   10.6325817,   100.217651
    619,   14.8864985,  0.121897891,   106.677895
    620,    13.236001,   3.39248681,   107.302383
    621,   12.7657118,   5.29985714,   107.227516
    622,   15.9704008,   3.84321022,   105.704735
    623,    14.081913,   6.45705605,   106.324677
    624,   15.8004799,   7.60339355,   104.809708
    625,   14.4506741,   4.47274971,   106.541649
    626,   16.7316818,   5.15400505,   104.834435
    627,   13.5400095, -0.307423115,   107.358223
    628,   15.0361996,   2.27529907,   106.494919
    629,   13.5028105,   1.46304071,    107.34053
    630,   16.2782478,  0.578740358,   105.802666
    631,   16.4773769,   2.20963454,   105.559082
    632,   17.4577332,   6.14703035,   103.789513
    633,   17.5801201,   7.63166809,    102.85907
    634,   18.0485744,    4.3527689,   103.718277
    635,   18.6274986,   5.70907021,   102.259583
    636,   19.4098511,   4.54056454,   100.812553
    637,   18.4407883,   7.28153992,   101.314964
    638,   18.4585171,   2.26703501,   103.679123
    639,   19.1523132,   3.51093531,    102.28376
    640,   17.2591705,   3.18432426,   104.795341
    641,   18.6047726, 0.0577521361,   103.669441
    642,   19.5357151,   1.23563707,   102.051155
    643,   17.4818897,   1.23969758,   104.817848
    644,   19.9164371, -0.0313449204,    100.91304
    645,   19.7532806,   2.73733997,   100.760735
    646,   12.0519266,  0.296083301,   92.0209122
    647,   2.09948468,   19.1481667,   97.3102112
    648,  0.915996194,   19.7869549,   98.6182098
    649,   5.49059868,   18.9357815,   98.3200073
    650,   3.77452588,   19.2205391,   97.9798584
    651,   4.90803576,   18.1214714,   96.5531387
    652,   3.35500669,      18.3834,   96.4364853
    653,   3.98106885,   16.9733448,   95.0995789
    654,   2.18044114,   16.0557652,   94.1378708
    655,   4.15172434,   15.4354649,   93.9893951
    656,   3.51814365,   14.3229866,    93.245842
    657,   2.58819938,      13.0611,   92.5382843
    658,   1.83573639,   11.8157339,   91.9841003
    659,   7.76232386,   16.0980911,   95.5111847
    660,   8.84219933,   17.8087578,   98.9202271
    661,   7.20281696,   18.4344749,   98.5604172
    662,   8.40313911,   17.1453705,   97.0241165
    663,   6.67275143,   17.7147865,   96.7727432
    664,   5.96123791,   16.6741657,   95.3514557
    665,   12.0498533,   15.9517212,   99.7069016
    666,   10.4637556,   17.0001755,   99.3868408
    667,   9.99582481,   16.5618534,   97.4608765
    668,   9.54163456,   15.6043167,   95.9545517
    669,   6.96010447,   15.0110378,   94.3824921
    670,   5.36605883,   15.6589108,   94.3874283
    671,   5.66933155,   13.9977112,   93.4440308
    672,   4.63960218,   12.4852829,   92.5402451
    673,   3.57057381,    11.546751,   92.0325089
    674,   7.91038609,   13.1199713,    93.571701
    675,   8.92812538,    14.364624,   94.6627197
    676,   6.78652573,   11.7574453,   92.6565399
    677,   2.04677963,   8.65765667,   91.0437775
    678,   3.15722322,   10.1605997,   91.5325012
    679,   1.41052556,   10.5147934,   91.5228348
    680,   1.53209388,   6.93585777,   90.6519165
    681,   5.35053778,   10.1795044,   91.8184738
    682,   4.30889034,   8.27143478,    91.153862
    683,   2.07433605,   5.16390991,   90.3949051
    684,    3.2270875,   6.75092602,   90.7262344
    685,   1.68363798,   3.40260196,   90.1818085
    686,   15.3024082,   12.7870512,   99.2371674
    687,   12.2149782,   14.4340773,   96.7422485
    688,   13.9852438,   13.3768129,   97.4764175
    689,   12.8535633,   12.9494247,   95.9043198
    690,   16.4250259,   11.1930542,   98.8893661
    691,   15.4515924,    11.797142,   97.6507568
    692,   17.4779911,   9.52020359,   99.0144119
    693,   14.4164753,   11.1290226,   95.8675079
    694,   16.4081535,    9.9521246,   97.1836319
    695,   15.6350765,   9.13797188,   95.7561264
    696,   11.0388327,   13.8572464,   95.3599319
    697,   10.1283388,   12.2236404,   93.9172516
    698,   12.2810326,   11.6731043,   94.6869278
    699,    11.339138,   10.9455271,   93.8447266
    700,   8.68467903,   11.3046818,   92.9860764
    701,   10.3492031,   9.99228001,   93.0550766
    702,   8.06470013,   9.31919575,   92.1241989
    703,   13.3856611,   10.4247351,   94.7049789
    704,   12.3537827,   9.74932766,    93.828804
    705,   14.2645702,   8.92743874,   94.5957718
    706,   13.0531397,   7.74573278,   93.4881058
    707,   11.4752865,   8.06094265,   92.8701477
    708,   9.90400696,    7.9544096,   92.2760468
    709,   12.1916933,   6.59060431,   92.7901688
    710,   10.7977695,   6.00733709,    92.136795
    711,    19.237854,   5.28654623,   99.3004684
    712,   18.5320396,   7.44618988,   99.4713745
    713,   17.3865318,   6.59411526,   96.3180771
    714,   15.9609385,   7.17680454,   95.1589813
    715,    17.675684,   8.02524662,   97.5934677
    716,   18.0253181,   4.57109833,   96.3192062
    717,   16.8981762,   5.37222719,   95.3742371
    718,   18.5407982,   5.98591948,   97.7412643
    719,   19.9619904, -0.0995180756,    99.385788
    720,   19.8407688,   2.05436039,   99.2713852
    721,   18.4014435,   2.28391123,   96.2526474
    722,   16.9435387,   3.29210591,   94.9483032
    723,   19.2336788,   3.61045027,    97.936615
    724,   18.5047626, -0.095145911,   96.2064285
    725,   17.2951317,  0.864747822,   94.9967346
    726,   19.4380779,   1.09713006,   97.7110367
    727,   14.7365093, -0.129333824,   93.2394791
    728,   11.3741693,   3.30656219,   91.9424744
    729,   14.4588795,   6.55941868,   93.9189911
    730,   13.2267084,   6.00156879,   93.1254959
    731,   15.7088184,   4.97943115,   94.3334656
    732,   13.9748983,   4.06900549,   93.1416931
    733,    12.487606,    3.1360116,   92.3477936
    734,   11.0858583,   4.48035574,   91.9839172
    735,   12.1829109,   4.80751753,    92.442482
    736,   16.0461025, -0.582424641,   94.0379639
    737,   14.4872828,   1.76089716,   93.1622772
    738,   15.8910961,   1.40282822,   93.9687271
    739,   13.2957153,  0.111031316,   92.5298691
    740,   13.0160112,   1.82883823,   92.4627762
    741,   11.5911016,   1.63315487,   91.8916855
    742,   6.42143965,   7.63846207,   91.3337021
    743,   5.08990288,   6.25741529,     90.84935
    744,   8.52859688,   6.25462103,    91.512619
    745,   6.65896368,   5.56070662,   90.9897766
    746,   3.49858308,   3.67491961,   90.3271637
    747,   3.90487194,   5.19838428,   90.5431366
    748,   5.41967583,   4.15405607,   90.6009216
    749,    1.6847831,  0.689160466,   90.0415039
    750,   2.52358055,   2.04780984,   90.1329117
    751,   9.79051971,   3.78401875,   91.4878464
    752,   7.42866087,   3.59303665,   90.8908691
    753,   6.07747889,    2.8273108,   90.5783386
    754,   4.66739655,    2.1031239,   90.3331451
    755,   8.47972965,   1.23060274,    90.964241
    756,   10.2944613,   1.87742937,   91.4779816
    757,   6.43402529,    1.5709089,   90.5642242
    758,   3.31636047,  0.480801433,   90.1413651
    759,   10.5184746,  -5.53068018,   108.043213
    760,   3.49799728, -0.971345901,   109.833878
    761,   11.3653116,   -3.3374269,   108.057472
    762,   6.57842207,  -1.57418096,   109.410713
    763,   8.55545044,  -1.20911551,   109.018623
    764,    10.406106,  -1.82808638,   108.490746
    765,   11.7415571,  -1.69717801,   108.050705
    766,   7.56443357,   -3.3457334,   109.104744
    767,   6.21988249,  -2.71382451,   109.406754
    768,    4.9055109,  -2.21489835,   109.631073
    769,   9.81840897,  -3.57799649,   108.526382
    770,   11.0235252,  -4.43453407,   108.043892
    771,   1.81762779,  -1.55321288,   109.928291
    772,    3.1996882,  -2.41134691,   109.797287
    773,   3.83082104,  -3.78667736,   109.630493
    774,   6.77667809,  -5.31935072,   109.024704
    775,   5.72753286,  -3.74374318,   109.396538
    776,   4.74971151,   -5.3866663,   109.331459
    777,   8.94657135,  -8.68792152,   107.817909
    778,   12.5836172,   -3.2265594,   107.603317
    779,   13.1771507,  -1.89999413,   107.462448
    780,   14.5914507,  -1.75146377,   106.782738
    781,   15.9974709,  -1.38701582,   105.961479
    782,   12.2913971,  -5.17598772,   107.452026
    783,   15.6534891,  -4.83206749,   105.736275
    784,   14.0549488,   -3.7554214,   106.862129
    785,   16.8401814,  -5.28640127,   104.702721
    786,   14.1728611,  -6.11068821,   106.359825
    787,    15.774621,  -6.98660612,   105.058372
    788,   18.4376278,    -2.261338,   103.706085
    789,   19.5382614,  -1.19962132,   102.050446
    790,   17.3778133, -0.842603683,   104.932076
    791,    18.040947,  -4.53046989,   103.674202
    792,   19.2412491,  -3.60910821,   102.046257
    793,   16.9294109,   -3.1906395,   105.079735
    794,   19.3098373,  -4.89251089,   100.893517
    795,   19.7635002,  -2.44756079,   100.923782
    796,   17.3528042,  -6.57461643,   103.730103
    797,   18.6153107,  -6.02789497,   102.069702
    798,   17.5643768,  -8.16424179,   102.491875
    799,   17.3032722,   -9.7399807,   101.196823
    800,   18.3250942,  -7.85453653,   100.790123
    801,   11.3492603,  -7.18005276,   107.410149
    802,   12.8165789,   -7.2308917,   106.772179
    803,   10.4714499,  -8.40820503,   107.410309
    804,   9.65998459,  -7.04763174,   108.015854
    805,   14.0111227,  -8.16956043,   105.851212
    806,   15.1922684,   -9.1870966,   104.604134
    807,   11.9990225,  -9.19085503,   106.548889
    808,   13.6526346,  -9.89260006,   105.379173
    809,   10.0878601,  -9.68658829,   107.148514
    810,   8.16735744,  -10.9191494,   107.313652
    811,    10.499999,  -11.2380171,   106.392517
    812,   12.4158869,  -11.3576002,   105.404877
    813,   9.12678337,  -12.6440992,   106.261559
    814,   10.8316574,  -13.4762201,   105.026596
    815,   16.2033081,  -10.0775261,   102.995674
    816,   14.3229637,  -11.2331257,   104.143356
    817,   15.2452688,  -11.7488766,   102.717796
    818,   16.1431637,    -11.37288,   101.585548
    819,   16.7222004,  -10.9581594,   100.267746
    820,   15.0519133,  -12.6904221,   101.760193
    821,   15.6206465,  -12.4676867,   100.371552
    822,   12.8612127,  -12.7202892,   104.265663
    823,   14.0524817,  -12.9484758,   102.952316
    824,   12.4716406,   -14.220293,   103.249672
    825,   12.1754074,  -15.8310471,   100.533241
    826,    13.784811,  -14.3999348,   100.809456
    827,   2.65346885,  -5.41580582,   109.534515
    828,   1.68129742,  -3.59235859,   109.801376
    829,   2.12800431,  -8.82405376,   108.910774
    830,   3.62352872,  -7.07206535,   109.175491
    831,   4.56709051,  -8.81760406,   108.680313
    832,   6.83197641,  -8.88696766,   108.281693
    833,   5.40779829,   -10.794693,   107.972298
    834,   3.65386391,  -11.8175364,    107.85804
    835,   3.20143509,  -10.4886189,   108.362709
    836,   1.45053399,  -10.6471558,   108.434067
    837,   7.59471607,  -16.1752014,   104.491188
    838,   6.16972065,  -12.3139391,   107.250885
    839,   7.30179691,  -13.2622309,    106.53447
    840,   6.56429577,   -15.115386,   105.666458
    841,   8.49941635,  -14.4172974,   105.474976
    842,   9.40393448,  -15.5872431,   104.141373
    843,   4.61623669,  -12.5156679,   107.450645
    844,   4.90993023,  -14.1567745,   106.623413
    845,   4.98178053,  -15.7906904,   105.608833
    846,   5.77176857,  -16.8034401,   104.591599
    847,   8.33300304,  -17.2922058,   102.808052
    848,   10.1053171,  -16.6048584,    102.35379
    849,   8.85712242,  -17.8911247,   100.603958
    850,   10.7509556,  -16.8631783,   100.112022
    851,   4.82422638,  -18.2792397,    103.26329
    852,   6.57394266,    -17.90481,   103.008369
    853,   5.34340477,  -19.0869884,   101.335564
    854,    7.0803051,  -18.6123047,   100.928894
    855,   2.84352207,  -13.4181099,   107.277855
    856,   2.96246648,   -14.888875,   106.510475
    857,   1.91047883,  -11.9827881,   107.949257
    858,   3.71998906,  -15.6426201,    105.94706
    859,   3.81203723,  -17.1040993,   104.819702
    860,   1.99483597,  -16.2062225,    105.77449
    861,   2.06826639,  -19.1919422,   102.616852
    862,   2.28934526,   -19.845499,   100.478294
    863,    3.2876718,  -18.4876614,   103.442299
    864,   3.64962721,  -19.3095379,   101.858894
    865,  0.901824057,  -19.7677765,   101.451012
    866,   6.49648952,  -9.56273651,   91.8398895
    867,   19.3546963,   -4.8623414,   99.3379288
    868,   19.8107109,  -2.47047544,   99.4015656
    869,   18.2859249,  -2.44427681,   96.1383133
    870,   17.2114925,  -1.38278008,   94.9539032
    871,    19.406414,  -1.28442585,   97.6686172
    872,   17.8806477,  -4.65382099,    96.171669
    873,   16.7100964,  -3.73121071,   94.8315659
    874,   19.0927849,  -3.63515377,   97.6414413
    875,   17.6093121,  -9.36998749,   99.2727737
    876,   18.6278992,  -7.07297516,   99.1376801
    877,   17.3009014,  -6.63533068,   96.2366486
    878,   16.7183914,  -5.58467436,   95.2748871
    879,    18.518486,  -5.85769844,   97.6149902
    880,    17.716959,  -7.92273235,   97.5844421
    881,   12.0505352,   -2.8846283,   92.1504211
    882,   15.9249125,  -2.39046931,   94.0695114
    883,   14.7070951,  -2.04786205,   93.3009796
    884,   13.2475643,  -3.39280391,   92.7028961
    885,   13.3759356,  -1.64473212,   92.6111679
    886,   11.8516359,  -1.38446772,   91.9746933
    887,   15.6551304,  -5.52083302,   94.4224243
    888,   14.7752876,  -4.17051792,   93.5910645
    889,   15.7803888,  -7.32768393,   95.0683594
    890,   14.0561237,  -6.67925072,   93.7188187
    891,   11.7964211,  -4.17441177,   92.1990585
    892,   12.7981739,  -5.21522999,   92.7714462
    893,   16.2618008,  -11.3911753,   98.7963638
    894,   16.5808887,  -9.82594395,   97.3295593
    895,   14.8598461,  -13.1191216,   98.6701889
    896,   15.0278053,  -11.6517363,   96.9015274
    897,   15.1993151,  -9.65686417,   95.6489716
    898,   14.1827879,  -11.0715427,   95.6333771
    899,   12.1314573,   -15.679553,   98.6790771
    900,   13.5352583,  -14.3510323,   98.3534393
    901,   13.8655081,  -13.2914324,   97.2122803
    902,   13.0884085,  -12.4027424,   95.6737595
    903,   12.2485056,  -14.4025373,   96.7388229
    904,   14.2510052,  -8.55172062,   94.4372482
    905,   12.7783508,  -8.49428082,   93.5859375
    906,   13.1039772,  -10.3436852,   94.4933243
    907,   11.7862453,   -9.6007328,   93.5017242
    908,    11.953846,  -7.06033707,   92.8017883
    909,    10.854311,  -5.62050581,   92.0849228
    910,   11.3058491,  -8.51719093,   92.9353867
    911,   9.80681801,  -7.66899681,   92.1735611
    912,   11.6700954,  -11.8245392,   94.4324799
    913,   11.3252354,  -10.7018318,    93.730835
    914,   10.7519178,  -13.5164824,   94.9576569
    915,   9.67809486,  -11.8397617,   93.5549545
    916,   10.0914392,  -9.74660778,   92.8731766
    917,   8.45302582,  -9.07130337,   92.1537018
    918,    8.0103693,   -10.623353,   92.5337677
    919,    10.092453, -0.449509233,   91.3695221
    920,   8.06941605, -0.839690864,   90.8597107
    921,   6.69384956,   -0.2911174,   90.5778503
    922,   10.1022339,  -3.45150805,   91.5437622
    923,   8.08702087,   -2.3956399,   90.9327393
    924,   6.81706095,  -1.72668028,   90.6385574
    925,    5.1273303,  -1.67440689,   90.3705292
    926,   3.79907942, -0.849772155,   90.1912689
    927,   8.61418724,  -5.89584351,   91.4701309
    928,   7.32027054,  -4.36885262,   90.9539108
    929,   6.09617758,  -6.29167891,   91.0104065
    930,   7.39813614,  -7.78367138,    91.563736
    931,   3.95048356,  -3.32311487,   90.3388596
    932,   6.03966522,   -3.0697372,   90.5912399
    933,   4.89150715,  -4.79185486,   90.6043701
    934,   2.02114987, -0.966576159,   90.0629425
    935,   3.37074327,  -1.95626414,   90.1916962
    936,   7.79321146,   -15.843276,   95.3027573
    937,   8.76763344,  -17.6563873,   98.3132401
    938,   10.1770096,  -16.6099415,   97.7340393
    939,   8.24650097,  -16.8586388,   96.5437927
    940,   9.51869392,  -15.8693428,   96.2066345
    941,   9.08854771,  -14.8447437,   95.0747604
    942,   5.53309393,  -19.1412277,   99.1342163
    943,   7.17867899,  -18.5159416,   98.8139877
    944,   5.57061338,  -18.5334988,   97.4762268
    945,   6.77678728,  -17.7963428,   96.9436417
    946,   6.36260605,  -16.6858044,   95.4971924
    947,    7.4129138,   -14.878005,   94.4391174
    948,   8.29395771,  -13.6725931,   93.9943695
    949,   7.08321857,  -12.3348904,   92.9700928
    950,   6.09831762,  -11.0020485,   92.2255936
    951,   6.35048151,  -15.5645361,   94.5820541
    952,   5.61813068,   -14.258111,   93.5746002
    953,   4.76670837,  -12.3820324,   92.5172882
    954,   4.52799368,  -10.8615341,   91.9141464
    955,   1.90079606,  -19.5218487,   98.0452347
    956,   3.81391549,  -19.6212845,   99.6611633
    957,   3.92286134,   -19.005312,   97.5808411
    958,   4.54759312,  -17.6600094,   95.8937988
    959,   1.02987528,  -19.9553852,   99.5751495
    960,   4.77030754,  -16.0094624,   94.5013351
    961,   3.47120619,  -15.1101942,   93.6827087
    962,   3.00807238,  -13.7579002,   92.8994446
    963,   2.47378111,  -11.8898659,   92.0546951
    964,   2.38460016,  -16.4641171,   94.4491806
    965,   2.12331724,   -8.5320015,   91.0181198
    966,   3.43086791,  -9.98056793,   91.5056305
    967,   4.97415781,  -9.80919552,   91.6477966
    968,   4.88298512,  -8.34558392,   91.2463226
    969,   2.29018426,  -4.94951105,   90.3789597
    970,   3.61670041,   -6.5943284,   90.7340088
    971,   1.58814073,  -10.4432249,   91.5085831
    972,    1.9441514,  -2.95964813,   90.1579895
    973,   1.87150979,  -17.9054108,    104.35585
    974,   2.14209414,  -18.2341118,   96.0336227
    975,    1.9473027,   17.8362083,   95.5819244
    976,   16.6907997,   8.21567917,   96.3284912
    977,    2.3032577,   18.2232685,   103.956245
    978,   2.01367021,   14.9087839,   106.587547
    979,   1.77653015,  -14.9651432,   93.4256516
    980,   1.84069288,   1.30803084,   109.936058
    981,   5.08159208, -0.372913003,   109.670036
    982,    5.0117321,  0.223549932,   90.3197021
    983,   1.70702219,  -7.04047251,   109.320915
    984,     7.857162,  -7.04644156,   108.494301
    985,   15.4535303,   5.52253056,   105.715988
    986,   8.72696114,   -5.3661685,   108.588425
    987,   16.5064697,  -8.24229145,   103.860085
    988,   5.52697992,  -10.3139601,    91.890213
    989,   5.74498987,  -7.10101032,   108.896217
    990,   10.9030018,   15.3315639,   96.6063385
    991,   10.5589314,  -14.9159279,   95.9372406
    992,   16.6048431,  -8.31793404,    96.288826
    993,   12.8116093,   14.9582415,   98.2597656
    994,   19.0012951,   6.10195732,   100.655159
    995,   18.9955196,  -6.18931198,   100.464386
    996,   19.6432114,   3.67380261,   99.5976791
    997,   19.6288929,  -3.68143034,   100.537033
    998,   19.9299316,  -1.25802648,   100.551186
    999,   19.9402466,   1.18749368,   100.494064
   1000,   1.60531712,  -6.85396338,   90.6399002
   1001,   15.4455719,   3.10878539,   93.8402557
   1002,   15.5537004,  -3.08513832,   106.094345
   1003,   10.5751925,   15.0502377,   103.926056
   1004,   10.9867992,  -15.2280464,   103.442268
   1005,   1.65146959,   14.5866852,   93.2084351
   1006,   1.53404224,  -14.7822065,   106.692032
   1007,   10.9891739,  -15.5868788,   96.9880524
   1008,   11.0457401,   15.6466045,   102.879906
   1009,   11.5010338,   15.8461142,   97.9611969
   1010,   11.8486338,  -15.6893902,   101.833908
   1011,   4.18393135,  0.757219136,   96.1733322
   1012,   4.32574081, -0.965071023,   97.0320053
   1013,   5.70063496, -0.163767025,   98.0334625
   1014,   2.67891884,  0.176557437,   96.9887085
   1015,   3.93388987,  -0.34397307,   98.8362427
   1016,   3.59546566,  -3.00008535,   98.0235291
   1017,   3.75134277,  -1.92271817,   100.002861
   1018,   2.30582762,   -1.7139262,   97.8968048
   1019,   3.81344509,   1.84017837,   99.5785599
   1020,   1.66774082,   1.00502086,   99.5654144
   1021,   2.14221787, -0.528179944,   99.1557083
   1022,   3.47050571,  0.484642357,   100.738861
   1023,   3.98630333,  -4.87047386,   99.1489639
   1024,   2.55157208,  -3.60550952,   101.573471
   1025,   4.90575409,  -3.33773923,   100.481956
   1026,   5.50956392,  -2.45566154,    98.207634
   1027,   5.82191086,  -1.43874979,   100.080223
   1028,   7.55304146,  -3.14596915,   100.013809
   1029,   5.52438641,  -2.85803771,   102.086639
   1030,   6.05961275,  -4.87362337,   101.095573
   1031,   5.26145315,   2.18495226,   101.790955
   1032,   5.55170059,  0.990142584,   99.9911041
   1033,   4.70860195,   3.92698789,   100.784714
   1034,  -6.02491808,   8.14544487,    92.737442
   1035,  -4.72301674,   9.83063316,   92.7183609
   1036,   6.46410751,   2.70385098,   99.3468857
   1037,   4.59639692,   3.22280049,   98.3532867
   1038,   5.09580612,    1.5633297,    98.166687
   1039,  -5.44844484, -0.625369906,    99.013649
   1040,  -6.51013327,  0.844902456,   100.778542
   1041,  -4.00970507,  0.351396978,   99.8439636
   1042,  -5.27560425,   2.04198217,   99.3748703
   1043,  -4.09429455,  -1.56808555,   99.9422913
   1044,  -3.43149614,  -1.97943127,   98.0027924
   1045,  -3.19431591, -0.108792037,   97.6062317
   1046,  -6.05685377,  -2.62259316,   99.3773956
   1047,   -5.4269104,  -1.20646739,   101.666718
   1048,  -6.37721729,  -2.29685068,   96.8939743
   1049,  -4.57115078,  -3.61164379,    98.603653
   1050,  -4.33054733,  -3.51573348,   100.159775
   1051,  -7.15259314,  -3.12631989,    100.63662
   1052,   -6.6683588,  -4.70562744,    98.038147
   1053,  -7.87673426,  -2.67024064,   99.0420456
   1054,  -7.63181067,   -1.4123379,   100.502083
   1055,    1.1145097,   2.17400622,    91.099762
   1056,  -6.05353451,  -4.84160662,   100.458694
   1057,  -3.66376066,   3.70441246,    99.919838
   1058,  -6.54097128,   4.13951445,   99.5121613
   1059,  -4.99454975,   4.60023832,   98.5892944
   1060,  -1.60363925,   2.60384345,   101.592598
   1061,  -3.26535487,   1.76013696,   101.780289
   1062,  -1.79826498,   2.23665094,   99.6053085
   1063,  -5.23401785,   3.48909354,   101.822952
   1064,  -3.19884372,   4.05341244,   101.710899
   1065,  -1.22164714,   4.65822077,   99.2779846
   1066,  -3.89038515,   3.27225947,   98.1326141
   1067,  -1.87574732,   8.75031376,   106.817436
   1068,  -3.54893327,    7.2289834,   105.435913
   1069,  -3.33263898,   8.01806259,   107.619934
   1070,  -4.55739737,   8.99177551,   106.593315
   1071,  -1.80652249,  -6.35348845,   95.4451218
   1072,  -3.68301988,  -4.64184523,   95.4912109
   1073,  -4.98597288,  -5.84050608,   96.7019958
   1074,  -2.08973861,  -5.07537651,   96.4020309
   1075,   -5.0938096,  -5.89168549,   98.8768463
   1076,  -1.69692469,  -4.23566341,    101.20182
   1077,   -1.8663826,  -2.86088061,   99.5713882
   1078,   -3.6966691,  -5.10899687,   100.897141
   1079,  -2.37744951,  -2.82777214,   102.113304
   1080,  -3.05568123,  -5.19535017,   98.7267303
   1081,  0.369305611,   16.8544521,   103.166458
   1082,  0.165895373,   17.5271053,   100.823624
   1083,   2.15824127,   15.0071497,   102.458733
   1084, -0.0324802659,   14.8196564,   100.789925
   1085,   2.41448045,   2.58069491,   97.6147079
   1086,   0.33133468,   1.15266812,   98.2748032
   1087,   1.10850465, -0.187566623,   97.6075363
   1088,   4.69406319,  -9.84243011,   92.6733093
   1089,   10.0775833,  -3.69025373,   93.9953156
   1090,   8.58228016,  -5.92031717,   95.9264145
   1091,   9.15501118,  -4.67307138,   93.2452393
   1092,   10.8744459,  -5.47939205,   93.9837952
   1093,  -1.81819808,   1.87495172,   97.6525345
   1094,  0.411690325,   2.16947603,   96.4257813
   1095,  -1.10931039, -0.232333094,   96.2173691
   1096, 0.0906781927,   3.00109124,    98.687088
   1097,    1.8026737,  -1.80462217,   101.422234
   1098,  0.486081511,  -1.45180631,   100.061874
   1099,  -8.36294746,   11.5107794,   100.564003
   1100,  -8.50911522,   13.7152863,   100.181313
   1101,  -8.74940681,   12.8062143,   102.373535
   1102,  -7.05088806,   12.8416357,   100.961426
   1103,  0.980402827, -0.229545951,    101.62513
   1104, -0.0413813628,  -3.64041972,   100.801369
   1105, -0.598177552,  -2.26017952,   102.318329
   1106,    1.6825279,  0.206258178,   103.630013
   1107,  0.913126469,  -1.68446875,   103.489479
   1108,   3.82150245, -0.866649687,   102.203728
   1109,  -3.11460876,    10.618926,   102.726868
   1110,  -3.32653761,   10.6819105,   104.735138
   1111,  -4.34545088,   12.7301254,   103.384384
   1112,  -5.68051195,   10.9847755,   103.824654
   1113,   2.00014997,  -4.36992693,   99.1956863
   1114, -0.0675677657,  -4.10522032,   103.192383
   1115,  -1.68704557,  -12.0106392,   93.8034821
   1116,  0.254875958,  -11.6415892,   93.8914719
   1117,  -1.61075914,   -10.572814,   92.9300308
   1118,   3.05662131,   1.00908494,   102.329231
   1119,   3.56271935,   2.87645054,   101.863998
   1120,    5.4704833, -0.186809033,    102.61515
   1121,   1.80388486,   2.59976912,   102.008827
   1122,   2.33718562,     1.937343,    95.861618
   1123, 0.0154052591,   1.17603445,   101.015213
   1124,   1.51355147,   3.64911556,   99.7188492
   1125,  -2.15698695, -0.162710443,   99.5754242
   1126,  -1.31079745,  -1.48648083,   98.1779404
   1127,  -2.33769226,  -7.80507708,   98.7837906
   1128,  -4.90842724,   -9.3177948,   98.3108826
   1129,   -4.4142909,  -9.76010513,   100.460602
   1130,  -4.16817665,  -7.45474148,   99.1848907
   1131,  -1.26249135,  -5.36453676,   98.8211365
   1132,  -1.19679856,  -8.21423054,   100.506882
   1133, -0.322788298,  -8.05266857,    98.559166
   1134,  -4.06057024,  -7.70274591,   97.1531525
   1135,  -2.02964783,  -10.3010559,   99.5308228
   1136,  -4.47868347,   1.62574637,   97.7282944
   1137,   -3.3158071,  -0.69606936,   101.661156
   1138,  -7.89093828,   7.42952061,   102.325539
   1139,  -8.24861622,   10.2843485,    102.84166
   1140,  -9.07158947,   8.56250095,   104.158531
   1141,  -6.29348898,   8.82239437,   104.077034
   1142,  -10.4230938,   11.3533821,   97.6668472
   1143,  -8.28522968,   12.8403139,   98.2254105
   1144,  -8.27771473,   10.4593601,   98.5375519
   1145,   8.88992882,   7.80547953,   97.8935165
   1146,   6.96991158,   5.77067804,   97.0377731
   1147,   7.65973282,   7.40700531,   99.4614105
   1148,   6.67653275,   8.70742226,    97.778244
   1149,   9.63159084,   7.74361038,    99.915947
   1150,   8.47441769,   10.0920258,   98.8569336
   1151,    11.530654,   6.93653679,   99.5059052
   1152,   10.4270897,   9.09133244,    98.548645
   1153,   10.0738888,   8.50632763,   96.4438171
   1154,   11.1215124,   6.35865211,    97.824585
   1155,  -4.06107187,  -2.99664974,   102.046883
   1156,  0.583007991,  -10.0364656,   99.0260391
   1157,    0.2022295,  -10.9109669,   97.2846527
   1158,  -1.99152744,  -9.28984261,   97.5189819
   1159,  -1.84530926,  -11.5671701,   97.6212387
   1160,  0.708165526,  -9.24834728,   100.821884
   1161,  0.707182467,  -12.3064251,   100.617119
   1162,   10.5278273,  -5.50124836,   106.088921
   1163,   5.03917646,  -2.07599545,   91.7837753
   1164,  -1.87863588,  -10.7490644,   101.556229
   1165,   1.65551805,   -11.927392,   98.6384888
   1166,  -1.26387227,  -13.4170761,   99.1663589
   1167,   2.47988677,  -8.95855618,   100.244469
   1168,   6.43908405,  -1.99886525,   96.6859131
   1169,   4.05383825,  -2.71489048,   96.1811295
   1170,   4.77457094, -0.607988298,   95.0007324
   1171,   2.75013256,  -1.67297053,   95.9107513
   1172,  -8.11496067,  -5.05019331,   99.5458145
   1173,   -7.9185133,  -3.77966499,   97.2000122
   1174,  -8.84222603,  -6.13720417,   98.0523987
   1175,  -10.0658569,  -5.16271019,   99.7410202
   1176,   -9.0984087,  -7.42370033,   99.6034012
   1177,  -8.12947941,  -6.68138504,   101.196922
   1178,  -6.82893562,  -4.21447086,   102.299278
   1179,  -1.25950909, -0.210654244,   101.510216
   1180,  -3.06828403,  -1.70955551,   104.095039
   1181,  -3.95548272, -0.149719864,   104.209404
   1182,  -7.03248024,   11.5954828,   102.355843
   1183,  -6.40760469,   9.91657257,   101.828232
   1184,   2.99949503,   4.53699589,   100.635567
   1185,   3.17017937,   4.15344524,   98.3791885
   1186,   1.46558738, -0.563313067,   95.8059998
   1187,  -10.5567169,   9.51515388,   98.6877136
   1188,  -8.71308041,    9.4418726,   100.606209
   1189,  -10.0129118,   9.12078476,   102.165489
   1190,   -9.6821394,   7.40497828,     100.3078
   1191,  -1.06745267,   10.6262836,   100.867035
   1192,  -1.15537417,   13.3150644,   99.3808899
   1193, 0.0484860241,   13.4232502,   102.343544
   1194, -0.114297897,   11.5964603,   99.2363052
   1195,  -4.03753328,   8.11827278,   102.660629
   1196,  -3.20268488,    6.5140934,   103.368416
   1197,  -5.55378342,   6.95901632,   104.645493
   1198,   1.49080849,   11.1822567,   101.571091
   1199,  0.970191777,   13.3650808,   99.2716522
   1200,  0.543623209,   9.91079617,   99.5854111
   1201,  0.684616804,   9.96518517,   97.6521454
   1202,  -1.81029522,   9.36040211,     97.83638
   1203,   12.9590101,   7.98307085,   95.2883072
   1204,   -2.4322598,   11.1036034,   98.5757065
   1205, -0.918171167,   11.0740347,   97.1477661
   1206,   1.82250297,   11.4945879,   99.4199829
   1207,  -2.59105301,  0.872966349,   103.830612
   1208,  -2.04403448,   6.21624994,   100.943481
   1209,  -3.86341095,   6.20599318,   100.757095
   1210,  -5.12067747,   2.41111565,   103.152809
   1211,  -6.71666765,   1.79416537,   105.092422
   1212,  -8.02619076,   2.52416182,    103.71698
   1213,  -7.53337669,   1.52394998,   102.245842
   1214,  -5.81859684,   3.72275162,   105.426666
   1215,  -6.09877968,   3.83312225,   103.508804
   1216,  -4.86591578,  0.802862287,   102.195961
   1217,   7.21957302,  -4.16280222,   105.964752
   1218,    9.4393692,  -3.89117336,   104.560646
   1219,    8.9485445,  -5.01623583,   106.910965
   1220,   8.41808701,  -5.09222078,   104.609581
   1221,   -6.6228447, -0.0356880054,   103.186691
   1222,  -4.96081018,   1.32331169,   104.389763
   1223,  -3.94970059,   3.71201372,   104.025597
   1224,   8.53883076,  -6.82291794,   105.268715
   1225,  -8.15057755, -0.678186119,   99.0464096
   1226,   -6.7669425,  0.457723677,   98.0862503
   1227,   7.10589361,  -1.45148194,   100.883453
   1228,   7.75099373,  -2.32424569,   97.7716751
   1229,   7.96200037,  0.390528381,    99.242569
   1230,   7.15954351,  0.138561174,   101.820267
   1231,   3.88371634,  -5.04749012,   101.254135
   1232,    7.7134943,  -6.90545559,   106.387642
   1233,   1.45414996,  -3.49172616,   96.8195496
   1234, -0.392124653,  -2.36469197,   96.4939423
   1235,   1.02441418,   -2.8003087,   95.3625031
   1236,  0.297397494,  -2.88999867,   98.6864471
   1237,   3.73935294,   1.49940801,    103.61898
   1238,   6.62753487,  -5.40855598,   107.025291
   1239,   6.47630501,  -5.43900394,   104.695854
   1240,   1.68411398,   2.83144093,   104.057243
   1241,   3.30560875, -0.305074811,    103.96254
   1242,   5.47638702,  -3.68345571,   105.602867
   1243,   4.51186085,  -1.96388412,   106.207619
   1244,   5.11261034,  -2.30812573,    104.29467
   1245,   3.65959024,  -3.88400269,   105.713348
   1246,  -1.72687626,  -2.79306722,   104.155899
   1247, -0.955050051,  -1.02301049,   103.713783
   1248,  -2.99730587,  -4.49053431,    91.500206
   1249,  -2.02194023,   -5.2463088,   92.3300705
   1250,  -4.12925529,  -5.05817461,   92.1612015
   1251,   6.93512297,   5.33818579,   98.9109116
   1252,   6.06520224,   1.97298801,   96.7944946
   1253,   7.88794851,   1.55866253,   97.6489716
   1254,   8.19215679,   2.19702291,   100.157166
   1255,   7.55612755,   3.74925995,   97.3239441
   1256,   6.14938927,  0.033050362,   96.1547928
   1257,   4.45873785,    2.4987886,   96.0687485
   1258,   7.17214108,   3.82704115,   101.041779
   1259,   8.96506023,   -6.2450738,   98.1737595
   1260,   5.90801287,  -6.50891447,   97.7939835
   1261,   7.30087137,  -8.45035744,   98.3557663
   1262,   7.83935595,  -5.68243504,   99.8283157
   1263,   6.75446606,  -4.00285864,   97.4697266
   1264,   6.41489172,  -4.54159689,   99.1811371
   1265,   9.06668854,  -3.94895816,   98.0857086
   1266,   10.7129536,    -4.774827,   100.560349
   1267,  -2.76006746,  -3.61026049,   97.3623428
   1268,  -5.50118494,  -4.23081636,   96.3977203
   1269,  -4.39877129,  -2.88886857,   96.3717041
   1270,  -2.50931406,  -2.48282862,    95.726387
   1271,   5.56917858,  -14.0230064,   95.6644745
   1272,   4.48560572,  -12.3863115,   94.6679306
   1273,   6.94091511,  -12.3567686,   95.1380692
   1274,  -2.90581441,   13.1239176,   101.057594
   1275,  -3.68335176,   11.0810385,   100.538689
   1276,  -4.91209602,   11.2877169,   102.068092
   1277,  0.237671718,   10.0604343,   102.889832
   1278,  -1.77920854,    11.723691,   102.120956
   1279,   9.64280033,  -3.41386104,   106.552979
   1280,   7.80045795,  -3.26756191,   104.945236
   1281,   7.54162407,  -3.21716285,    107.01548
   1282, -0.178630054,   11.7674637,   103.649918
   1283,  -1.49663353,   10.0860767,    103.82383
   1284,  -2.62147593,   12.8890533,   103.122635
   1285,  -1.58461833,   8.78882694,   102.669014
   1286,  -3.99702621,  -1.51843655,    105.14061
   1287,   -1.9965291,  -1.28056216,    106.36834
   1288,  -2.01529932,  -2.96486378,   106.001694
   1289,  -2.80705595, -0.081812568,   106.326515
   1290,  -3.98458529,  -3.19233441,   103.900726
   1291,  -5.72633219,  -1.72565246,   105.859657
   1292,  -3.83640099,  -3.32858491,   105.810005
   1293,   -5.3291378, -0.215764835,    104.91291
   1294,  -4.43452787, -0.341971397,   106.636589
   1295,  -5.75255442,  -1.34815013,    103.78566
   1296,    -11.54877,  -4.07622147,   99.1691742
   1297,  -12.0863581,   -6.3114152,   98.2063599
   1298,   -13.813262,  -4.30295229,    99.370079
   1299,  -13.7051468,   -4.1512332,   97.4118881
   1300,   -11.842701,  -6.93712473,   99.9588242
   1301,  -12.5230284,  -5.45413065,   101.556541
   1302,  -11.2520084,  -3.90258527,   101.637642
   1303,  -13.8430061,  -4.41074848,   101.175537
   1304,   -12.902667,  -2.15151668,    101.13694
   1305,  -10.5984478,  -2.25831723,   100.026398
   1306,  -13.0114946,  -2.77945828,    98.473732
   1307,  -5.48682117,   5.92987442,   99.7484207
   1308,  -2.82260823,   5.48665905,   98.8416824
   1309, -0.0722982958,   3.75698781,   101.118805
   1310,  -12.2505579,    1.7651031,   98.1078262
   1311,  -12.7654362, -0.118326575,   96.0960846
   1312,  -12.0949345,   1.71503603,   95.7111816
   1313,  -11.3719893,  0.175138533,   97.5607681
   1314,  -13.3722944,  0.285955042,   97.9003983
   1315,  -12.3852501, -0.394701481,   99.6501923
   1316,   10.0133772,   7.25309467,   101.935951
   1317,   12.2254763,   7.19059181,   101.169388
   1318,   10.9561539,   5.52595758,   100.402687
   1319,   10.5684433,   1.90954268,   99.6516113
   1320,   12.7706804,   3.76658058,   99.6455612
   1321,   10.4210243,   3.52200198,   97.8982697
   1322,   9.51955318,   4.97915697,   99.5967255
   1323,   7.50542688,   -4.4636941,   107.654358
   1324,   13.6397295,   6.49258661,   100.566895
   1325,   12.0616789,   5.16532755,   98.8738861
   1326,   11.0667582,   3.94593024,   101.915512
   1327,   13.0369024,   5.05093861,   101.352386
   1328,   1.78240871, -0.715204358,   105.053627
   1329, -0.120292775,  0.156039059,   105.558762
   1330,   3.40324974,    1.2229799,   105.703362
   1331,   3.46539783, -0.924196422,   106.255798
   1332,    3.4342072,  -2.28201532,   103.865158
   1333,   1.98629022,   1.30257547,   106.344238
   1334,  -3.85284758,   3.03497291,   96.0784836
   1335,   -4.0817194,   1.34982502,   95.9399948
   1336,  -6.00686502,   2.36336422,   96.4462433
   1337,  -7.48040867,  -3.73367739,   95.2749481
   1338,  -6.62170982,  -5.34703112,   94.9132919
   1339,   10.1251726,  -13.8642941,   101.207535
   1340,   10.6961851,  -13.3126135,   98.8163986
   1341,    11.224535,   -12.584898,   100.585007
   1342,   11.2655363,  -14.7396326,   100.123604
   1343,  -7.20727158,  -7.38237476,   97.7195053
   1344,  -8.25504971,  -6.10111094,   96.0959473
   1345,    8.9956274,   -12.308979,   102.135925
   1346,   7.89768314,  -14.0258923,   101.283768
   1347,   8.93267822,  -15.0204868,   101.906555
   1348,  -11.0004244,  -10.3979616,   104.565796
   1349,  0.255777985,   -10.032938,   93.3232117
   1350, 0.0790431648,  -10.6071615,    95.069397
   1351, -0.976721287,  -9.50517845,   94.2812195
   1352,  0.192651883,   2.76276588,   102.907051
   1353, -0.348832816,   4.72191429,   103.518127
   1354,  -1.64919877,   2.61655283,   103.671646
   1355,   11.3316622,  -9.72465038,   101.179367
   1356,   10.9805393,  -7.71389437,   101.292496
   1357,   12.5282001,  -8.94992828,   102.297554
   1358,    12.373271,  -8.17306232,   100.339699
   1359, -0.149223238,    0.7100963,   103.328888
   1360,  0.216768205,   2.02067828,   105.916718
   1361,   8.22037315,  -12.2338076,   100.523193
   1362,  0.837949812,  -5.45938063,   98.0289764
   1363,   3.45856166,  -6.50906897,   97.1990967
   1364,   1.46736097,  -7.36120033,   98.8529205
   1365,  0.530944288,  -7.88332176,   96.7170792
   1366,   3.40952826,  -6.70755863,   99.2455292
   1367,   1.78619409,  -5.94113159,   101.045143
   1368,    3.0443933,  -4.77142429,   97.0874176
   1369, -0.412985086,  -4.17128038,   96.5743713
   1370,    1.1294893,  -5.38913727,   95.7570343
   1371,   1.15839946,   3.83704448,   96.5219879
   1372,  0.102298014,   6.22389174,   101.007393
   1373,  0.400921851,   5.92894173,   98.7336273
   1374,     10.45823,   -11.112381,    102.27951
   1375,   9.78189373,  -10.9811373,   99.4816971
   1376,   4.67141151,  -9.54377842,     94.39608
   1377,    4.7456913,  -8.19244576,   93.3862381
   1378,   6.43535948,  -9.52554989,   93.4921951
   1379,  -7.42144299,   3.63527632,   97.6221161
   1380,   8.34866238,  -13.8113184,   97.8795776
   1381,   8.31198883,  -14.0078192,   99.6207657
   1382,  -7.38694334,   2.31520772,    99.932785
   1383,   1.44247448,  -6.14107323,   93.9941788
   1384,   2.68264341,  -4.64769554,   94.9714203
   1385, -0.000288848591,  -4.06387949,   94.4503174
   1386,   2.51379871,   -8.4427433,   95.3971558
   1387,   3.59451818,  -6.45110655,   95.0566025
   1388,   3.46987748,  -6.59506226,   93.1626968
   1389,   2.49944758,  -4.82292032,   92.6860962
   1390,   2.17669201,  -8.45518875,   93.1951981
   1391, -0.169303283,  -5.69296503,   100.829597
   1392,   2.86207914,  -8.52262783,    97.779335
   1393,   6.25283241,  -12.4884195,   98.9967499
   1394,   8.27855301,  -12.1956186,   97.3498764
   1395,   6.70525551,  -12.1622591,   97.2412643
   1396,   6.66907835,  0.213682085,   105.729446
   1397,   8.35676479,  -1.30711591,   106.732735
   1398,   8.42825222,  0.415906519,   107.355705
   1399,   6.65840626,  0.262456954,   107.700401
   1400,   1.63265848,  -9.66325283,   96.5395508
   1401,  -3.23024702,   8.47413349,   99.3925095
   1402,  -1.36469817,   8.42601776,   100.992401
   1403, -0.929960728,   7.28114367,   99.2029037
   1404,   5.51165199,   6.53683138,   98.3490601
   1405,   5.42039108,   6.47544336,   100.654854
   1406,   4.41103745,   7.98042583,     100.0298
   1407,   3.91531754,    5.6483531,   98.8187943
   1408,   11.2566023,  -8.46789074,    94.676445
   1409, -0.170466289,   10.0508623,   93.3414001
   1410,   5.33787632,   4.33079338,   96.6134262
   1411,    4.1851325,   6.12933683,   96.8117752
   1412,   9.48538303, -0.861298382,   100.217979
   1413,   -1.9595058,   -8.3838892,   102.312164
   1414, -0.333559334,  -9.68924618,   103.007332
   1415,  -1.91521573,  -11.5435257,   103.646317
   1416,   6.66896677,  -2.22635889,   103.384384
   1417,   8.37324429,  -2.20218182,   102.417091
   1418,  -8.90641594,   2.08587718,    98.617897
   1419,  -9.99792957,   1.42176354,   100.364174
   1420,   -10.392314,   1.72146666,   97.3287048
   1421,  -9.63169956,  0.238497734,   98.1055603
   1422,  -9.80377007,   4.49466658,   97.1957779
   1423,   -10.940115,   3.23477483,   98.3573914
   1424, -0.973657966,  -9.93029022,   96.0018539
   1425,  0.127245411,  -7.66884947,   94.7605133
   1426,   2.59489417,  -11.3712807,   96.3480148
   1427,   3.64396191,  -10.9323568,   98.2420197
   1428,   4.65058422,  -9.88083649,   96.0929413
   1429,   2.38806343,   -10.095808,   94.6634216
   1430,  -9.15962505,  -3.77298856,   101.218651
   1431,  -9.75661373,  -3.34173512,   98.3089371
   1432,   -6.1865797, -0.0574403331,   96.1043472
   1433,  -4.97415304, -0.0753945559,   97.3562851
   1434,  -8.00130653,   2.17773604,   94.7294083
   1435,  -8.11123848,   1.90995312,   96.5833511
   1436,  -7.02322435,   4.33304834,   95.4300613
   1437,  -5.96292734,   2.73691654,   94.0819321
   1438,  -4.92990065,   4.75320148,   94.7763214
   1439,   5.64752245,  -9.63407612,   100.856567
   1440,   4.70626116,  -8.52544498,   99.9904861
   1441,   7.52494717,  -7.54907846,   100.252548
   1442,   6.39715528,  -10.6734781,   99.4282684
   1443,   6.51819801,  -10.6524353,   102.458267
   1444,    8.0409317,  -9.39960957,   100.433434
   1445,   6.73967409,  -8.44589043,   102.118362
   1446,   4.36623526,  -8.63641644,   102.225906
   1447,   3.87789893,  -11.1614847,     100.3246
   1448,   4.85934067,  -0.75284332,   104.188759
   1449,    5.5876193,   2.04615784,   103.780495
   1450,   7.49008751,   1.14174247,   103.287354
   1451,  -12.6206293,   12.5393639,   102.279541
   1452,  -14.0889854,   11.2164879,   102.200165
   1453,   -12.312727,   11.0697527,   103.454659
   1454,   6.82806683, -0.550593555,   103.776817
   1455,  -12.5770836,  0.249818563,   101.406578
   1456,   -12.784852,  0.518047452,   103.564217
   1457,  -10.9014301,  0.806247413,   102.338631
   1458,  -12.0965691,   1.89469481,   101.982162
   1459,  -14.4266243, -0.107778534,   103.071442
   1460,  -12.9943132,  -1.47018874,   103.226036
   1461,  -11.4827404,  -1.06138945,   101.793083
   1462,  -13.8300028,   1.28506207,   101.460274
   1463,  -14.4269161, -0.536858082,    101.03817
   1464,  -13.5257921,  0.791602254,   99.6619492
   1465,  -4.64846325,   11.2392206,   98.4035873
   1466,  -10.6100073,  -4.87767506,   97.2080688
   1467,    5.0640583,  -1.78446865,   108.245827
   1468,  -5.17388153,   9.03352737,   99.9769058
   1469,  -4.60671711,   9.71588898,   102.357651
   1470,  -1.39710999,   7.59526396,   97.2760849
   1471,    7.4196744, -0.434917301,   97.6039276
   1472,   8.65812016,  -13.6585789,   95.7429886
   1473,   4.63451004,   11.6089468,   99.4965286
   1474,   2.89699936,   9.52621174,   100.430115
   1475,    3.9445014,    10.024334,   98.2826385
   1476, 0.0499961451,   13.3593035,   97.5917282
   1477,    1.9577651,   11.6274891,    97.642662
   1478,   2.90189981,   12.6680632,   100.425438
   1479,   2.78069472,   13.0193996,   98.3660202
   1480,   10.6405087,  -4.06741667,   96.3470078
   1481,    10.530057,  -6.51258564,   97.3615646
   1482,   11.4487629,  -2.48512673,   97.2026443
   1483,   9.22757244,   -1.1170764,   97.7564163
   1484,   9.29228973,  -2.93134451,   95.6625748
   1485,   11.2300539,  -4.28209162,    98.672493
   1486,    10.590745,    -2.896703,   100.580627
   1487,  -12.2402506,    -1.373878,   97.8398972
   1488,  -13.7253609,  -1.26305127,   98.5660934
   1489,   5.77275562,   -6.6800065,   100.170982
   1490,   5.75770521,  -6.91159964,   102.504425
   1491,   4.62987804,  -11.1194649,   102.257805
   1492,   3.48558164,  -6.87907887,   101.302414
   1493,   -18.318573,  -2.31037831,   101.499298
   1494,  -17.1886158,  -3.26402712,    102.98909
   1495,  -17.2210541,  -1.26644659,   103.038971
   1496,   10.2748671,   2.31779718,   102.368286
   1497,   9.52369785,  0.327979982,   103.062706
   1498,   10.7736368,  0.442201883,   101.334351
   1499,   11.1145849,  0.500382066,   103.931976
   1500,   9.98944378,   2.36146402,   104.406181
   1501,   11.9695215,   2.33139849,   103.993279
   1502,   9.26347065,   4.17183542,   104.102432
   1503,   8.36454391,   2.86625981,   102.609146
   1504,   12.4826384, -0.677745223,   101.390358
   1505,   11.9529457, -0.166133553,   99.4701157
   1506,   18.2108917,  -2.28757954,   101.369064
   1507,    12.313859,   1.87911212,   100.023453
   1508,   12.0741959,   2.17371249,    101.92189
   1509,   14.1369553,  0.743085802,   101.084625
   1510,   14.3656826,  -1.69676006,   103.047157
   1511,   12.7534103,  -2.68527842,   103.099846
   1512,   12.1258287, -0.954745948,   103.623032
   1513,   14.6861925,  0.377758235,    102.86837
   1514,   13.3180485,   1.43119419,   103.379066
   1515,   13.7572098, -0.804937422,   99.5190659
   1516,  -11.1756134,   0.99087739,     104.8134
   1517,  -9.23294163,   0.25236246,   103.177414
   1518,  -11.0419502, -0.732046247,    103.90802
   1519,  -12.2196388,   1.94690037,   103.904587
   1520,  -10.4719553,   1.43477178,   106.698402
   1521,  -10.2791796,   2.21467829,   104.727654
   1522,  -11.9015837,   1.79622281,   106.509384
   1523,  -12.3401928, -0.272064984,   104.875763
   1524,  -12.9529572,    1.8755244,   105.812935
   1525,  -10.7278519,  -6.02720356,   103.886253
   1526,  -9.93699455,  -6.03733587,   102.134995
   1527,  -4.84251881,   5.29653072,   103.178558
   1528,  -2.10819197,   4.74023342,     103.2966
   1529,   6.16545296,   16.4361343,   102.665833
   1530,    -9.766222,  -3.07846236,   95.7579422
   1531,  -10.1164007,  -4.83304024,   94.9026947
   1532,  -11.7612104,  -3.58211279,   96.5187607
   1533,   6.07464314,   1.25790524,   94.0318069
   1534,    10.655508,   14.7727919,    100.62059
   1535,    4.1054101,  -5.13432932,   103.293732
   1536,  -6.50496435,   10.9558802,   99.6270523
   1537,  -4.28072119,   8.55088139,    97.736824
   1538,  -5.06687832,   13.6005831,   100.913467
   1539,  -3.45613933,    13.385437,   99.0355682
   1540,  -7.86087275,  -2.34733582,   102.820099
   1541,  -9.67635727,  -1.59965873,   102.241829
   1542,   10.2203913,  -3.39826822,   102.539307
   1543,   12.7848949,   -3.9356153,   100.795113
   1544,   8.75824451,  -1.65401042,   104.646599
   1545,   11.2409086,   -3.5259521,   104.902443
   1546,   10.3545132,  -5.58911657,   104.188072
   1547,   10.3833113,  -5.18750048,   102.388077
   1548,   12.3413706,  -4.98527622,   103.332031
   1549,   10.3993454,  -1.74821305,   102.618279
   1550,    4.7950387,  -8.22819996,   97.8990784
   1551,  -5.99516678,    -16.47859,   97.0792465
   1552,  -4.56066608,  -17.0656509,   98.2505798
   1553,   7.67537117,  -6.59019232,   102.286278
   1554,   2.07866096,   6.63497925,   99.0934525
   1555,   2.98836684,   6.94393063,    101.03096
   1556,   1.53452587,    8.2822113,   99.5798492
   1557,   2.36150956,   5.47683287,    96.624588
   1558,  0.494640559,   5.77567482,   96.5214157
   1559,   1.43432081,   7.74996519,   97.1246338
   1560,  -7.88001537,   4.08573818,   102.626205
   1561,  -10.3272343,   2.58499217,   102.656548
   1562,  -7.83133411,   3.50835514,   104.973015
   1563,  -8.38478088,   0.99080646,   104.807388
   1564,  -1.74374855,   4.80569601,   97.2478333
   1565, -0.035176184,   5.83555269,   94.7160873
   1566, -0.914702415,   3.70635319,   95.7479172
   1567,  -2.10640049,   5.02781534,   94.7482376
   1568,  -3.92859697,   6.77308941,   97.4604263
   1569,   -1.6734165,   6.35296154,   96.2089081
   1570,  -2.95311975,   8.33254719,   96.4207535
   1571,  -3.35498405,   6.70139408,   94.9660187
   1572,  -3.45842743,   4.90057993,   96.8963089
   1573,  -1.84421217,   7.93597364,   95.1565552
   1574,   7.88063097, -0.574342489,   95.1651917
   1575,    7.3982892,  -3.83127522,   95.5088196
   1576,  -15.6272764,  -1.16891456,   97.8773041
   1577,  -14.9763088,  0.460672975,   98.7434082
   1578,   4.63919735,  -13.0198431,   98.0943832
   1579,   3.11029124,  -13.6235895,   99.2027664
   1580,   6.33434343,  -14.4782248,   99.5424118
   1581,   4.89373398,  -14.6492891,   97.4376907
   1582,   4.33395052,  -15.6800117,   98.9898987
   1583,   6.58122301,  -14.2671576,   97.7875061
   1584,    4.7402792,   -11.739871,   96.5291901
   1585,   3.05188322,  -13.4704418,   97.0266876
   1586,   8.40152645,   5.96808338,   101.395523
   1587,   7.69817495,   8.09464264,    101.90168
   1588,   4.63665867,   8.37986279,   102.302063
   1589,   4.10241556,   7.73566437,   97.8708725
   1590,  -2.14178705,  -6.49064827,   102.778328
   1591,  -2.08650041,  -7.25782013,   97.0121384
   1592, -0.0142371953,  -13.5785398,   97.3176804
   1593,   1.61428869,  -12.9589872,   96.5797577
   1594,  0.184508383,   -11.914257,    95.852005
   1595,  -13.5301123,   1.30632544,    95.981163
   1596,  -12.4028273,   2.27802229,   100.071793
   1597,  -11.0296783,   3.60860085,   96.0197372
   1598,  -10.6286507, -0.343055844,   99.9887924
   1599,  -11.7035122,   4.35706854,   93.7600861
   1600,  -11.0903416,   4.50925589,   106.972725
   1601,  -8.80787849,   4.03092766,   94.7973709
   1602,   11.0033779,   9.63040447,   100.653038
   1603,  -8.84095097,   5.91493034,    96.033226
   1604,   -9.4299593,   3.61264968,   100.588295
   1605,   -8.6200552,   6.08956194,   98.1702042
   1606,  -10.8192425,   6.06174135,   99.6344299
   1607,  -9.74577999,   7.59372854,   98.1865387
   1608,  -10.9170961,   5.29453897,   95.7764206
   1609,  -11.4055595,   5.37534571,   97.6576614
   1610,  -2.47552109,  -4.27178192,   103.421196
   1611,  -1.40534723,  -6.36582518,   105.318054
   1612,  -3.68443871,  -6.51913071,   105.018143
   1613,   14.1102591,     3.856215,   102.119423
   1614,    14.979146,   4.25944233,    100.51474
   1615,     15.25109,   5.58070707,   102.005135
   1616,   15.8795633,   4.02237368,   102.165886
   1617,  -4.62024212,   -5.1475482,   103.072952
   1618,  -2.05779552,  -8.51442814,    104.35434
   1619,   -10.519124,  -1.60990274,   97.5061417
   1620,  -4.85420227,   5.46633816,    105.40052
   1621,  -6.37142515,   5.68782425,   102.616386
   1622,  -6.47029972,   5.41103125,   104.793861
   1623,   7.02700233,   8.03038597,   106.931549
   1624,   8.79450703,   8.52572632,   106.032875
   1625,   7.57250547,   9.49947071,   106.603348
   1626,  -18.3924828, -0.732441485,   101.357635
   1627,  -18.5179749, -0.914570689,   99.9559402
   1628,   13.2700644,   3.53225851,   103.554832
   1629,   12.8989248,   5.24119854,   103.374924
   1630,  -8.45737839,  -1.65322745,   97.3034668
   1631,  -3.91472697,  -11.1575422,   98.2438431
   1632,   -4.8891654,  -12.6868515,   100.406357
   1633,  -3.47900653,  -11.7853041,   101.143967
   1634,  -3.14822435,   -13.081439,   98.3053513
   1635,  -2.00045657,   1.52593648,   95.7434235
   1636,  -10.5447378,  -9.76154709,    100.47123
   1637,  -11.6860952,   -7.7009902,   101.509972
   1638,  -12.4795895,  -9.43961048,   99.0347366
   1639,  -9.87097263,  -7.96074581,    101.68779
   1640,  -10.0899401,  -7.85601568,   98.1102142
   1641,  -13.8875065,  -6.89810514,   99.4740448
   1642,  -13.2811117,  -8.12850094,   100.537445
   1643,     9.376091,    6.0470047,   98.0824738
   1644,   13.6040449,   2.21614265,   101.302689
   1645,   10.2273436,   5.41412735,   102.001045
   1646,   11.9812527,   6.92590046,   103.342903
   1647,   10.1060629,   7.53466129,   103.992081
   1648,  -6.49098539,  0.411006212,    94.143692
   1649,  -4.90856409, -0.376998097,   93.9061356
   1650,  -3.84809923,   2.89363456,   94.1615677
   1651,  -5.20290041,   1.70182502,   93.6800079
   1652,  -2.86850476, -0.0576556996,   93.9325485
   1653,  -3.53601861,   1.40301871,   93.7355728
   1654,   15.2925167,  -2.73845696,   102.495644
   1655,   14.0004463,  -1.47331536,   101.285446
   1656,   14.3875694,  -2.68235707,   100.367401
   1657,   13.8246031,   -3.9995625,   102.772324
   1658,   12.5538616,   3.34277391,   93.8375549
   1659,  -3.97999668,  -7.30830526,   101.251518
   1660,  -5.40647793,   -6.1759758,   101.021286
   1661,    -6.441998,  -7.97673655,    99.918663
   1662,   4.88792658,  -4.43066883,    97.301651
   1663,  -10.6762171,   5.66916037,   106.076065
   1664,  0.274461925,    4.1734519,   94.3668213
   1665,   3.36714363,   3.85351396,   96.1786957
   1666,   10.2491283,  -14.7510748,   97.8342896
   1667,   8.14290524,   -4.7153368,   102.390396
   1668,   12.2537689,  -5.40418768,   101.514496
   1669,   5.66172123,  -5.31293678,   102.886497
   1670,   8.73628712,   -10.784132,   100.990265
   1671,   5.26272011,  -10.9872055,    104.13829
   1672,   6.45500088,  -12.2125187,   103.403236
   1673,   7.88855171,  -10.8912497,   104.999786
   1674,   6.74490881,  -8.82575607,   104.152718
   1675,   8.30668259,  -10.3561468,   102.833794
   1676,   4.08414698,   3.21789503,   103.887169
   1677,   4.85719681,   4.58936357,   103.118492
   1678,   6.87679625,   4.85152149,   102.617088
   1679,  -16.8561611,  -1.25450242,   101.248077
   1680,  -15.6150312, -0.828405142,   99.9694595
   1681,  -16.0131855, -0.231646448,   102.382072
   1682,   -16.327364,    -2.658005,   101.659599
   1683,  -15.2330294,  0.945031524,   100.544319
   1684,  -16.8120499,  0.786063433,   101.219536
   1685,  -16.3410091,  0.644573271,   99.3458099
   1686,  -16.8665638, -0.948507845,   98.7440643
   1687,   7.37565804,   10.7285824,   101.015022
   1688,   6.26841497,   10.7539148,   98.5643158
   1689,   3.75405383,   6.60399103,   102.925636
   1690,   6.20053577,   7.88184738,   95.7655563
   1691,   5.06178284,   9.92291737,   100.361053
   1692,   9.32580185,   9.43202686,   101.375473
   1693,  -1.68175256,  -6.91706228,    92.570961
   1694, -0.0969745815,  -5.56487083,   94.6606369
   1695,  -2.26948857,  -8.49986458,   93.1983566
   1696,  -3.10515785,  -6.87710524,   94.5291061
   1697, -0.420958817,  -6.12928867,   96.5412827
   1698,  -2.02083802,  -8.32707977,   95.4754944
   1699,   14.5230742,  -4.12134266,   101.390266
   1700,   13.0397606,  -3.02319837,   99.2669983
   1701,   15.0122576,  -1.69419837,   98.7082596
   1702,   14.6252861,  -4.20681381,   99.3623123
   1703,   15.9015865,  -2.51740932,   99.7727966
   1704, -0.284895927,   6.68724537,   103.305496
   1705,   1.51130652,   8.78112411,    102.17984
   1706,   1.36120665,   5.59733868,   103.090393
   1707,   3.98112941,   10.3541937,   102.407982
   1708,   5.80651569,   11.9343424,   101.768684
   1709,   4.60813856,   12.5297966,   96.5536041
   1710,   -8.8860321,   12.9218702,   104.118492
   1711,   -7.8811326,   10.9384937,   105.087578
   1712,  -11.3748178,  -6.26192617,   96.1464081
   1713,  -10.1990261,  -7.57634163,   96.2629013
   1714,  -5.73560858,  -6.45211506,   102.744713
   1715,  -6.26914978,   6.22108412,   97.8324203
   1716,   8.36080933,  0.312387228,   104.750504
   1717,   13.9113388,  -3.65122104,   104.955338
   1718,   10.0816221,  -2.02109385,   104.621574
   1719,   8.03968048,   2.36872578,   104.955139
   1720,  0.305515677,  -10.9656763,   102.043831
   1721, -0.129903331,  -11.4761782,   103.785095
   1722, -0.104428902,  -12.9025145,    102.75074
   1723,   1.99263978,  -11.5108118,   102.341774
   1724,  -3.26152897,   2.38787079,   108.490799
   1725,   2.26494288,  -9.31519032,   102.613846
   1726,  -6.92082787,   8.03629494,   100.127098
   1727,  -6.23182726,   8.24113941,   102.018829
   1728,  -0.14051725,  -1.89438319,   105.564964
   1729,   1.96594417,  -1.51111901,   106.386795
   1730,  -7.48905897,   8.09138393,    98.098114
   1731,  -5.82026911,   10.2736759,     96.36866
   1732,   12.7421103,  -4.96374941,   96.9605179
   1733,   13.2364464,  -5.91801357,   99.5860672
   1734,   13.5176125,  -2.33282757,   97.7723923
   1735,   5.71303511,   2.87180877,   93.4169617
   1736,   4.66980505,   2.12336659,   92.3052063
   1737,   4.38531446,   2.21663427,   94.1631851
   1738,   6.97283077,   1.49969184,   92.1451797
   1739,    7.3691864,   3.31962538,   93.0450287
   1740,   6.40521765, -0.474930435,   94.2542343
   1741,    6.5893054, -0.199999779,   92.3738708
   1742,   8.49364376,   1.21494281,   92.9848633
   1743,  -2.04447556,   9.88809299,   94.7725296
   1744,  0.214852691,   8.89601994,    96.088974
   1745,  -3.59706974,  -14.2396536,   94.8937607
   1746,  -1.70083177,  -14.6305819,   95.0318527
   1747, 0.0883217975,   12.0035391,   95.9658585
   1748,  -6.68496752, -0.241132841,   107.494995
   1749,  -6.89645052, -0.425501853,    105.69928
   1750,  -3.47997952,  -1.56061101,   107.122696
   1751,  -4.03772831, -0.586458921,   108.465263
   1752,  -5.19796467,  -1.78663254,   107.667931
   1753,  -5.28649712,  0.931475937,   106.208061
   1754,  -5.34738588,  0.483177841,   108.087784
   1755,  -1.24432433,  -9.25794697,   107.516243
   1756,     10.53442,  0.469267488,   98.0123749
   1757,   12.4663153,   1.64177489,    97.951622
   1758,   1.23027718,  -7.43934155,   102.948532
   1759,   1.90841258,  -8.57199478,   104.696167
   1760, -0.417657346,  -8.00261116,   105.252693
   1761,   -16.742878,  -5.11629152,   97.1034164
   1762,  -15.7748709,  -4.67076302,    98.432579
   1763,  -17.0194721,  -6.82769156,   98.2832947
   1764,  -16.0358677,  -7.04768276,   96.9801712
   1765,  -15.5417881,  -6.93235111,    98.882225
   1766,  -15.0446157,  -7.88476372,   100.495491
   1767,  -14.1735497,  -8.98197746,   98.5330658
   1768,   -15.483592,  -4.88276768,    100.21447
   1769,   -17.692564,  -5.97494459,   100.060966
   1770,  -14.3707724,  -6.31428862,   97.9019623
   1771,  -15.6942921,  -8.72791767,   97.8640289
   1772,  -10.0389833,    0.1588718,   96.1345062
   1773,  -11.7219906,   9.62198734,   100.702545
   1774,  -11.0880795,   7.54804993,   101.408432
   1775,  -12.3860741,   8.18521404,   100.269485
   1776,    -12.38167,   9.04075813,   102.351105
   1777,   5.63063717,  -13.1440353,   100.794319
   1778,   2.73236585,  -13.0206518,   100.982613
   1779,  -7.29465866,  -9.39937687,   98.4134598
   1780,  -7.62203312,  -11.1510735,   99.0658722
   1781,  -8.93103695,  -11.3357954,   97.3960571
   1782,  -6.97452831,  -11.5838728,   96.9380112
   1783,  -8.48044777,   -10.066328,   101.083458
   1784,  -6.59248304,  -10.3361101,   101.620598
   1785,   -9.7484808,  -9.84958744,   98.6176682
   1786,  -8.66138649,  -9.55413914,   96.6349182
   1787,   13.0970287,  -1.85359716,   105.850449
   1788,   12.5511456,  -3.45470023,   106.228981
   1789,   9.38920116,  -6.77924395,   100.281815
   1790,   9.40222454,  -8.90197945,   101.567787
   1791,   9.82039642,  -7.79339647,   98.5095749
   1792,  -5.07055998,   6.96979523,   102.211205
   1793,   -7.5984211,   5.95555162,   100.385483
   1794,   0.15149349,   4.23035002,   105.548714
   1795,   -5.0360651,  -6.02040291,   94.6439819
   1796,  -3.94260859,  -7.39827156,    102.99147
   1797,  -6.65975904,  -7.63099766,    95.540596
   1798,   5.17763138,   1.78868234,   105.761276
   1799,   5.52121449,  -3.76908159,   103.625854
   1800,   2.44933486,  -5.55790567,   105.312767
   1801,   0.64575398,  -5.78387928,   103.300987
   1802,  0.488149077,  -5.94914865,   105.375847
   1803,   3.28130484,  -6.81967258,   103.389679
   1804, -0.417049229,  -2.09399772,   94.2226028
   1805,  -0.94975698, -0.370037854,   94.0320282
   1806,   5.75855684,    9.9430151,   102.376076
   1807,  -5.17208481,   4.92742252,   96.7102661
   1808,  -12.9148569,    6.0198431,   100.463394
   1809,  -12.0541086,   7.47629881,   98.4100571
   1810,   9.60588837,  -1.89354444,   92.9264755
   1811,   10.2506943,  -1.79572618,   106.702377
   1812,   11.4346294,  -2.99047232,   106.788734
   1813,   11.7142601,  -1.71445072,   106.394142
   1814,  -12.8746891,    5.0602169,   98.8013229
   1815,  -10.1452341,   5.37501144,   102.311501
   1816,   8.04942513,  -2.18628502,   94.8550873
   1817,   10.0278196, -0.177185819,   95.9421539
   1818,   8.07346058,   1.23942399,   95.3839417
   1819,  -12.7148495,  -9.79928207,   100.677711
   1820,  -14.6217194,  -10.6308756,   99.8746185
   1821,  -14.1779156,  -10.8457708,   101.655815
   1822,  -14.3627329,  -9.50048923,   101.641205
   1823,  -12.2354574,  -11.3977938,   98.7620773
   1824,   -13.970315,   -12.112668,    100.59697
   1825,  -11.1759577,  -9.87932682,   102.564079
   1826,  -12.1299973,   -11.523118,   100.820831
   1827,   12.1542425,   -1.3360641,   93.5190353
   1828,    12.317523,   8.44360733,   98.5849228
   1829,   13.4347944,   8.63795662,   100.395432
   1830,   13.5216064,   7.05529928,   98.7864075
   1831,    11.309679,   3.88768935,   104.005852
   1832,   8.28732014,   6.40489864,   106.085991
   1833,   7.00379324,   4.73190784,   104.698723
   1834,   9.72995663,   4.08524132,   106.121384
   1835,   8.58943558,   6.18084812,    103.91304
   1836,   10.7850294,   5.68510818,   105.531929
   1837,   10.7031736,   5.33849478,   103.844612
   1838,   8.90249634,  -8.98682499,    97.677269
   1839,   8.10843086,  -10.6107016,   98.5307617
   1840,   8.17595577,  -10.6629524,   96.4304199
   1841,   10.3720417,  -11.2912769,   97.6471634
   1842,   7.05173206,  -7.59702969,   96.1677246
   1843,   7.72263575,  -9.08864117,   96.1654358
   1844,   10.0484905,   -9.5275116,   94.8428192
   1845,   9.77741909,  -7.92571688,   96.3397675
   1846,  -9.78594971,  -1.85942996,   104.433929
   1847,  -9.91081905,  -3.93605375,   103.749588
   1848,  -3.66403699,   15.0858583,   100.667542
   1849,   1.74410844,   14.8021936,   100.172653
   1850,   2.41818976,    16.698576,   101.224304
   1851, -0.277350396,   16.0233135,   99.0825195
   1852,  0.175184146,   6.09949446,   105.469223
   1853,   2.53948092,   5.36963987,   105.223389
   1854,    2.9919951,   4.63924789,    102.93811
   1855,   2.00312448,    8.4121933,   104.420929
   1856,   3.51356959,   6.73030424,   105.067902
   1857,   2.45580101,    15.333746,   98.2632751
   1858,   14.5079231,  -2.02861166,    95.144577
   1859,  -3.64656401,  0.629461884,   91.4108582
   1860,  -2.03548074,  0.825291157,   92.0323563
   1861,  -2.12181091, -0.736044526,   91.3888855
   1862,   -4.1767354, -0.340377659,   95.7420654
   1863,  -13.3048429,   4.18975401,   101.883408
   1864,   -14.185545,   1.69737065,   103.282021
   1865,  -14.7093439,    3.1638906,   100.896873
   1866,  -14.0854816,    4.2118535,   99.3468475
   1867,  -15.8562756,   4.70941305,   102.049751
   1868,  -14.7755766,   5.13497305,   100.492546
   1869,  -12.9163818,   3.68135524,   103.868515
   1870,  -11.2889538,   3.63082194,   103.904938
   1871,  -11.8672056,   4.58487368,   101.085075
   1872,    -3.587677,   1.18795824,    106.29702
   1873, -0.160361648, -0.0563254766,   107.704445
   1874,  -2.54308653, 0.0556920357,   108.484413
   1875,   -3.5221591,  0.961592197,    108.25753
   1876,  -1.97998118,   1.54203093,   106.407288
   1877,  -2.10829329,  -1.47522831,   108.466408
   1878,   14.1204758,  -5.18488073,   94.8976517
   1879,   6.45673418,  -1.51000679,   105.331528
   1880,   6.05869579,  -2.53529501,   106.616425
   1881,   6.91166067,  -1.34122789,   107.886703
   1882,   4.97181416, -0.287543714,   106.204002
   1883,    11.714098,   2.60837889,   106.044182
   1884,   2.02076459,  -3.91597629,   103.560677
   1885,   3.79021049,   10.2073669,   104.507088
   1886,   4.80352688,   8.42564774,   104.647827
   1887,   2.57359552,   9.54899025,   103.382462
   1888,  -17.5171604,  -4.22596169,   102.100227
   1889,   13.3858471,   -3.4819026,   96.0743103
   1890,   14.9574423,  -3.93146753,   95.5302505
   1891,   13.1524115,  -3.53456187,    94.175827
   1892,      1.89809,    11.696291,   103.714134
   1893, -0.0400182009,   10.0252256,   104.794342
   1894,   1.77458954,   9.52932358,   105.582504
   1895,   8.50183773,   10.7081652,   103.225464
   1896,   7.22320127,   7.95177889,   104.156731
   1897,   9.77210331,   9.11997414,   103.643143
   1898,   6.00479269,    6.7745738,   102.548775
   1899,   -8.4646225,  -10.5867519,   105.309547
   1900,   18.5575047,   2.00644374,   101.534195
   1901,   17.2986412,   1.23582602,   102.928391
   1902,   17.2000523,   3.20451164,   102.950966
   1903,  -3.93868637,  -9.97079563,   102.537445
   1904,  -5.12297583,   -8.7168169,   102.502121
   1905,   5.63615561,  -3.09899831,   95.9521866
   1906,    4.9161272,  -4.57027388,   94.6049728
   1907,  -4.08183861,  -13.3180361,   102.394432
   1908,  -5.25005388,  -11.4222927,   103.187843
   1909,  -6.03321123,  -12.0942507,   98.7219391
   1910,  -2.91703129,  -9.95581341,   95.3912888
   1911,  -4.77238464,  -9.68352509,   96.2369995
   1912,   13.8208332,   1.85492492,   98.6719284
   1913,   13.1682882, -0.382037759,   97.7336884
   1914,   15.2507248, -0.825942278,   100.555672
   1915,  -13.3478384,  -3.44961238,   103.402237
   1916,  -11.5067253,   -2.6758275,   103.985115
   1917,  -14.8986006,  -2.12408876,   102.607491
   1918,   6.08208752,  -9.22075176,   97.1449356
   1919, -0.127245411,   7.66884947,   94.7605133
   1920,    5.9819479,  -2.63195562,   94.1018066
   1921,   3.99723387,  -2.86804628,    94.170929
   1922,   5.92097044,  -6.21202374,    95.506897
   1923,   9.92701721,   11.2527609,   100.125443
   1924,  -16.1095448,  -6.55780077,   101.087021
   1925,  -16.9452267,  -6.15030146,    102.28891
   1926,  -16.7291412,  -4.81127024,   101.156387
   1927,  -13.8968353,  -6.71573019,   102.342079
   1928,  -15.3029203,   -5.5586381,   101.945419
   1929,  -15.6595945,  -7.26845932,   102.756065
   1930,   11.0580168,  -6.59894896,   99.8809433
   1931,   11.1045313,  -9.17759895,   98.5768051
   1932,   12.6668119,  -9.88955498,   98.4189911
   1933,   11.9777918,  -11.2742319,   99.5305939
   1934,   13.4837971,  -10.0684156,   101.074806
   1935,   -5.3209815,  -8.25903511,   104.545036
   1936,  -8.10366058,  -7.12789917,   103.916687
   1937,  -7.28201532,  -8.62047863,    102.64991
   1938,  -3.39233422,  -8.29153633,   105.546165
   1939,  -3.79618526,  -10.1829624,   104.460915
   1940,   11.5522461,   4.25880384,   96.6401367
   1941,   13.2087116,   4.71740961,   97.3910446
   1942,   13.9301443,   4.93307304,   99.0984573
   1943,   13.2753954,   6.30806828,   97.3385773
   1944,  -10.3130703,   11.1732159,   102.230598
   1945,  -10.2719297,   10.7173624,   100.338562
   1946,  -9.58183289,   6.99921703,   102.547745
   1947,  -11.9004488,   9.14456654,   104.270126
   1948,  -10.7637882,   7.82034254,   104.144012
   1949,  -12.3933964,    6.8199234,   102.695648
   1950,  -8.16567898, -0.939234316,   104.999054
   1951,  -14.6067142,   2.00799942,   99.0619659
   1952,   15.8675985,  0.875272095,   99.8619461
   1953,   14.6445074, -0.174198508,   98.5606079
   1954,  -2.58956075,   5.49691057,   107.644424
   1955, -0.481467545,   18.3967266,   98.9778595
   1956,   1.72806466, -0.850045979,   93.7278061
   1957,   6.73333454,  -10.1900368,   95.0627899
   1958,   8.18237686,  -10.5381899,   94.4130707
   1959,   8.48503876,  -9.11608219,   93.8531113
   1960,   7.42858315,  -7.81749725,   93.7124252
   1961,   4.96031618,  -8.09078121,   95.5812225
   1962,    6.1056819,  -11.1373739,   93.7755127
   1963,    12.238287,  -11.2284698,   101.557541
   1964,    12.365056,   -11.052784,   103.387764
   1965,   11.0447044,  -8.06612206,   103.504875
   1966,   12.4266672,  -6.99304724,   102.787209
   1967,   1.62449968,  -13.1995401,   106.168091
   1968,  -4.65795231,  -14.9168005,   97.0857086
   1969,  -2.67625332,  -13.0729532,    96.346077
   1970,  -2.15852761,   -15.862422,    96.253334
   1971,  -5.45774603,  -13.9537745,    95.375618
   1972,  -4.71988487,  -12.5140743,   96.5690536
   1973,  -5.84606743,  -15.9451847,   99.1317444
   1974,  -6.89949083,  -14.7346792,   98.2931137
   1975,  -5.05315018,  -14.4690781,    98.611969
   1976,    -5.505548,   -15.368803,   96.0111847
   1977,  -6.11981487,  -13.4916801,   97.3275375
   1978,  -7.04581785,  -14.8875809,   96.3528519
   1979,   18.4508686, 0.0470848568,   101.192009
   1980,     13.99512,   -11.230094,   102.344193
   1981,  -6.87779188,   14.1201363,   97.2422256
   1982,   -6.3360486,   13.3641586,   98.6188736
   1983,  -5.05239773,    14.565196,   97.5574875
   1984,  -6.16090775,   14.6737823,   99.8305054
   1985,  -6.15385866,   16.5846539,   97.2262421
   1986,  -6.68958426,   16.0319233,   98.8372955
   1987,  -6.16139174,   15.5957775,   96.1054306
   1988,  -6.40437651,     13.89645,   95.2445145
   1989,  -8.76418591,   13.3671637,   95.9410477
   1990,   -9.0945425,   14.4997082,   96.8287354
   1991,   -7.7010684,   15.6968889,   96.8766098
   1992,  -8.73193836,   14.5411148,   98.3613586
   1993,  -7.80633879,   16.4817924,   97.9778214
   1994,   1.73942089,   10.0905809,   96.4326553
   1995,   3.62949419,   9.22548485,   96.4983368
   1996,   4.96119785,   10.5542641,   96.1356049
   1997,   2.98391747,   10.7555513,   95.1750946
   1998,   1.83136606,   7.94287014,   95.2812119
   1999,   17.1383343,   1.37298858,   96.8835144
   2000,  -8.31337738,  -12.6509504,   99.7540359
   2001,  -7.11070776,  -14.6697311,   100.259521
   2002,  -9.25798321,  -14.6150246,    98.598732
   2003,   -10.430934,  -12.3907309,    97.684082
   2004,  -10.1687603,  -12.0396175,   99.8694763
   2005,   -9.2146759,  -13.3096066,   102.008408
   2006,   -9.1678009,  -14.0028658,   100.280945
   2007,  -8.13530636,  -13.0815859,    97.761322
   2008,   1.88362229,  0.511459649,   94.7808151
   2009, -0.073851496,    2.0056684,   94.3986511
   2010,   11.5692129,   8.73355579,   102.976105
   2011,   1.38004768, -0.212835819,   109.007607
   2012,   4.96521139,   13.0126648,   98.4023056
   2013,   5.40847206,   13.5488443,    100.36261
   2014,  -6.56712246,   -9.6701498,   104.115669
   2015,   14.7676935,  -1.87511897,   96.8624725
   2016,   15.1346378,  -4.13432312,   97.4922028
   2017,  -4.64876986,  -5.50708628,    107.57563
   2018,   14.3413782,  -1.66644108,   105.023598
   2019,    11.865262,  -7.20170259,   94.2259903
   2020,   17.6227436,   4.22036695,   101.944984
   2021,   12.2482042,  -5.11239243,   105.415627
   2022,   10.9107895,  -2.26422596,   94.7938232
   2023,   12.1942606,  -7.44517136,    98.439949
   2024,   9.88441467,   2.00980854,   96.0001755
   2025,   9.76005745,   4.02267265,   95.7581558
   2026,   2.12848997,  -2.92364192,   93.9666214
   2027,   13.3249817,  -1.81237042,    96.054924
   2028,  -18.8505001,  0.974149525,   100.038879
   2029,   -18.166111,   2.06845498,   101.326889
   2030,  -7.15199757,  -9.10000801,   106.731636
   2031,  -10.9968414, -0.545776904,   106.593361
   2032,  -6.93956757,  -5.37526989,   92.7074585
   2033,  -7.57812786,  -14.5860662,   102.110077
   2034,   -5.8929143,  -14.1253605,    102.35051
   2035,  -6.06861544,  -15.5855074,   103.827721
   2036,  -6.54147053,  -16.6016388,    102.20504
   2037,  -2.41218472,   5.19074106,   105.384499
   2038,  -1.52292895,   3.61297393,   105.360886
   2039,  -4.72153187,  -9.82708073,   107.287109
   2040,  -3.24680519,   2.07568622,    91.385582
   2041,  -10.0908394,  -11.9601231,   104.191475
   2042,  -9.70464134,   11.5015259,   95.7600784
   2043,  -13.4803209,  -12.9442682,   99.2333069
   2044,  -14.3327589,   -11.203763,     98.33992
   2045,  -11.4643583,   -13.395977,   100.930031
   2046,   -10.683836,  -10.0469017,   94.6237793
   2047,  -11.2012672,  -11.4181623,   95.7864304
   2048,  -12.3041096,  -9.83069134,   95.5574417
   2049,   -14.261672,  -4.54093552,   102.913452
   2050,  -15.9016094,  -3.47583938,   104.195183
   2051,  -15.4768906,  -5.66716385,   103.837212
   2052,  -14.5777807,  -4.67045879,   104.731186
   2053,  -3.38241458,   10.0758858,   93.2083511
   2054,  -14.3223829,  -1.74848926,    94.740921
   2055,  -13.1773443, -0.045802772,   94.3148651
   2056,   -7.8598671,  -13.3889666,   95.4692612
   2057,  -16.0576782,   -0.4774414,    104.00531
   2058,  -11.9535332,   -11.818119,   103.058037
   2059,   18.1621876, -0.0977448449,   98.4861908
   2060,  -13.4830875,   0.26476267,   105.789253
   2061,  -5.32352781,  -6.29273891,   92.4755249
   2062,  -5.69010735,  -4.15471983,   92.2957764
   2063,   -14.410943,  -6.39402103,   95.7842789
   2064,  0.407636315,   10.4859591,   95.2932358
   2065,  -9.76701546,   6.90745974,   106.170273
   2066,   5.29108286,   9.97673416,   94.0160217
   2067,  -5.32511377,   1.87330484,   91.7479172
   2068,  -13.9710693,   5.97924185,   104.365181
   2069,  -13.1465158,  -3.36182022,   105.514267
   2070,  -18.2182178,       0.2852,   98.4250793
   2071,  -11.7765932,   -2.4271543,   106.063133
   2072,   5.96453094,   9.75141716,   104.211182
   2073,  -6.86311626,   1.69522715,   92.0013123
   2074,  -7.92755127,   2.30880737,   92.8859863
   2075,  -8.28600502,  0.841370344,   92.4784393
   2076,  0.240073726,   15.3595343,    104.33696
   2077,  -12.9246902,   10.1566267,   96.4494324
   2078,  -11.6148653,   11.7680159,   96.2979736
   2079,  -16.5517311,   5.46689034,   96.9121323
   2080,  -17.3687572,    1.6880312,   98.4288635
   2081,  -16.1923389,   3.57174969,   98.7707291
   2082,  -16.5050621,   3.61665821,   96.8285065
   2083,  -18.2439404,   2.84081078,   98.8276138
   2084,   -15.091136,   9.16714287,   99.1412506
   2085,  -9.87261963,   7.69066477,   94.3530731
   2086,    4.8509388,  0.250249296,   93.5785675
   2087,   5.92573929,   6.40671253,   104.794884
   2088,   12.2664423,   12.9557514,   97.5221176
   2089,    10.894371,   14.5941267,   97.8182983
   2090,   3.47748876,  -1.22760153,   93.7523117
   2091,   4.45870733,    2.3141284,   108.605911
   2092,   5.92582035,   3.51719284,   107.559097
   2093,   5.13804388,   1.70013249,   107.678917
   2094,   3.83324909,   3.78359246,   107.876091
   2095,    7.0456152,   3.08240485,   95.1979523
   2096,   -4.5687108,   12.2553492,   94.6240845
   2097,  -2.14882326,   12.1647224,   94.2487717
   2098,  -4.27802277,   11.0247831,    93.592514
   2099,  -2.29019451,   18.0688839,   98.6748505
   2100,  -2.48944926,   4.89648056,   92.6348953
   2101,  -6.08020735,    11.214694,   93.8536987
   2102,  -4.80528259,   2.17394543,    107.93895
   2103,  -1.80039334,   6.87373543,   92.4600372
   2104,  -1.96470511,   1.69278455,   108.398697
   2105,    4.7483263,   5.93885899,   94.8152313
   2106,   9.20649147,   14.8614988,   102.962807
   2107,  -3.62086153,  -3.79094291,   93.9568863
   2108,  -2.15360713,  -5.28634739,   94.2964783
   2109,   14.5748091,   1.97288156,   96.8582306
   2110,   15.7167797,   1.20282137,   95.8106079
   2111,   15.3889866,   3.02045941,   95.5833054
   2112,    16.521492,   3.52421141,   96.7938919
   2113,   9.15223408,  -2.67745161,   107.713219
   2114,    16.073391,  0.492223352,   103.986473
   2115,  -14.5427542,  -2.85177183,   100.931923
   2116,   15.6032724,   8.76338768,   97.9695511
   2117,  -9.14426517,  -9.17175388,   104.476746
   2118,  -10.0204191,  -7.96488094,   103.593796
   2119,   2.14091039,   5.36969566,    94.400116
   2120,   2.03296709,   5.24015427,   92.3048248
   2121,   1.56060338,   6.91442251,    92.571846
   2122,    3.0930264,   6.83003807,   92.6074753
   2123,   2.60068631,   2.05305982,   92.0387421
   2124,  -8.63415051,  -10.3001184,   103.198952
   2125,   15.3117981,  -5.58278704,    96.295639
   2126,   15.5026665,  -5.88616705,   98.0729828
   2127,   13.6262808,  -6.39347649,   97.7223816
   2128,    8.8164854,   13.4781771,   103.963387
   2129,   4.00114584,   16.6676178,   96.9455948
   2130,   12.5613012,   12.9623137,   101.752098
   2131,   12.0616989,   11.2202482,     101.0364
   2132,    12.039772,    11.707819,    103.04879
   2133,   11.1674442,   13.4496222,   102.541084
   2134,   8.07197571,   4.57378578,   94.4062042
   2135,   9.60788441,   3.59362626,   93.6551895
   2136,   10.6265926,   6.17558813,   94.1227798
   2137, 0.00627612276,   5.85177851,   92.4127045
   2138,   2.02528477,   8.30477238,   93.0231934
   2139,   8.34446621,   10.5305386,   105.235817
   2140,   16.6885014,   5.13618422,   97.1795959
   2141,    15.506341,   4.83660746,   96.3930664
   2142,   1.56627905,   7.32809401,   107.835403
   2143,   14.3129244,   9.42514038,   101.671829
   2144,   14.4320116,   9.55328751,   103.173286
   2145,   15.4742889,   7.41232634,   102.575813
   2146,   2.54461932,  -5.56515741,   107.572311
   2147,   13.1295166, 0.00807762612,   94.2528534
   2148,  -4.84633493,   -13.421751,   105.771629
   2149,  -4.44314528,  -11.5844936,   106.243004
   2150,   -1.2024945,   4.90069151,   106.564964
   2151,  0.381239623,   4.38866425,   107.880104
   2152,   -1.9290247,   3.77752662,   107.974319
   2153,   17.5883808,   4.51284885,   98.1229553
   2154,   1.92020977,  -8.80090046,   106.729805
   2155,  -2.58027959,  -17.4385738,   99.5217133
   2156,   13.5997477,  -9.68644619,   103.599571
   2157,   17.0789242,   6.51238585,   98.5670395
   2158,    15.894619,  -8.81420708,   99.5044022
   2159,   18.0146713,  -3.02391291,   99.7990646
   2160,   17.4244366,  -1.78314602,   98.2537231
   2161,   17.3406162,  -4.37024117,   97.9097824
   2162,   12.0082979,  -9.15179253,   104.322083
   2163,   3.71000695,  -15.5995121,   104.314423
   2164,    16.819294,   -5.3375597,   103.085678
   2165,   8.65199852,    4.6631465,   92.7701569
   2166,    3.4689045,  -8.46168327,   92.4364624
   2167,   15.7934456,   6.94027185,   96.9766769
   2168,   1.67282355,   3.40447593,   108.234169
   2169,   2.47475338,   5.15664673,   107.380432
   2170,  -1.84346724,   7.27270603,   107.731117
   2171,  -8.91010475,  -15.5986557,    102.14846
   2172,  -9.16387177,  -14.8052597,   102.934364
   2173,    -8.714674,  -15.0286436,   101.076744
   2174,   14.6632166,  -11.4807615,   100.332298
   2175,   12.9540844,  -12.1939898,   97.6174164
   2176,   11.7378597,  -11.3425322,   96.0804443
   2177,  -0.15181528,  -3.97331262,    105.54789
   2178,    3.2484622,  -8.12649918,   107.629951
   2179,  -11.7750626,   13.8147469,    101.30722
   2180,  -13.5949306,   12.7075701,   101.015251
   2181,   15.8547831,   1.06602871,   97.8241882
   2182,   14.6450806,  0.272171408,   96.8867188
   2183,  -1.71843386,  -3.20594072,   91.8285141
   2184,  -6.04529715,   7.22710848,   107.144157
   2185,  -6.60383177,   5.52813148,   107.172424
   2186,  -4.69724083,   5.63580608,   107.455559
   2187,  0.374596089,   6.10811901,   107.652794
   2188,  -5.55459404,  -12.6287117,   105.492218
   2189,  -3.49473357,   -13.123147,   104.679207
   2190,  -5.92738104,  -14.1753435,   104.509384
   2191,    3.3628819,  0.905469418,   93.8682709
   2192,  -6.33837986,   2.90969872,   108.298576
   2193, -0.192122325,  -1.86799657,    108.33741
   2194, -0.324688643,    16.911335,   97.1161346
   2195,  -2.49426341,   16.1651783,   96.7380981
   2196,  -14.5462713,     3.641114,   103.066216
   2197,  -15.4352608,   2.94002271,   104.304565
   2198,  -14.1287985,   3.33996153,   105.243378
   2199,  -15.4904509,   5.19107056,   103.983063
   2200,  -14.9803572,   9.46386051,    97.541153
   2201,  -16.1650467,    8.2830677,   97.9723816
   2202,  -2.04539514,     8.415411,   93.1844482
   2203,  -15.0096245,   3.77814984,   97.3789597
   2204,  -14.9060831,   4.01197529,   95.5417252
   2205,  -15.7345438,   2.29924512,   95.8844833
   2206,  -1.17270255,   2.00577998,   91.1790009
   2207,  -3.21056747,   10.6062365,   106.659592
   2208,   14.7634325,   3.72298479,    98.016243
   2209,  -15.4485912,   10.2516222,   101.406471
   2210,  -14.7060623,   11.6267385,   100.481796
   2211,  -4.37737894,   14.5127821,   102.694115
   2212,  -4.34342384,   14.2568426,   104.944519
   2213,  -3.68619967,   15.5703077,   104.281319
   2214,  -5.18374777,   15.7573195,   103.981705
   2215,  -2.19843936,   3.11217141,   91.9368896
   2216,  -9.91871643,  -4.13305378,   106.182701
   2217,   -2.1614337,   17.7290211,    102.37043
   2218,  -11.2057037,    8.5554018,   94.6073532
   2219,  0.166103154,   10.0354366,   106.649384
   2220,   1.22328401,   9.33133507,   92.4493484
   2221,  -7.85317278,  -2.65981174,   105.105026
   2222,   -5.8707695,   15.9301167,   101.085892
   2223,  -4.03849363,   16.7786217,   102.664925
   2224,  -5.87696934,   16.5782223,   102.772003
   2225, -0.892139316,   18.5671272,   101.112946
   2226,   4.88703442,   13.4280796,   105.827957
   2227,   4.75006437,   17.6810608,   98.3425446
   2228,  -1.56343865,    14.804388,   105.083694
   2229, -0.234770566,   15.4121704,   95.6852264
   2230, -0.259119987,   8.24880695,    107.38916
   2231,   7.73397684,   14.4913015,   104.010315
   2232, -0.162535608,   13.5315228,   95.1005936
   2233,  -3.05451322,   15.5457611,   98.7347717
   2234,   -4.3610363,    17.517168,   98.2176666
   2235,   1.13880837,   9.30391502,   107.488686
   2236,  -8.04299927,  -5.09090328,   104.591209
   2237,  -9.45857048,   -6.1068573,   105.014664
   2238,  -1.71373117,   10.6063433,   106.994354
   2239,  -6.06134367,   17.4159946,   98.3075333
   2240,  -6.88985777,   17.4463196,   99.8914795
   2241,  0.103696644,   13.4520903,   104.911499
   2242,  -7.33974695,  -5.02674866,   106.949593
   2243,  -6.49505234,  -4.26118326,   104.517563
   2244,  -2.29648566,   17.4871979,   100.548386
   2245,  -1.43739676,   13.2762423,   106.030769
   2246,  -8.86822224,   5.23311043,   107.036217
   2247,  -7.64722347,   6.95646238,   106.409943
   2248,  -5.71840668,  -6.49790001,   104.752068
   2249,   10.0908394,   11.9601259,   104.191475
   2250,   2.34811115,   11.8533382,   105.785164
   2251,    4.7947855,   11.5965261,   106.066475
   2252, -0.940131247,   5.03791475,   91.5834274
   2253, -0.177543074,   8.07751465,   92.6715088
   2254,   13.0512133,   12.4101925,   99.1223755
   2255,   2.00722408,  0.674197972,   91.3460541
   2256, -0.189183161,   0.24960573,   91.7771912
   2257, -0.448523611,  -4.41606951,   107.962257
   2258,  -8.47566891,   3.71808457,   92.4687195
   2259,  -5.13826466,   2.38892984,   106.292847
   2260,   -7.0642333,   1.58869267,   107.898026
   2261,   9.05320454,   5.20081043,   107.161377
   2262,    7.9392066,   2.73650098,   107.162544
   2263,   -1.2395786,   6.00022173,   108.153191
   2264,  -10.4564228,   3.57283425,   93.5513916
   2265,  0.766690314,   9.10767555,   94.2401733
   2266,   11.6652222,   1.54668796,   93.5244217
   2267,   11.4051561,   3.39270926,   93.4390106
   2268,  -9.08290768,   15.7368364,   97.8225937
   2269,  -10.1160936,  -2.27297997,   106.739128
   2270,   9.92086506, -0.302964181,   93.6104584
   2271,   10.1118546,   1.58249509,   93.1906357
   2272,  -14.5724649,  0.333838046,    94.954155
   2273,  -13.8684549,   6.76276684,   95.6950989
   2274,   4.25825691,   8.16922092,    95.335762
   2275,   12.0943394, 0.0401778258,   93.3493042
   2276,   12.8681135,   3.07117009,   96.5082474
   2277,   11.2359619,   3.64024234,   94.8432236
   2278,   12.3962574,   1.43218231,   96.0384674
   2279,  -12.6544752,   3.02973294,   106.164108
   2280,   -9.2960577,   2.57372713,   107.650345
   2281,  -1.20776725,  -1.45326316,   91.4177551
   2282,  -2.43808484,  -5.07917213,    107.44429
   2283,   10.9730186,  0.827155948,   94.7291183
   2284,   15.5708447,  -1.22663617,   102.330025
   2285,   1.64594042,   11.9752226,    93.933403
   2286,  -10.4721498,   13.3663015,   96.9036255
   2287,  -12.9708023,   12.4090071,    97.963974
   2288,   2.15228701,   15.8621264,   96.2396927
   2289,   4.14503813,   15.3949871,   95.6281815
   2290,  -1.57390821,   10.4643164,   93.2590027
   2291,   4.27404737,   14.8103476,    97.701416
   2292,   5.64357471,   15.2680454,   95.7810593
   2293,   5.99516916,     16.47859,   97.0792542
   2294,   6.82864428,   15.0938797,   96.1810303
   2295,   3.56321597,   10.1533117,   106.463997
   2296,   4.56577396,  -5.32532692,   105.324196
   2297,  -4.60799932,    15.952774,   96.2700729
   2298,   6.04389334,   15.5449905,   103.868652
   2299,   11.1732006,   10.3887796,   104.675194
   2300,   3.86554933,   11.3979101,   93.4679947
   2301,  -2.80885243,   13.2078552,   105.198685
   2302,  -1.91373098,   11.7761145,   106.081993
   2303,   3.46402955,   12.9733152,   104.814308
   2304,   2.09330106,   14.6257935,   104.509087
   2305,   12.7850876,  0.198474467,   96.0292969
   2306,   3.40716171,   8.46038532,   105.721085
   2307,   2.05701256,   8.33381939,   106.763153
   2308,  -2.27427745,   16.4603519,   103.753265
   2309,   6.86738062,    17.118206,   101.243423
   2310,    6.2652173,   15.7708654,     100.6446
   2311,   5.05230665,   17.3687763,   101.729065
   2312,  -8.13628483,  -1.09975052,    95.360199
   2313,  -6.46289873,  -1.81654346,   94.7471237
   2314,   9.25913334,   16.1347637,   99.2541962
   2315,   -1.3459686,   14.8429213,   97.1252441
   2316,   -1.8627162,   14.9445906,    95.326088
   2317,  -3.76048708,   10.3320742,   95.9523697
   2318,  -3.45522475,    8.4937706,   94.3193588
   2319,   1.93447983,   10.4409094,   106.923111
   2320,  -4.85540819,   8.63339043,   95.4775314
   2321,   11.5067453,   4.59360981,    106.32975
   2322,   13.4856472,   3.36637831,   105.430954
   2323,   4.01285219,   15.4283257,    102.47506
   2324,   3.66688228,   14.8658972,   99.8256302
   2325,   7.77340746,   13.1760979,   95.3269119
   2326,   6.88594818,    11.405015,    94.845047
   2327,   3.09940124,   17.4260693,    98.997818
   2328,  -15.8351412,  0.751964152,   95.8862762
   2329,   -14.659008,   2.04467821,   94.9157562
   2330,    1.3184824,   17.9962769,   98.8973007
   2331,   9.04467583,    14.429903,   96.6455612
   2332,   11.7542934,  -13.8270359,    101.27681
   2333,  -14.2973118,   5.81473017,    102.32798
   2334,   -13.837059,   7.86282873,   101.986717
   2335,   -12.350502,   5.18731546,   103.309052
   2336,   10.0876675,   2.30372477,    106.77787
   2337,   -13.913579,   7.34387445,   99.8426285
   2338,  -6.16647148,   12.2501507,   105.443047
   2339,  -9.68931007,   3.59273934,   106.667358
   2340,  -7.41151047,    6.1289773,   94.6866608
   2341,  -5.88514853,   6.34797001,    95.540596
   2342,  -15.1606474,   5.69125986,   98.3164902
   2343,   7.97843933,   9.31365967,   94.4902496
   2344,   5.22503805,  -1.55516851,   93.5990448
   2345,   5.23316622,  0.284257442,   91.6879807
   2346,  -3.91721272,   3.60869718,    92.033432
   2347,  -13.2711792,   1.44660449,   94.2995605
   2348,   -13.419404,   2.50214839,   104.615501
   2349,   -6.8025136,   -1.3351115,   92.2221909
   2350,  -5.97907495,  -2.74337006,   91.7622604
   2351,  -11.1555004,  -4.76328325,   93.3803787
   2352,   9.07936287,  -14.1494923,   103.306114
   2353,  -1.18459857, 0.0609749258,   108.932709
   2354,   4.71610212,   8.13545609,   106.675537
   2355,   3.58330369,   6.66459894,   107.247589
   2356,  -16.8535233,  -7.72001362,   100.287117
   2357,   10.5511475,  -15.6991825,   98.6637497
   2358, -0.0529429093,  -5.91701794,   92.3286591
   2359,  -1.61698711,  -18.4983196,   100.410721
   2360,  0.242197022,  -16.8443184,   97.0702438
   2361,  -7.97844172,  -9.31366253,   94.4902496
   2362,  -2.04108524,   11.8275948,   104.394127
   2363,   2.21604133,  -6.73755598,   92.0745163
   2364,  0.945127845,  -4.95411587,   91.5802612
   2365,   6.25699806,  -12.2806339,   105.404999
   2366,   5.64408159,  -10.7905321,   106.008377
   2367,    4.4732666,  -12.4417582,   105.743057
   2368,  -2.06004286,  -12.0529099,   105.751251
   2369,   11.5868883,  -4.56842947,   93.6199417
   2370,  0.150697887,  -8.01628113,   92.7583542
   2371, -0.213226005,  -1.95045269,   92.1854019
   2372,  -7.81411982,  -15.9306993,   97.3407898
   2373,  -9.09719276,   -14.352829,   96.6068344
   2374,  -7.71699333,  -7.47283506,   107.102448
   2375,  -1.93448246,  -10.4409065,   106.923111
   2376,   -7.5482955,  -12.1110849,   102.937897
   2377, -0.147872746,  -9.96157265,   106.727974
   2378,   3.44780326,  -10.1924076,   93.1834564
   2379, -0.172095492,  -7.81757593,   107.308128
   2380,  -4.66198349,  -16.1813087,   103.570168
   2381,  -4.27119923,  -15.1100836,   104.469666
   2382,  -6.62380028,   -11.166461,   105.869629
   2383,   3.33730602,   7.97657442,   107.666214
   2384,  -4.88181496,  -12.3469248,   94.4916153
   2385,  -5.39615822,  -17.5870571,   101.083504
   2386,    -3.516083,  -17.1452084,   102.598938
   2387,   7.60292101,   -15.730566,   96.9075012
   2388, -0.145536616,    -4.237257,   92.1105728
   2389,  -8.87835693,  -13.4692125,    104.00132
   2390,  -7.74521685,  -14.5655584,   104.029732
   2391,   -12.583684,  -1.87893224,   95.8943329
   2392,  -10.3075981,  -12.4113941,   96.0315018
   2393,  -10.9657574, -0.804319203,   94.7847137
   2394,  -10.7802401,  -13.4418411,   102.725845
   2395,  -10.7581205,  -14.7974176,   102.053635
   2396,  -10.9459257,  -14.1173029,   97.3875275
   2397,   -4.0011487,  -16.6676178,   96.9455948
   2398,  -9.39090157,  -15.9893465,   100.444565
   2399,  -7.79333544,  -15.8215227,   102.858032
   2400,  -7.07329655,  -16.3328552,   100.641403
   2401,  -14.3629913,  -9.59494972,    103.23053
   2402,   1.81594551,  -3.70757461,   105.664871
   2403,  -12.0280075,  -13.2642822,   99.1299133
   2404,  -10.6276398,  -14.5672636,   99.1406784
   2405,   15.4285288,   2.42160034,   102.634323
   2406,  -12.7024441,  -10.0813456,   102.161644
   2407,  -12.4342937,  -10.0371418,    97.362793
   2408,  -13.3334312,  -10.2036982,   96.3230133
   2409,  -14.1748266,   -8.8331728,   96.5226746
   2410,  -4.11647272,  -15.4472809,   95.6100006
   2411,  -18.4869537,   3.56720924,   100.549965
   2412,   -15.774519,  -3.99453545,   102.270287
   2413,  -16.5725288,  -5.12655592,   103.051117
   2414,  -15.9317989,  -9.86338902,   99.5161591
   2415,   15.1069288,   2.21662927,   100.664803
   2416,  -10.1257753,   1.88528442,   94.9347916
   2417,  -15.6034288,  -10.0112877,   100.924896
   2418,  -6.54786348,  0.298527569,   92.3066025
   2419,  -14.6921368,   2.18189645,   96.9997711
   2420,  -9.33419037,  -8.24190998,    94.094986
   2421,  -6.92326021,  -7.60484886,    93.357254
   2422,  -8.55660725,  -6.48224163,   93.8344116
   2423,  -1.76112008,  -9.54482746,    105.71875
   2424,  -3.47831488,  -10.1450853,   106.519501
   2425,  -2.03701854,  -8.41971397,   106.767471
   2426,  -12.6649904,  -11.5033045,   96.8919067
   2427,  -6.77284622,   -11.341486,   94.8183441
   2428,  -10.6134129,  -6.24449873,   94.0555801
   2429,  -4.98950243,   15.9643021,   98.9022903
   2430,  -4.15224171,   17.2910194,   100.466583
   2431,  -10.6445522,   13.3627243,   98.8522263
   2432,  -10.1465034,   14.7805195,   97.5997162
   2433,  -10.6897345,   15.1740484,   98.4761887
   2434,  -12.8681364,  -10.2799215,   103.756981
   2435,  -12.0626593,  -4.14708805,    104.67527
   2436,   -10.918746,  -5.66333532,   105.780708
   2437,  -12.1831961,   4.98330212,   105.450546
   2438,  -1.84715641,  -7.22836542,   107.830803
   2439, -0.703191757,  -5.97827435,   107.836212
   2440,  -2.33751225,   8.47017097,    104.54586
   2441,  -4.87033463,   12.2453308,   96.5818481
   2442,  -1.83073759,   1.29691505,   93.7202301
   2443,   1.47208393,  -7.34867811,   107.645363
   2444,  -2.75948215,  -12.8786945,   94.2630386
   2445,  -3.03145599,    2.6271286,   106.159157
   2446,   2.64668417,  -16.1700993,    96.827179
   2447,  -7.59005928,  -12.2911158,   104.845901
   2448,  -11.2137966,   14.9081297,   100.042633
   2449,  -9.61688519,   15.5353823,   100.086967
   2450,   10.4721498,  -13.3663015,   96.9036255
   2451,   9.74192619,  -11.5043612,   95.6724396
   2452,  -12.0388851,   11.4654398,   99.4802017
   2453,   -11.149642,   12.6234951,   100.564819
   2454,  -12.1975698,   13.5390787,    99.115593
   2455,  -1.39427221,  -17.5332794,   102.351738
   2456,  -1.22350693,  -16.5271568,   103.650764
   2457, 0.0957457125,  -16.9314079,   103.131836
   2458,  -16.4248543,  -2.79346991,    98.891716
   2459,   -15.036171,  -2.86626744,   97.3849106
   2460,   2.63198853,  -18.0855198,   100.436096
   2461,   -14.065156,  -2.85223794,   96.1634216
   2462,  -15.4938993,  -4.89287758,   96.4188919
   2463,  -1.42527533,  -9.17117119,   92.3015366
   2464,   6.17190409,  -16.5204964,   98.9810562
   2465,  -14.2599669,  -1.40358627,   96.8598785
   2466,   2.87550807,   -13.193469,   105.357613
   2467,   1.87445009,  -11.8106899,    106.11145
   2468,   2.15334105,  -18.0895386,   98.7305527
   2469,  0.234768033,  -15.4121733,   95.6852264
   2470,  -9.06027889,  -16.0821705,   99.0080566
   2471,   4.34627962,  -17.5079651,   98.1812592
   2472,  -2.50021768,  -17.7835312,    97.640213
   2473,  -2.79685259,  -16.3015442,   103.374062
   2474, -0.00325841503,   -18.255724,   98.3569031
   2475,  -3.51438546,  -11.6676311,   93.5896912
   2476,  -7.19756746,  -12.0995359,   100.912743
   2477,  -4.91135883,  -2.44534421,   94.2118683
   2478,   6.78886461,   12.6151485,    98.822113
   2479,  -5.66295767,  -17.8236866,   99.3939209
   2480,  -5.30041504,  -15.6694212,   101.257278
   2481,  -3.82290626,  -15.3574667,   102.438637
   2482,  -4.20762205,  -15.4274797,    99.896759
   2483,  -2.91244769,  -14.2965841,   100.374229
   2484,  -5.26152945,  -9.94591331,   94.0248871
   2485,  0.308865309,  -18.6548519,   100.440414
   2486,   13.2247763,   8.60037041,    102.36351
   2487,   13.9186716,   5.96908188,   102.511627
   2488,   13.7557354,   8.10595798,   104.103836
   2489,    8.3870945,   9.81412315,   96.5133514
   2490,  -2.93828464,  -10.6585007,   93.0317841
   2491, -0.598798335,  -11.8543949,   106.275261
   2492,   8.88903236,   6.53944111,   95.9314575
   2493,   10.4904442,  -11.0483198,   104.260109
   2494,   11.0143242,  -13.1163797,   102.718513
   2495,   1.18077755,     -13.6615,   99.2107391
   2496,  -11.3856564,  -8.48271847,   105.210907
   2497,  -12.2732477,  -7.06322479,   105.143646
   2498,  -12.3876553,  -9.26279163,   104.727173
   2499,   2.53285265,  -15.0337763,   100.910667
   2500,  0.140917584,  -16.0638103,   99.0237198
   2501,   3.89065385,  -3.45690703,   92.1983109
   2502,     6.016747,  -3.02934289,   92.3871078
   2503,   4.96266747,  -4.64404678,   92.5640488
   2504,  -1.72512043,   6.69515562,    105.66098
   2505,  -12.1684666,  -4.79020691,   94.1383743
   2506,  -3.86491084,    3.8832655,   106.006439
   2507,   12.6206264,  -12.5393639,   102.279541
   2508,   13.6885147,  -12.7025328,   101.130577
   2509,  -3.72182178,  -11.2143011,    95.784874
   2510,  -3.32688475,   -8.0108633,   107.679077
   2511,  -1.89064837,  -11.7344341,   95.6053238
   2512,  -3.09861588,  -6.76372719,    92.648056
   2513,  -3.37685037, -0.700698555,   91.8246918
   2514,  -4.52236843,  -2.58243322,   108.572113
   2515,  -15.7401609,   6.68553782,   103.174248
   2516,   -15.643858,   6.56357765,   101.454453
   2517,  -15.0010834,   9.05804348,   102.539078
   2518,  -2.21316051,  -3.25665402,    108.21489
   2519,  -3.80587935,   -3.7807951,   107.867844
   2520,  -14.4852476,   1.66945374,   105.045944
   2521,  -6.70231628,  -7.80894613,   105.724548
   2522,  -8.75007057,  -8.38058472,   106.143341
   2523,  -3.55588341,  -6.62739563,   107.186348
   2524,  -8.01344585,  0.531065881,   95.0609131
   2525,  -13.8136473,  -4.19129181,   95.2238541
   2526,  -15.6001301,  -2.97409916,   95.5956726
   2527,   15.8693266, -0.459170461,   97.5779037
   2528,   16.4250107, -0.618412197,   99.3839264
   2529,  -5.94486904,  -9.69102001,   106.162926
   2530,   16.2626629,   -3.9368391,   98.7058945
   2531,   15.9301319,  -2.49505401,   97.7398911
   2532,  -17.5593185,  -3.66382146,   100.244453
   2533,  -4.18139791,    3.8945508,   108.044434
   2534,  -3.48132491,  -3.52333474,   92.2042542
   2535,   1.55469978,  -14.7357988,   105.095955
   2536,   4.06142426,  -12.4861746,    103.61483
   2537,   4.94428253,  -13.8117695,   102.548195
   2538,    3.3034246,  -10.7035761,   104.673912
   2539,   6.57624674,   5.40348053,   94.9287643
   2540,  -7.35700941,  -16.1603947,   98.8616562
   2541,  -10.4855614,  -14.6513968,   100.768257
   2542,  -6.78240347,  -9.42996407,   96.5110703
   2543,  -8.85340977,  -11.1207371,   94.7164459
   2544,  -12.2346687,  0.164015323,    106.56324
   2545,  -9.33025551,  -9.64669704,   106.186775
   2546,  -14.5958767, -0.174591243,   104.834259
   2547,  -13.4476585,   -1.5044831,   105.654961
   2548,  -8.03070354,   7.13435268,   104.380882
   2549,  -8.65005302,   5.41976261,   104.585701
   2550,  -9.47151756,   3.86115074,   104.504242
   2551,  -3.13563895,  -16.5381489,   101.180466
   2552,  -10.6185408,   5.37842178,   104.325096
   2553,  -15.9777317,   2.47851872,   97.6171265
   2554,   -17.003849,   1.38350368,   96.8366165
   2555,  -12.3317547,  -13.2438936,   97.6853104
   2556,   3.33900356,   10.2544956,   93.2834091
   2557,   1.55132985,   10.5493641,   92.9531326
   2558,  -15.8796644,  0.505996883,   97.5106506
   2559,  -17.1454468,  -1.11091936,   96.9301071
   2560,  -11.1071053,   9.14038086,    96.888031
   2561,  -2.15177774,   14.3904982,   103.546875
   2562,  -12.7719297,   10.3845634,   98.1980896
   2563,   -13.643837,   8.63423729,   98.2766647
   2564,  0.147317857,  -13.4534454,   94.9934082
   2565,  -13.8578262,    7.1351738,   97.8250046
   2566,  -11.8928137,   6.85917139,   96.3996506
   2567,  -4.17306185,  -7.96108055,   95.2136612
   2568,  -9.21914768,  -5.05015564,   93.0908051
   2569,  -6.03380394,   12.5781097,   103.502495
   2570,   5.92252111,  -16.6618118,    97.360405
   2571,   6.16139412,  -15.5957794,   96.1054306
   2572,   4.62373114,  -16.0460129,   96.3309784
   2573,   1.96291876,  -16.0247688,   103.969002
   2574,   4.81421423,  -14.0507441,   104.625092
   2575,  -0.32752645,  -15.2758541,   104.384689
   2576,  -2.13434291,  -14.6798639,   104.427452
   2577,   -4.4837184,   12.4505501,   105.622719
   2578,   3.21927857,   13.1340933,   102.519608
   2579,  -12.0713835,  0.031894967,    93.280014
   2580,   -12.770668,  -1.62323284,   94.1332932
   2581,   2.12862158,  -12.1525679,   94.3620377
   2582,   5.11356258,   -15.588356,   103.780785
   2583,   6.71758461,  -15.0725079,    103.63842
   2584, -0.187450066,  -13.4713793,   104.811989
   2585,  -10.0898743,   -11.478055,   101.803787
   2586,  -5.15415859, -0.362517655,     91.83564
   2587,   12.4362602,  -8.40503788,   96.9081421
   2588,   13.8684578,  -6.76276922,   95.6950989
   2589,   11.8927326,  -6.76012421,   96.3832474
   2590,    5.4544549,   13.9437962,   95.3988037
   2591,  -8.39211559, -0.451921374,   107.379013
   2592,  -9.57018471,  -3.57375145,   93.6567917
   2593,  -9.01359177,  -2.66759038,   92.2750854
   2594,    7.3030858,   12.5799494,   103.041382
   2595,   7.68544531,   12.3705845,   104.978127
   2596,    5.9483304,   13.9906054,   104.599663
   2597, -0.049426049,   8.06836224,   105.210258
   2598,   -10.131669,   -1.6445545,   93.1823883
   2599,   2.66128373,   13.0619364,   96.3821945
   2600,   3.46597028,   14.3817415,   94.9065704
   2601,   4.80416012,   12.4200945,   94.5381622
   2602,   2.49390364,    12.990839,   94.4716568
   2603,  -11.5067453,  -4.59360981,    106.32975
   2604,   11.4521933,  -6.40145493,   104.802483
   2605,   11.4204655,  -7.36560869,   105.649628
   2606,   12.5690241,  -7.38465786,   105.197083
   2607,   9.95975304,  -9.69025517,    105.54213
   2608,   10.6090441,  -8.22212601,   105.880402
   2609,   9.02076244,  -8.49268055,   104.100548
   2610,   9.75738144,   -6.9955864,   104.197601
   2611,  -12.6884785,  -5.47352648,   105.284988
   2612,  -11.8939219,   3.08965635,   93.5352554
   2613,   9.69386005,  -7.14146757,   102.408478
   2614,  -16.3588676,  -2.23901749,   103.839622
   2615,  -12.5552912,  -3.21767974,   93.8409119
   2616,  -11.4371758,  -3.42257476,   93.4012222
   2617,  -15.2084436,  -2.12345529,   104.906998
   2618,  -13.9492006,  -6.38637161,   104.276398
   2619,   1.29889643,  -4.83953905,     108.0979
   2620,  0.820471942,  -4.92338657,   106.570381
   2621,   1.79180384,    3.3860302,   93.7995453
   2622,   5.44324017,   4.19292116,   94.3504868
   2623,   3.54250002,   3.46400428,   94.0391159
   2624,   -12.055851,  -6.83567286,   94.1895294
   2625,   16.0090122,   0.57675463,   101.998322
   2626,  -15.7462797,  -1.21817589,   95.8008118
   2627,  -17.1485519,  0.797809958,   103.056587
   2628,  -17.7389164,  -4.64106989,   98.5762787
   2629,   -2.5515542,  -2.03124928,   92.1735382
   2630,  -17.5017643,   4.41946459,   101.901115
   2631,   -17.010643,   3.42723942,   102.896637
   2632,  -11.8645983,   7.20389938,    94.232193
   2633,  -16.8092804,   5.41937256,   103.054008
   2634,  -8.65892601,   6.12403107,   93.4740448
   2635,  -11.3351917,   7.27190542,   105.603844
   2636,  -10.6578369,   8.16147804,   105.912262
   2637,   4.77110004,  -17.3965092,   99.6799469
   2638,  -8.20163536,   11.8573265,   94.3143692
   2639,  -7.38208342,   13.4686956,   104.671967
   2640,  -11.7194214,   9.48079109,   94.8890839
   2641,  -12.6022892,    8.3323698,   95.2890549
   2642,   -10.124711,   9.61236954,   94.7855072
   2643,  -10.8772812,   10.7691174,   95.2198105
   2644,  -5.75444937,   17.4750824,   101.292458
   2645,   7.20769501,  -14.6806011,   95.8044052
   2646,  -6.60098362,   9.00163746,   106.213501
   2647,    -5.949615,   3.35950184,   92.2540665
   2648,    3.5221591, -0.961587131,    108.25753
   2649,   3.21636462,  -2.46584725,   108.406799
   2650,   1.15892649,   -1.9664458,   91.3354645
   2651,   11.0999098,  -5.40585709,   95.8863068
   2652,   11.9428711,  -3.59924102,   95.2969131
   2653,   4.89635372,   12.3034201,   103.272949
   2654,   6.36976528,   11.4887047,    103.71553
   2655,   13.1547432,  -1.58335149,   94.4246292
   2656,   3.28289104,  -2.05879879,   91.3644562
   2657,  -7.37390184,  -3.40149641,   93.0992584
   2658,  -5.72401905,  -7.00353193,   107.155258
   2659,  -4.82677937,  -8.21142578,   106.677963
   2660,   4.00834703,   3.40522599,   105.843925
   2661,   1.99113977,   3.03156233,   106.059563
   2662,  -17.1653748,   6.30432844,   101.859337
   2663,   4.20273209,   16.2220421,   98.9370804
   2664,  -16.7430153,  -3.37172222,   96.7899704
   2665,   9.20750523,   14.6107273,   98.6882858
   2666,   7.56787872,   14.2277803,   100.046745
   2667,   8.28982353,   13.2573404,   97.7113724
   2668,    8.6370039,   12.0396662,   98.8154526
   2669,   10.4288788,   13.0401363,   100.393723
   2670,   8.38554382,   12.8053017,   100.371353
   2671,  -17.9727726,  -2.29855824,    98.481041
   2672,   10.2764177,   12.6680183,   98.2678909
   2673,   9.18938351,   14.5746317,   101.039452
   2674,   8.11419773,   13.4545116,   101.864067
   2675,   1.46887624,  -10.4375467,   104.737144
   2676,   2.64963865,  -13.9069881,   103.147049
   2677,   1.98486114,  -11.9092255,   104.337608
   2678,  -13.0060902,   5.18055058,   96.6540375
   2679,   -15.421607,   5.61376238,   96.3031082
   2680,  -17.5028706,   4.70271873,   100.393044
   2681,   9.11020374,  -16.2434273,   99.2738571
   2682,   9.05055904,  -15.6282349,   97.9198914
   2683,   7.92036057,  -16.1963634,   98.2054977
   2684,   18.8989544,  -1.20113885,    99.592186
   2685,   8.95825386,  -16.1982975,   100.923317
   2686,   7.56426573,  -17.1908073,   99.8414917
   2687,  -12.4666853,   8.47484875,   97.0124512
   2688,  -14.0204983,   8.61999702,   96.2045135
   2689,  -11.1697426,  -3.14552069,   94.7080002
   2690,  -11.6652193,  -1.54668546,   93.5244217
   2691,   -9.8485918,   0.21925129,   93.5999908
   2692,   14.5726452,  -8.95849991,   100.255493
   2693,   15.5931625,  -9.93344784,   101.451706
   2694,   13.8282871,  -7.83846426,   101.980141
   2695,    14.999629,  -9.04207134,   102.563423
   2696,  -13.3306799,  -5.68871593,    94.687561
   2697,    4.0062542,  -17.2405567,   102.445953
   2698,  -11.9678764,   1.59093761,   93.5540619
   2699,  -17.6180534,   4.18855286,   97.9223099
   2700,  -10.8034468,   13.0147476,   102.636826
   2701,  -8.35988617,   1.26344407,   106.776558
   2702,  -7.88094282,  -2.63103318,   107.043327
   2703,   12.8275738,  -4.99346495,     94.76931
   2704,   14.5601892,   -6.6995368,   99.4514389
   2705,   15.7747717,  -5.23609781,   100.110008
   2706,   14.3385611,  -5.88636971,   102.250137
   2707,  -10.3095636,   14.4699564,   101.375816
   2708,  -9.66040421,   7.91341782,   96.1896515
   2709,    17.320076,    1.1425786,   99.0853958
   2710,  -12.0685072,  -7.33024502,   103.403938
   2711,  -13.7782707,   -8.1298418,   104.121658
   2712,   2.29733968,   18.2675247,   100.646317
   2713,   3.49485517,   17.1651974,   102.627014
   2714,  -3.65931392,  -1.25319242,   93.9430618
   2715,  -2.60698271,  -2.15271759,    93.782753
   2716,  -6.94115877,  -2.19648838,   107.958572
   2717,  -9.48699665,  -5.80057383,   106.808296
   2718,  -16.7525272,    6.1507268,   100.068832
   2719,  -16.6148396,   3.07614636,   100.965607
   2720,  -1.67315042,  -16.1538658,   100.938087
   2721,    5.3238039,   17.8335075,   99.7956924
   2722,   6.23581553,   16.4948254,   98.8248901
   2723,  -12.1841888,  -1.15324068,   106.461624
   2724,   7.66828156,   15.4786463,   101.394836
   2725,   8.96899223,   15.8178711,   102.039268
   2726,   16.5538425,     7.760252,   100.658417
   2727,   14.8272371,   7.95140886,   101.018288
   2728,    15.860322,   9.75829887,   100.528946
   2729,  -11.4435606,   3.25152302,   106.352661
   2730,   15.4438429,   7.83062983,   99.0195694
   2731,   14.2205639,   10.9019012,   101.643265
   2732,   14.2249422,   10.2408838,   99.9037323
   2733,  -3.87143779,    7.1610384,   107.447792
   2734,  -5.79481983,   4.22470999,   107.964821
   2735,   4.22680759,  -14.7594061,   101.235298
   2736,   6.41542387,  -14.8104792,   101.752945
   2737,  -6.96077251,   12.3831272,   95.2010956
   2738,  -8.61755466,  -1.08388662,   92.8947601
   2739,   5.45750046,  -16.8200417,   101.276527
   2740,   7.42637348,  -15.9176636,   100.651863
   2741,   -2.4672308,  -4.71368504,   105.416542
   2742,   -12.959013,  -7.98307085,   95.2883072
   2743,   -1.7975049,  -15.2583818,    98.274498
   2744,  -4.62920427,  -17.1196213,   100.086479
   2745,  -2.44922829,   11.9672308,   96.6002121
   2746,  -10.3206234,  -7.53326273,   105.829514
   2747,  -10.9119225,   4.22075701,   105.419731
   2748,   5.81914377,   14.3696651,   99.0440979
   2749,   4.04590225,   17.5434532,   100.504166
   2750,  -4.54939842,  -8.42333412,   92.9459152
   2751,   -11.944766,  -8.33296299,   98.3221207
   2752,  -10.8656836,  -10.2219744,    97.065712
   2753,  -13.0149527,  -8.41101742,   102.304176
   2754,  0.394810438,   1.95480061,   108.283043
   2755,  0.123252206,  -16.8934937,   101.228622
   2756,  -5.58251858, -0.600683451,    108.46595
   2757,    1.0878545,  0.545923829,   93.0165176
   2758,   2.23568821,   1.91460514,   93.8618774
   2759,  -3.39765525,  -2.07487559,   108.278557
   2760,  -8.09297562,   15.9998055,    99.653717
   2761,  -7.19962978,   16.8837833,   101.455658
   2762,   1.42562497,   16.6447639,   104.234268
   2763,  -7.12385511,   4.29176331,    93.228241
   2764,  -7.26285219,   7.72117662,   93.7452469
   2765,  -5.89750051,   6.23929214,   93.2177963
   2766,   -3.4585793,   13.5706186,   96.9259186
   2767,  0.868653893,   14.6050978,    96.991272
   2768,  -3.65638995,   14.9544468,   95.2354813
   2769,  -4.57397604,  -2.15061975,   92.2762833
   2770,  -12.7753305,   5.01474619,   94.8362427
   2771,  -10.6511526,   6.01434994,   93.8235245
   2772,  -14.1201363,   5.18307924,   94.8990936
   2773,  -13.2559748,   3.43354845,   96.1224594
   2774,   9.09453964,  -14.4997034,   96.8287354
   2775,  -4.63687372,   8.81849194,   104.419571
   2776,   -13.205431,  -7.66351318,   97.1028442
   2777,  -11.7077408,  -8.17164326,   96.5757294
   2778,  -13.1852999,   3.37002206,   94.2135544
   2779,  -15.8159504,   1.20596826,   104.130081
   2780,   7.21749544,   14.8788805,   98.3465576
   2781,   12.0604525,   13.8632326,   100.114159
   2782,   10.8579607,   14.4816074,   99.0455017
   2783,  -12.8143272,   6.98433399,    105.05957
   2784,  -8.13949013,   10.6708174,   96.5254517
   2785,  -6.63544512,   12.0062408,   97.3317108
   2786,  -4.57461691,    9.8240099,   94.3465881
   2787,  -4.75680923,   8.20505905,   93.3760986
   2788,  -14.5971394, 0.0192895122,   96.9408569
   2789,   7.65547609,   16.1022606,   97.4952621
   2790, 0.0127853509,  -14.4612484,   100.995659
   2791,  -1.90562296,  -13.2138729,   102.429543
   2792,  -13.8269186,   8.21808243,   104.018509
   2793,   -5.2234621,   -4.2807312,   94.4618073
   2794,  -16.6942883,   8.25549603,   100.786865
   2795,  -10.1655226,   9.52136707,   105.563782
   2796,  -15.4848766,     7.468297,   96.8693695
   2797,  -13.5247355,   9.68803787,   103.653923
   2798,   2.41001582,  -16.1420784,   98.6651917
   2799,  -12.6996794,  -5.30459547,   103.412926
   2800,  -16.9440136,   6.50386715,   97.9019699
   2801,  -2.04625416,   3.09730339,   94.0343323
   2802,  -10.5212088,   11.1125221,     104.2575
   2803,   14.2012463,   10.7423553,   97.9073715
   2804,   13.4079771,   7.72360373,   97.1384583
   2805,   14.1438007,   8.82695961,   96.5769653
   2806,  -10.1857901,  -9.09274578,   105.701424
   2807,  -3.64874053,   11.8400717,   106.217255
   2808,    -5.413167,   10.7608366,   106.025185
   2809,   16.4862576,  -2.85338831,   101.240211
   2810,   16.7013931, -0.731458426,     101.1875
   2811,   17.3459873,  -4.11599398,   100.188438
   2812,  -8.17396164,   4.16984892,   107.715981
   2813,   7.35202789,  -6.86117029,    104.16658
   2814,   6.52078247,  -8.81532478,   106.174515
   2815,  -4.95969534,   4.65153694,    92.588028
   2816,   9.83495998,   -6.8755393,   106.085236
   2817,   8.98404789,  -8.60063457,   106.066345
   2818,  -3.40482306,   6.67004108,    93.111618
   2819, -0.519765317,   11.7656803,   93.8422546
   2820,   4.21812725,  -8.89812851,   104.373932
   2821,   -10.145483,   1.80107236,   93.0289764
   2822,  -5.99512386,  -3.78421068,    107.82637
   2823,   4.71767807,   4.84891653,   105.384415
   2824,   5.92328644,   3.14104605,   105.546677
   2825,   11.4112225,   10.2872925,   102.694092
   2826,  -11.6054125,   -8.2571907,   94.7893524
   2827,   11.9056911,  -3.23257303,   93.3184509
   2828,   12.8375969,   1.73955774,   94.1922379
   2829,    14.158289,   2.11240554,   94.7799072
   2830,   -1.0078156,  -4.79373121,   93.2600327
   2831,  -12.1020622,   11.2388306,   101.631409
   2832,  -1.74242091,   -3.4331429,   93.6520386
   2833,  -1.01991177,  -15.3919058,   102.450821
   2834,  0.906705916,  -14.7297459,   102.635628
   2835,   -15.551753,   1.42094767,   102.330833
   2836, -0.132779136,  -9.99818516,   104.877769
   2837,   5.73027992,  -7.14684153,   104.747688
   2838,   5.51494074,  -7.04624367,   106.933022
   2839,   4.54802275,  -8.87435341,   106.663559
   2840,   5.90509939,  -6.16651964,   93.1638947
   2841,   12.5446692,   9.50517654,   97.4289551
   2842,   11.3920069,   10.6642647,    98.997139
   2843,   8.42285061,  -7.68141413,   95.1333923
   2844,   10.5191107,  -9.59650803,   96.6904678
   2845,   13.9924698,   8.73895741,   98.4665375
   2846,   14.5698376,  0.200648427,   104.823639
   2847,   5.76721191,  -4.18923712,   107.965126
   2848,   5.41492796, -0.551939011,   108.068642
   2849,    8.0154829,  -2.38819265,   92.8832092
   2850,  -3.50104022,   8.36139679,   92.4106903
   2851,   14.5799475, -0.152636215,   95.0868912
   2852,   15.9641962, -0.722286224,   95.9090881
   2853,  -6.40624142,    9.5082016,   93.6242218
   2854,   11.6565208,  -1.07236564,   95.7382507
   2855,   9.91019821,  -15.2954912,   100.110252
   2856,    11.058569,  -4.57888126,   106.807465
   2857,   3.24225974,  -15.2529135,   102.878952
   2858,   3.18736315,   6.94595766,   94.5270767
   2859,   15.1802149,   2.29133463,   104.884232
   2860,   12.5010891, 0.0198342707,   104.938377
   2861,   2.09367609,  -15.9955845,   102.115601
   2862,   3.62251616,  -16.6544609,   101.087151
   2863,  -12.5096579,  -5.17126179,   96.7700653
   2864,  -9.66539097,    9.7491169,    96.723587
   2865,  -14.4530621,   10.7800274,   98.8805313
   2866,   14.9803572,  -9.46386623,    97.541153
   2867,   16.6429443,  -8.36311245,   101.167702
   2868,  -3.46727276,   13.5357294,   94.8073654
   2869,   14.1161728,  -8.42182922,   98.2215118
   2870,   12.9246874,  -10.1566315,   96.4494324
   2871,    14.020503,  -8.61999702,   96.2045135
   2872,  -2.82341409,   14.8978176,   104.976265
   2873,    7.3684721,  -6.06344128,   94.6485596
   2874,   8.54941177,  -6.38589764,   93.4225464
   2875,   7.36472702,  -13.3613605,   102.678848
   2876,   9.72335815,   11.7631006,   101.851738
   2877,    16.682354,  -6.73436308,   99.6631546
   2878,   16.9023399,  -6.50199461,   97.8321152
   2879,    16.129509,  -8.16288471,    97.918602
   2880,   15.3430595,  -7.43376684,   96.9070511
   2881,   10.2337847,  -7.60339212,   94.0493164
   2882,  -8.46379566,   14.4282465,   103.407082
   2883,  -9.79678917,    6.7071557,   104.282959
   2884,  -7.55243826,   15.9089956,   102.664635
   2885,   7.28178215,   11.8300934,   96.7146606
   2886,  -7.42964458,   14.5049324,   95.6264496
   2887,   3.26343679,  -7.06213284,   105.217079
   2888,   4.45038652,   14.9469881,   104.463104
   2889,   5.97453928,   14.2447767,   102.291443
   2890,  -6.71758461,    15.072505,    103.63842
   2891,  -8.87509155,   8.75795078,   106.062149
   2892,  -8.34589005,   15.9077997,   101.292274
   2893,   11.9184761,   8.26858521,   96.6608353
   2894,   7.41858482,  -15.9597111,   102.602585
   2895,  -7.43315411,   13.2995882,    102.77816
   2896,  -13.5023899,   9.84293175,   100.580513
   2897,   -15.161706,   8.53023148,   100.656685
   2898,   -8.6652298,   14.4991455,   101.995522
   2899,    17.506237,   5.87111139,    100.46627
   2900,   16.6006813,   5.03690147,   99.0554352
   2901,   15.4735994,     6.426476,   100.344826
   2902,   17.1150703,   6.22512293,   101.808701
   2903,   16.5661011,    5.1257453,   103.134552
   2904,  0.048906628,   3.96736097,   92.1378632
   2905,  -4.51827621,   6.11247206,   92.0098267
   2906,   16.3325939,   2.82428551,   98.7383575
   2907,    3.3166306,  0.620198488,   91.8321838
   2908,   17.0541534,   1.86494851,   101.162376
   2909,  -4.55341673,   -4.8796916,   105.311806
   2910,   3.77712631,  -11.0273962,   94.8702011
   2911,  -18.2060318,   5.67235327,   99.3965378
   2912,   10.8529034,  0.941332281,   106.502014
   2913,   13.4090719,   1.89149714,     105.8004
   2914,   12.2848835,    1.2021271,    106.44059
   2915,   1.83846557,   17.6224709,   97.5953369
   2916,  -6.55275345,   14.5847569,   101.908607
   2917,   15.6636868,   -6.9768033,   101.076118
   2918,   15.7536612,  -6.72950363,   103.192772
   2919,    16.850668,   -6.4942894,   102.026726
   2920,   5.83887672,   4.18639946,   92.2004166
   2921,     3.497612,   3.44299436,   92.2180481
   2922,  -8.15313435,   10.4797621,   94.6326141
   2923,  -8.78484917,   8.76083374,   93.6471634
   2924,   10.7689095,   6.09700632,   96.0126419
   2925,   12.5177307,   6.43267345,   95.9689789
   2926,   5.89693546,   14.4656191,   97.2781754
   2927,   13.7744503,   4.24554253,   95.2369232
   2928,   14.5173635,   6.33432293,   95.8337555
   2929,    15.354538,   5.74929333,   98.2321625
   2930,   7.71382856,    16.345911,   98.9625473
   2931,   14.4992676,  -10.6516752,   98.7976761
   2932,   12.5632162,  -13.2113571,   99.2935486
   2933,  -2.78642607,   9.60693741,   105.551514
   2934,  -7.31666422,   8.39325619,   96.0377579
   2935,  -8.66068459,   8.89898491,   95.0679321
   2936,  -5.86312485,  -3.13370585,   105.609497
   2937,  -7.49279118,   3.24619722,    106.97184
   2938,   4.71918297,  -5.28326368,   107.417831
   2939,   2.05326772,  -2.87432742,   92.1066971
   2940,   3.93903351,  -4.34560299,   108.181137
   2941,   1.48239636,  -10.6921844,   93.3295746
   2942,   1.66897738,  -10.6017342,   107.023888
   2943,   1.87747538,  -17.8586216,   102.247154
   2944,   17.7425957,    4.3341732,   100.086266
   2945,   1.70827091,   -3.5274241,   107.785416
   2946,   12.2817411, -0.222147375,   106.603172
   2947,  -15.5781374,   7.26119757,   98.9601135
   2948,   13.9674721,  -6.01269007,   104.345276
   2949,    7.3194437,  -13.5187836,    104.61396
   2950,   1.98358417,   1.23702204,   108.261513
   2951,   3.60876298,  -11.7775183,   106.200943
   2952,   3.09178972,  -10.6964512,   106.591568
   2953,   8.84222317,  -12.6010427,   104.410767
   2954,   6.04051352,  -8.26232433,   92.7414703
   2955,   1.92653406,  -14.9074183,   94.9047241
   2956,   2.37384892, -0.162226498,   108.326889
   2957,   1.94010985,  -1.62228775,   108.236282
   2958,   1.69799399,   3.21113491,   91.9875565
   2959,   3.96551633, -0.352641076,   91.3702698
   2960,   9.06080055,   11.1862755,   97.2451172
   2961,    12.888566,   10.2530708,   103.745567
   2962,   12.2116423,   7.08982944,   105.127617
   2963,   10.6555738,   10.2481356,   96.9561386
   2964,   4.63405371,   16.1893559,   103.628136
   2965,   2.80720806,   16.3641701,   103.436005
   2966,   5.09427071,   6.31567955,   92.6535339
   2967,   4.27486801,   5.03972387,   92.0354004
   2968,   10.3462372,   15.0548649,   102.229118
   2969,   12.0882835,   4.78875017,   94.1335678
   2970,   15.8645077,  -4.62015343,   102.069832
   2971,   8.27897358, -0.638418734,   92.4501419
   2972,   1.97761965, -0.834324002,   91.9340668
   2973,   16.5830059,  -5.52521753,   96.9897079
   2974,  0.210590899,   1.98257065,   92.2552719
   2975,   9.30955982,   9.89704227,   106.435966
   2976,   8.74011803,   11.3071814,   94.6882782
   2977,   13.4932079, 0.0713937432,   105.938675
   2978,   4.47442722,  -10.9912596,   93.3725281
   2979,   12.6884756,   5.47352409,   105.284988
   2980,   17.6774082,  -5.58400345,   99.1227951
   2981,   1.70083177,   14.6305866,   95.0318527
   2982,  -2.09667349,   15.9995871,   102.271843
   2983,   18.0146103,   2.28797483,   98.3331833
   2984,  0.654596806,   11.9168291,   106.338501
   2985,     5.589499,   12.5833445,   105.415634
   2986,   1.39085674,   17.4846401,   102.344444
   2987,   6.80748272,   11.2496243,   105.954834
   2988,    3.2661531,   2.16098285,   108.249451
   2989,   10.0248451,   12.4190807,   95.9887619
   2990,   6.11307001,   9.60693264,   106.071739
   2991,   4.72153425,   9.82708073,   107.287109
   2992,   4.77385664,   5.23385572,   107.527046
   2993,   2.98222995,   4.48394871,   91.4973373
   2994,    1.3485074,  -14.8924971,    97.123909
   2995,   5.83319616,   6.56175852,   106.838371
   2996,   12.4579182,   11.4933367,   96.7289429
   2997,   15.9233522,   3.34850526,    104.29805
   2998,   14.5777836,   4.67045879,   104.731186
   2999,   10.2106609,   10.4307432,   94.7692642
   3000,   12.8016787,   10.1606398,   102.110855
   3001,   7.72999382,   15.6991196,   102.953445
   3002,   12.4428577,   9.17024422,   104.761429
   3003,   6.74019575,   7.72651243,   93.4105988
   3004,   6.53483486,  -2.49016881,   108.258255
   3005,   3.96253657,   0.59023422,   108.315186
   3006,   8.48556137,   7.03380299,   93.6925125
   3007,   13.3711309,   5.82117605,   94.7085495
   3008,   7.00369692,   4.61096096,   106.777672
   3009,   10.3348913,   7.35291481,   105.928375
   3010,   16.8931179,  -1.47454429,   96.8458405
   3011,   16.4596729,  -3.69049191,   96.6258545
   3012,   6.86025572,   1.98111117,   107.655716
   3013,   16.3371353,   2.33184934,   103.966263
   3014,   16.7019711,  -3.77201819,   103.221565
   3015,   17.8396091,  -4.62554312,   101.644241
   3016,   13.8582058,  -8.19303894,   103.978874
   3017,   17.1522312, -0.907078385,   102.954765
   3018,   10.9943027,   4.75011015,   93.3128357
   3019,   11.7219629,  -9.53724861,   94.9724045
   3020,   12.7476645,  -8.32615471,   95.1783295
   3021,   15.4995146,  -5.00954199,   104.079285
   3022,   15.4352636,  -2.94002533,   104.304565
   3023,   15.8197613,  -1.24322712,    104.10968
   3024,   8.12715054,  -12.0631237,   94.5374374
   3025,   7.08825874,  -4.42419004,   93.1958084
   3026,    12.055851,   6.83567286,   94.1895294
   3027,   18.5273075,   2.57416797,   100.125603
   3028,   15.2966013,   5.68612671,   103.854721
   3029,   15.8103409,  -2.35895562,   95.9168625
   3030,   13.9491987,   6.38637686,   104.276398
   3031,   11.6054144,   8.25718784,   94.7893524
   3032,   6.86637211,  -1.68793499,   91.9984894
   3033,   3.29870677,  -14.5673447,   105.165726
   3034,   10.9205904,    11.091568,   95.2572937
   3035,   12.4747829,   9.64816189,   95.4014435
   3036,   4.67350435,   8.21621227,   93.0194168
   3037,   11.3500271,   8.46844292,   105.168358
   3038,   5.75196886,  0.706037223,   108.517616
   3039,   4.63265038,  -6.11479807,   92.0259857
   3040,  -8.05472851,  -6.31367064,   105.886879
   3041,   6.57676363,    5.6804204,   92.8746109
   3042,   3.64167643,  -14.9465847,   95.2312241
   3043,   5.75477648,   2.19038963,   91.6451416
   3044,   3.51603746,  -6.98083735,    107.24588
   3045,   9.32527924,   2.63737512,   92.3838577
   3046,   9.72963238,   8.04157066,   94.3696289
   3047,   10.2732801,   9.13499928,   105.516121
   3048,   13.3115273,   10.1247616,   96.2788315
   3049,   1.82943523,   11.7346668,    95.731987
   3050,   10.9792871,   -10.694891,   95.1661148
   3051,   5.87696934,  -16.5782242,   102.772003
   3052,   3.07592845,  -13.4401131,   95.0666962
*Element, type=C3D4
    1, 1011, 1012, 1013, 1014
    2, 1015, 1016, 1017, 1018
    3, 1015, 1019, 1014, 1020
    4, 1015, 1018, 1021, 1014
    5, 1015, 1019, 1020, 1022
    6, 1023, 1017, 1024, 1025
    7, 1016, 1017, 1023, 1026
    8, 1017, 1023, 1026, 1025
    9, 1025, 1027, 1028, 1026
   10, 1025, 1029, 1017, 1024
   11, 1025, 1030, 1028, 1029
   12, 1019, 1031, 1022, 1032
   13, 1019, 1032, 1033, 1031
   14, 1034,  486,  385, 1035
   15, 1015, 1017, 1026, 1027
   16, 1019, 1033, 1036, 1037
   17, 1015, 1019, 1022, 1032
   18, 1019, 1036, 1032, 1038
   19, 1039, 1040, 1041, 1042
   20, 1039, 1043, 1044, 1045
   21, 1039, 1046, 1043, 1047
   22, 1048, 1046, 1049, 1039
   23, 1039, 1041, 1043, 1045
   24, 1050, 1051, 1047, 1046
   25, 1043, 1039, 1044, 1049
   26, 1046, 1052, 1053, 1048
   27, 1039, 1046, 1047, 1054
   28, 1055,  749,    2,   25
   29, 1046, 1052, 1051, 1053
   30, 1046, 1056, 1050, 1051
   31, 1057, 1042, 1058, 1059
   32, 1057, 1060, 1061, 1062
   33, 1057, 1063, 1061, 1064
   34, 1057, 1041, 1061, 1042
   35, 1057, 1065, 1062, 1066
   36, 1057, 1066, 1041, 1042
   37, 1067, 1068, 1069, 1070
   38, 1071, 1072, 1073, 1074
   39, 1056, 1075, 1049, 1050
   40, 1076, 1077, 1078, 1079
   41, 1050, 1077, 1080, 1049
   42, 1046, 1050, 1049, 1043
   43, 1081, 1082, 1083, 1084
   44, 1044, 1043, 1049, 1077
   45, 1050, 1079, 1077, 1043
   46, 1085, 1086, 1087, 1020
   47,  988,  950, 1088,  954
   48, 1089, 1090, 1091, 1092
   49, 1086, 1093, 1094, 1095
   50, 1086, 1020, 1085, 1096
   51, 1097, 1021, 1020, 1022
   52, 1015, 1021, 1017, 1022
   53, 1021, 1018, 1017, 1097
   54, 1021, 1087, 1020, 1014
   55, 1098, 1018, 1087, 1021
   56, 1099, 1100, 1101, 1102
   57, 1022, 1097, 1103, 1020
   58, 1097, 1104, 1105, 1098
   59, 1097, 1106, 1103, 1107
   60, 1097, 1017, 1022, 1108
   61, 1097, 1105, 1103, 1098
   62, 1109, 1110, 1111, 1112
   63, 1097, 1018, 1017, 1113
   64, 1021, 1097, 1017, 1022
   65, 1098, 1021, 1020, 1097
   66, 1097, 1114, 1105, 1104
   67, 1025, 1017, 1027, 1026
   68, 1115, 1116,   31, 1117
   69, 1017, 1027, 1108, 1029
   70, 1113, 1023, 1017, 1024
   71, 1018, 1098, 1097, 1021
   72, 1017, 1022, 1108, 1027
   73, 1020, 1097, 1103, 1098
   74, 1022, 1118, 1031, 1119
   75, 1022, 1120, 1027, 1032
   76, 1022, 1032, 1031, 1120
   77, 1015, 1021, 1022, 1020
   78, 1015, 1019, 1032, 1038
   79, 1020, 1022, 1121, 1103
   80,  988,  866,  967, 1088
   81, 1086, 1062, 1096, 1093
   82, 1087, 1085, 1014, 1122
   83, 1015, 1017, 1027, 1022
   84, 1123, 1121, 1103, 1020
   85, 1020, 1096, 1124, 1085
   86, 1021, 1020, 1087, 1098
   87, 1086, 1125, 1126, 1098
   88, 1020, 1098, 1103, 1123
   89, 1127, 1128, 1129, 1130
   90, 1127, 1131, 1132, 1133
   91, 1127, 1130, 1134, 1128
   92, 1127, 1133, 1132, 1135
   93, 1134, 1127, 1080, 1130
   94, 1041, 1062, 1061, 1125
   95, 1039, 1045, 1136, 1041
   96, 1041, 1093, 1125, 1045
   97, 1041, 1137, 1047, 1043
   98, 1041, 1137, 1125, 1061
   99, 1138, 1139, 1140, 1141
  100, 1045, 1043, 1125, 1041
  101, 1099, 1142, 1143, 1144
  102, 1145, 1146, 1147, 1148
  103, 1145, 1147, 1149, 1150
  104, 1145, 1149, 1151, 1152
  105, 1145, 1153, 1152, 1154
  106, 1077, 1043, 1125, 1044
  107, 1050, 1043, 1155, 1079
  108, 1156, 1157, 1158, 1133
  109, 1135, 1156, 1159, 1158
  110, 1156, 1133, 1132, 1160
  111, 1156, 1133, 1135, 1132
  112, 1160, 1161, 1135, 1156
  113, 1162,  801,  802,  782
  114, 1163,  932,  931,  925
  115, 1135, 1160, 1164, 1161
  116, 1156, 1157, 1165, 1166
  117, 1156, 1160, 1161, 1167
  118, 1012, 1168, 1013, 1026
  119, 1012, 1168, 1169, 1170
  120, 1012, 1014, 1171, 1018
  121, 1012, 1011, 1170, 1171
  122, 1014, 1012, 1013, 1015
  123, 1172, 1173, 1052, 1174
  124, 1172, 1175, 1176, 1177
  125, 1172, 1178, 1056, 1051
  126, 1041, 1137, 1043, 1125
  127, 1057, 1062, 1041, 1066
  128, 1077, 1043, 1137, 1125
  129, 1137, 1061, 1179, 1125
  130, 1137, 1047, 1180, 1181
  131, 1182, 1183, 1112, 1139
  132, 1077, 1179, 1137, 1079
  133, 1077, 1137, 1043, 1079
  134, 1077, 1044, 1125, 1126
  135, 1044, 1045, 1043, 1125
  136, 1019, 1124, 1184, 1185
  137, 1014, 1018, 1186, 1171
  138, 1019, 1038, 1014, 1085
  139, 1014, 1085, 1011, 1122
  140, 1187, 1188, 1189, 1190
  141, 1191, 1192, 1193, 1194
  142, 1195, 1196, 1068, 1197
  143, 1194, 1198, 1199, 1193
  144, 1200, 1194, 1201, 1202
  145, 1203,  705,  706,  704
  146, 1194, 1204, 1205, 1202
  147, 1194, 1206, 1198, 1200
  148, 1194, 1204, 1191, 1192
  149, 1137, 1179, 1061, 1207
  150, 1057, 1208, 1209, 1064
  151, 1061, 1060, 1179, 1125
  152, 1057, 1061, 1041, 1062
  153, 1210, 1211, 1212, 1213
  154, 1210, 1214, 1215, 1211
  155, 1040, 1216, 1063, 1213
  156, 1217, 1218, 1219, 1220
  157, 1210, 1221, 1213, 1216
  158, 1210, 1222, 1221, 1216
  159, 1210, 1223, 1215, 1214
  160, 1061, 1216, 1210, 1063
  161, 1210, 1222, 1216, 1207
  162, 1086, 1125, 1062, 1093
  163, 1220, 1224, 1219, 1217
  164, 1061, 1223, 1210, 1207
  165, 1060, 1062, 1125, 1061
  166, 1225, 1046, 1048, 1039
  167, 1137, 1047, 1043, 1155
  168, 1039, 1041, 1136, 1042
  169, 1046, 1050, 1043, 1047
  170, 1039, 1042, 1226, 1040
  171, 1027, 1227, 1028, 1228
  172, 1025, 1027, 1029, 1028
  173, 1017, 1024, 1029, 1108
  174, 1015, 1016, 1012, 1026
  175, 1032, 1027, 1227, 1120
  176, 1229, 1027, 1227, 1032
  177, 1227, 1032, 1230, 1229
  178, 1108, 1022, 1120, 1027
  179, 1027, 1029, 1227, 1120
  180, 1015, 1014, 1012, 1018
  181, 1025, 1231, 1023, 1030
  182, 1217, 1224, 1219, 1232
  183, 1233, 1018, 1171, 1234
  184, 1171, 1234, 1235, 1233
  185, 1015, 1017, 1021, 1018
  186, 1169, 1171, 1016, 1012
  187, 1113, 1098, 1097, 1018
  188, 1018, 1113, 1236, 1233
  189, 1018, 1234, 1236, 1087
  190, 1097, 1108, 1022, 1103
  191, 1020, 1087, 1098, 1086
  192, 1120, 1118, 1022, 1108
  193, 1118, 1237, 1120, 1031
  194, 1019, 1119, 1022, 1031
  195, 1217, 1238, 1239, 1232
  196, 1240, 1121, 1237, 1106
  197, 1118, 1103, 1106, 1121
  198, 1118, 1241, 1106, 1108
  199, 1118, 1106, 1241, 1237
  200, 1097, 1113, 1024, 1104
  201, 1105, 1098, 1179, 1103
  202, 1104, 1079, 1114, 1105
  203, 1242, 1243, 1244, 1245
  204, 1105, 1246, 1079, 1114
  205, 1105, 1103, 1247, 1107
  206, 1077, 1105, 1079, 1104
  207, 1248, 1249, 1250,  203
  208, 1036, 1033, 1251, 1037
  209, 1036, 1038, 1252, 1253
  210, 1036, 1251, 1254, 1255
  211, 1036, 1252, 1038, 1037
  212, 1036, 1229, 1038, 1253
  213, 1036, 1032, 1254, 1031
  214, 1036, 1037, 1255, 1252
  215, 1256, 1013, 1252, 1011
  216, 1013, 1252, 1011, 1038
  217, 1038, 1011, 1257, 1252
  218, 1022, 1121, 1103, 1118
  219, 1027, 1032, 1229, 1013
  220, 1038, 1257, 1011, 1085
  221, 1038, 1229, 1032, 1013
  222, 1032, 1254, 1031, 1230
  223, 1019, 1020, 1121, 1124
  224, 1038, 1253, 1013, 1252
  225, 1038, 1013, 1253, 1229
  226, 1019, 1031, 1033, 1119
  227, 1036, 1258, 1031, 1254
  228, 1019, 1032, 1036, 1033
  229, 1259, 1260, 1261, 1262
  230, 1260, 1259, 1263, 1264
  231, 1262, 1259, 1265, 1266
  232, 1265, 1262, 1264, 1259
  233, 1267, 1073, 1049, 1268
  234, 1267, 1049, 1269, 1268
  235, 1267, 1270, 1072, 1269
  236, 1267, 1080, 1073, 1074
  237, 1271,  952, 1272, 1273
  238, 1267, 1074, 1131, 1080
  239, 1192, 1204, 1191, 1274
  240, 1275, 1274, 1276, 1109
  241, 1193, 1191, 1277, 1278
  242, 1217, 1279, 1280, 1281
  243, 1278, 1193, 1282, 1277
  244, 1278, 1283, 1191, 1277
  245, 1274, 1204, 1191, 1275
  246, 1284, 1109, 1111, 1274
  247, 1191, 1109, 1283, 1278
  248, 1285, 1191, 1109, 1283
  249, 1286, 1287, 1288, 1180
  250, 1286, 1289, 1287, 1180
  251, 1290, 1286, 1291, 1292
  252, 1286, 1293, 1294, 1181
  253, 1286, 1294, 1289, 1181
  254, 1295, 1286, 1291, 1290
  255, 1286, 1181, 1295, 1293
  256, 1296, 1297, 1298, 1299
  257, 1296, 1300, 1297, 1175
  258, 1296, 1301, 1300, 1175
  259, 1298, 1302, 1303, 1301
  260, 1304, 1302, 1303, 1298
  261, 1296, 1305, 1306, 1304
  262, 1307, 1057, 1308, 1209
  263, 1057, 1065, 1208, 1064
  264, 1057, 1059, 1058, 1307
  265, 1086, 1126, 1125, 1093
  266, 1279, 1218, 1219, 1217
  267, 1062, 1123, 1309, 1060
  268, 1062, 1060, 1309, 1065
  269, 1310, 1311, 1312, 1313
  270, 1313, 1314, 1315, 1310
  271, 1316, 1149, 1317, 1318
  272, 1319, 1320, 1321, 1322
  273, 1217, 1323, 1238, 1219
  274, 1217, 1281, 1323, 1219
  275, 1318, 1151, 1317, 1324
  276, 1322, 1320, 1321, 1325
  277, 1319, 1320, 1322, 1326
  278, 1318, 1151, 1324, 1325
  279, 1318, 1320, 1325, 1327
  280, 1328, 1329, 1106, 1107
  281, 1328, 1241, 1330, 1331
  282, 1328, 1241, 1331, 1332
  283, 1328, 1106, 1330, 1241
  284, 1328, 1106, 1329, 1333
  285, 1136, 1334, 1093, 1335
  286, 1136, 1334, 1336, 1066
  287, 1136, 1042, 1336, 1226
  288, 1039, 1042, 1136, 1226
  289, 1136, 1066, 1041, 1093
  290, 1337, 1268, 1173, 1338
  291, 1268, 1173, 1338, 1052
  292, 1052, 1049, 1268, 1048
  293, 1052, 1338, 1268, 1073
  294, 1052, 1049, 1075, 1073
  295, 1339, 1340, 1341, 1342
  296, 1052, 1343, 1174, 1344
  297, 1339, 1345, 1346, 1347
  298, 1348,  116,  117,  114
  299, 1349, 1350, 1351, 1116
  300, 1352, 1353, 1060, 1354
  301, 1355, 1356, 1357, 1358
  302, 1359, 1240, 1121, 1352
  303, 1352, 1359, 1240, 1360
  304, 1352, 1309, 1123, 1060
  305, 1352, 1123, 1121, 1359
  306, 1339, 1340, 1361, 1341
  307, 1362, 1363, 1364, 1365
  308, 1362, 1365, 1364, 1133
  309, 1366, 1367, 1113, 1362
  310, 1362, 1368, 1233, 1113
  311, 1362, 1369, 1233, 1370
  312, 1098, 1104, 1236, 1113
  313, 1125, 1179, 1098, 1123
  314, 1097, 1105, 1114, 1107
  315, 1077, 1236, 1098, 1104
  316, 1097, 1103, 1105, 1107
  317, 1022, 1020, 1121, 1019
  318, 1184, 1185, 1033, 1019
  319, 1124, 1085, 1371, 1185
  320, 1372, 1124, 1373, 1184
  321, 1184, 1124, 1373, 1185
  322, 1015, 1014, 1019, 1038
  323, 1355, 1374, 1375, 1341
  324, 1065, 1096, 1373, 1309
  325, 1124, 1372, 1309, 1184
  326, 1376, 1377, 1378, 1088
  327, 1124, 1123, 1121, 1309
  328, 1061, 1063, 1210, 1064
  329, 1136, 1336, 1042, 1066
  330, 1057, 1066, 1042, 1059
  331, 1042, 1336, 1226, 1379
  332, 1380, 1361, 1381, 1340
  333, 1042, 1040, 1063, 1382
  334, 1383, 1370, 1384, 1385
  335, 1383, 1370, 1386, 1387
  336, 1383, 1384, 1388, 1389
  337, 1383, 1387, 1390, 1388
  338, 1131, 1133, 1362, 1391
  339, 1364, 1133, 1132, 1391
  340, 1364, 1133, 1160, 1132
  341, 1364, 1363, 1366, 1392
  342, 1133, 1364, 1392, 1365
  343, 1156, 1167, 1364, 1160
  344, 1393, 1394, 1380, 1395
  345, 1396, 1397, 1398, 1399
  346, 1367, 1366, 1167, 1364
  347, 1156, 1400, 1365, 1392
  348, 1209, 1208, 1401, 1195
  349, 1208, 1064, 1065, 1309
  350, 1057, 1209, 1208, 1308
  351, 1208, 1401, 1195, 1402
  352, 1208, 1372, 1065, 1403
  353, 1208, 1308, 1401, 1403
  354, 1077, 1105, 1098, 1179
  355, 1126, 1087, 1236, 1234
  356, 1098, 1123, 1179, 1103
  357, 1126, 1093, 1095, 1045
  358, 1125, 1060, 1179, 1123
  359, 1077, 1080, 1267, 1131
  360, 1126, 1045, 1095, 1270
  361, 1017, 1113, 1018, 1016
  362, 1404, 1405, 1406, 1407
  363, 1408,  910,  905,  907
  364, 1409,  679,   21,   20
  365, 1404, 1251, 1410, 1146
  366, 1404, 1410, 1407, 1411
  367, 1228, 1412, 1229, 1227
  368, 1413, 1164, 1414, 1415
  369, 1025, 1027, 1017, 1029
  370, 1227, 1416, 1120, 1029
  371, 1227, 1028, 1417, 1416
  372, 1227, 1230, 1417, 1412
  373, 1418, 1226, 1379, 1382
  374, 1418, 1419, 1420, 1421
  375, 1418, 1422, 1420, 1423
  376, 1365, 1400, 1424, 1425
  377, 1157, 1400, 1365, 1156
  378, 1133, 1158, 1365, 1157
  379, 1400, 1426, 1157, 1350
  380, 1156, 1400, 1165, 1157
  381, 1156, 1165, 1400, 1427
  382, 1427, 1400, 1428, 1426
  383, 1400, 1429, 1428, 1426
  384, 1305, 1430, 1175, 1431
  385, 1077, 1125, 1098, 1126
  386, 1042, 1379, 1226, 1382
  387, 1336, 1432, 1335, 1433
  388, 1336, 1434, 1435, 1436
  389, 1336, 1334, 1437, 1438
  390, 1439, 1261, 1440, 1441
  391, 1439, 1440, 1261, 1442
  392, 1439, 1443, 1442, 1444
  393, 1439, 1445, 1440, 1446
  394, 1439, 1446, 1440, 1447
  395, 1439, 1440, 1442, 1447
  396, 1237, 1120, 1448, 1241
  397, 1031, 1120, 1118, 1022
  398, 1032, 1120, 1230, 1031
  399, 1108, 1118, 1241, 1120
  400, 1120, 1031, 1449, 1450
  401, 1451,  342, 1452, 1453
  402, 1027, 1120, 1108, 1029
  403, 1120, 1450, 1454, 1230
  404, 1455, 1456, 1457, 1458
  405, 1455, 1456, 1459, 1460
  406, 1455, 1304, 1461, 1460
  407, 1455, 1459, 1456, 1462
  408, 1455, 1315, 1461, 1304
  409, 1455, 1315, 1463, 1464
  410, 1079, 1155, 1290, 1180
  411, 1137, 1247, 1079, 1179
  412, 1137, 1079, 1247, 1180
  413, 1077, 1080, 1078, 1050
  414, 1433, 1039, 1045, 1136
  415, 1077, 1105, 1179, 1079
  416, 1401, 1202, 1191, 1402
  417, 1401, 1275, 1204, 1465
  418, 1466, 1173, 1174, 1344
  419, 1467,  981,  768,  762
  420, 1401, 1468, 1307, 1209
  421, 1401, 1275, 1468, 1469
  422, 1401, 1275, 1465, 1468
  423, 1401, 1403, 1470, 1202
  424, 1013, 1471, 1026, 1168
  425, 1013, 1229, 1471, 1253
  426, 1027, 1013, 1229, 1471
  427, 1472,  948,  914,  941
  428, 1206, 1473, 1474, 1475
  429, 1194, 1476, 1477, 1201
  430, 1206, 1201, 1475, 1200
  431, 1206, 1198, 1474, 1478
  432, 1206, 1473, 1479, 1478
  433, 1054, 1053, 1305, 1225
  434, 1206, 1478, 1479, 1199
  435, 1259, 1480, 1481, 1090
  436, 1262, 1265, 1264, 1028
  437, 1265, 1263, 1264, 1028
  438, 1265, 1482, 1483, 1412
  439, 1482, 1265, 1484, 1480
  440, 1485, 1480, 1481, 1259
  441, 1262, 1265, 1028, 1266
  442, 1265, 1028, 1266, 1486
  443, 1455, 1464, 1463, 1462
  444, 1315, 1487, 1305, 1306
  445, 1315, 1306, 1305, 1304
  446, 1315, 1305, 1461, 1304
  447, 1315, 1464, 1314, 1488
  448, 1315, 1488, 1304, 1463
  449, 1440, 1489, 1490, 1445
  450, 1439, 1447, 1491, 1446
  451, 1440, 1442, 1447, 1427
  452, 1440, 1167, 1392, 1427
  453, 1440, 1490, 1492, 1446
  454, 1493, 1494, 1495,  157
  455, 1440, 1366, 1492, 1489
  456, 1440, 1366, 1392, 1167
  457, 1496, 1497, 1254, 1498
  458, 1496, 1499, 1497, 1498
  459, 1496, 1500, 1499, 1501
  460, 1496, 1502, 1326, 1503
  461, 1504, 1505, 1412, 1498
  462, 1506,  795,  998,  789
  463, 1504, 1507, 1508, 1509
  464, 1510, 1504, 1511, 1512
  465, 1504, 1513, 1512, 1510
  466, 1504, 1514, 1512, 1513
  467, 1512, 1508, 1499, 1514
  468, 1504, 1509, 1515, 1505
  469, 1504, 1507, 1505, 1498
  470, 1516, 1457, 1517, 1518
  471, 1519, 1518, 1456, 1457
  472, 1516, 1520, 1521, 1522
  473, 1523, 1518, 1456, 1519
  474, 1516, 1524, 1519, 1523
  475, 1521, 1516, 1524, 1519
  476, 1061, 1210, 1216, 1207
  477, 1285, 1208, 1195, 1402
  478, 1064, 1060, 1065, 1309
  479, 1302, 1525, 1301, 1526
  480, 1064, 1196, 1209, 1527
  481, 1208, 1196, 1064, 1528
  482, 1060, 1061, 1354, 1528
  483, 1064, 1223, 1528, 1527
  484, 1098, 1236, 1126, 1087
  485, 1529,  566,  560,  565
  486, 1131, 1080, 1078, 1077
  487, 1267, 1077, 1369, 1234
  488, 1077, 1236, 1104, 1131
  489, 1077, 1131, 1104, 1076
  490, 1018, 1233, 1016, 1113
  491, 1126, 1234, 1095, 1087
  492, 1036, 1254, 1229, 1253
  493, 1011, 1014, 1186, 1171
  494, 1015, 1032, 1027, 1013
  495, 1483, 1228, 1412, 1229
  496, 1466, 1530, 1531, 1532
  497, 1015, 1018, 1012, 1016
  498, 1011, 1533, 1257, 1252
  499, 1012, 1169, 1171, 1170
  500, 1534,  571,  665,  666
  501, 1535, 1492, 1367, 1231
  502, 1492, 1231, 1535, 1490
  503, 1492, 1490, 1489, 1231
  504, 1492, 1231, 1366, 1367
  505, 1275, 1536, 1468, 1276
  506, 1401, 1537, 1468, 1465
  507, 1278, 1275, 1191, 1109
  508, 1275, 1276, 1538, 1536
  509, 1275, 1538, 1539, 1465
  510, 1275, 1539, 1274, 1204
  511, 1039, 1054, 1040, 1225
  512, 1054, 1540, 1541, 1430
  513, 1542, 1486, 1511, 1543
  514, 1218, 1417, 1544, 1542
  515, 1218, 1545, 1546, 1547
  516, 1547, 1545, 1546, 1548
  517, 1549, 1511, 1545, 1542
  518, 1440, 1492, 1167, 1446
  519, 1440, 1489, 1550, 1366
  520, 1262, 1489, 1030, 1264
  521, 1489, 1231, 1023, 1366
  522,  170, 1551,  182, 1552
  523, 1445, 1489, 1553, 1441
  524, 1492, 1489, 1366, 1231
  525, 1489, 1553, 1030, 1490
  526, 1262, 1553, 1489, 1441
  527, 1554, 1407, 1184, 1185
  528, 1554, 1372, 1555, 1556
  529, 1554, 1557, 1407, 1185
  530, 1554, 1557, 1411, 1407
  531, 1558, 1373, 1557, 1559
  532, 1373, 1557, 1559, 1554
  533, 1560, 1561, 1213, 1212
  534, 1212, 1211, 1215, 1562
  535, 1212, 1521, 1563, 1562
  536, 1212, 1063, 1213, 1560
  537, 1212, 1563, 1213, 1211
  538, 1564, 1565, 1566, 1567
  539, 1564, 1568, 1470, 1569
  540, 1308, 1564, 1568, 1470
  541, 1569, 1570, 1571, 1568
  542, 1569, 1568, 1572, 1564
  543, 1569, 1570, 1470, 1573
  544, 1569, 1567, 1572, 1571
  545, 1228, 1471, 1574, 1168
  546, 1227, 1228, 1412, 1028
  547, 1485, 1486, 1482, 1265
  548, 1265, 1228, 1575, 1263
  549, 1228, 1168, 1575, 1263
  550, 1228, 1229, 1483, 1471
  551, 1027, 1026, 1228, 1028
  552, 1228, 1028, 1026, 1263
  553, 1576, 1488, 1314, 1577
  554, 1578, 1447, 1427, 1579
  555, 1580, 1578, 1581, 1582
  556, 1583, 1578, 1584, 1271
  557, 1273,  949,  948,  952
  558, 1393, 1578, 1584, 1583
  559, 1578, 1393, 1584, 1427
  560, 1578, 1584, 1271, 1585
  561, 1405, 1586, 1147, 1587
  562, 1405, 1588, 1587, 1406
  563, 1404, 1147, 1405, 1251
  564, 1404, 1589, 1407, 1406
  565, 1076, 1391, 1590, 1131
  566, 1077, 1126, 1234, 1267
  567, 1131, 1236, 1104, 1362
  568, 1234, 1077, 1369, 1236
  569, 1362, 1236, 1104, 1113
  570, 1113, 1362, 1391, 1104
  571, 1131, 1074, 1591, 1080
  572, 1267, 1369, 1131, 1074
  573, 1157, 1166, 1159, 1592
  574, 1157, 1165, 1592, 1593
  575, 1206, 1473, 1475, 1477
  576, 1594, 1424, 1159, 1157
  577, 1365, 1156, 1133, 1157
  578, 1156, 1133, 1158, 1135
  579, 1595, 1311, 1312, 1310
  580, 1315, 1596, 1310, 1464
  581, 1423, 1312, 1597, 1420
  582, 1313, 1315, 1598, 1310
  583, 1313, 1310, 1420, 1312
  584, 1310, 1423, 1596, 1419
  585, 1599,  403,  411,  410
  586, 1600,  289,  301,  280
  587, 1422, 1435, 1601, 1379
  588, 1149, 1602, 1316, 1317
  589, 1601, 1379, 1603, 1422
  590, 1422, 1604, 1379, 1605
  591, 1422, 1606, 1423, 1604
  592, 1606, 1607, 1605, 1422
  593, 1422, 1608, 1601, 1597
  594, 1422, 1609, 1608, 1597
  595, 1610, 1611, 1612, 1590
  596, 1613, 1614, 1615, 1616
  597, 1590, 1610, 1617, 1612
  598, 1590, 1611, 1612, 1618
  599, 1493,  157, 1495,  161
  600, 1305, 1461, 1541, 1598
  601, 1296, 1619, 1305, 1431
  602, 1315, 1461, 1305, 1598
  603, 1305, 1175, 1430, 1302
  604, 1296, 1305, 1302, 1175
  605, 1215, 1223, 1527, 1620
  606, 1215, 1621, 1560, 1622
  607, 1215, 1622, 1560, 1562
  608, 1215, 1527, 1622, 1620
  609, 1215, 1063, 1621, 1527
  610, 1623,  594, 1624, 1625
  611, 1053, 1225, 1046, 1048
  612, 1626, 1493,  164, 1627
  613, 1046, 1054, 1225, 1053
  614, 1046, 1052, 1049, 1056
  615, 1172, 1053, 1430, 1051
  616, 1343, 1172, 1056, 1052
  617, 1628, 1629, 1613, 1326
  618, 1431, 1225, 1619, 1305
  619, 1225, 1053, 1431, 1630
  620, 1053, 1630, 1225, 1048
  621, 1066, 1041, 1093, 1062
  622, 1137, 1155, 1043, 1079
  623, 1041, 1047, 1137, 1216
  624, 1047, 1180, 1181, 1295
  625, 1631, 1632, 1633, 1129
  626, 1631, 1634, 1633, 1632
  627, 1631, 1135, 1158, 1128
  628, 1631, 1633, 1634, 1135
  629, 1086, 1095, 1094, 1087
  630, 1093, 1566, 1096, 1094
  631, 1093, 1566, 1334, 1564
  632, 1062, 1093, 1065, 1096
  633, 1136, 1066, 1093, 1334
  634, 1093, 1564, 1066, 1065
  635, 1093, 1335, 1635, 1045
  636, 1300, 1636, 1637, 1638
  637, 1300, 1176, 1639, 1636
  638, 1300, 1640, 1176, 1636
  639, 1300, 1640, 1175, 1176
  640, 1641, 1642, 1638, 1300
  641, 1097, 1024, 1108, 1332
  642, 1024, 1535, 1367, 1231
  643, 1097, 1024, 1017, 1108
  644, 1024, 1367, 1113, 1023
  645, 1367, 1231, 1023, 1024
  646, 1352, 1123, 1359, 1060
  647, 1019, 1020, 1085, 1014
  648, 1086, 1098, 1126, 1087
  649, 1041, 1061, 1042, 1216
  650, 1123, 1359, 1060, 1179
  651, 1322, 1154, 1321, 1643
  652, 1320, 1613, 1508, 1644
  653, 1508, 1613, 1514, 1644
  654, 1629, 1613, 1326, 1327
  655, 1613, 1614, 1327, 1615
  656, 1316, 1645, 1646, 1647
  657, 1648, 1432, 1649, 1335
  658, 1650, 1437, 1651, 1334
  659, 1136, 1335, 1336, 1334
  660, 1649, 1652, 1653, 1335
  661, 1654, 1655, 1656, 1657
  662, 1335, 1652, 1653, 1635
  663, 1335, 1653, 1650, 1635
  664, 1136, 1093, 1045, 1335
  665, 1054, 1419, 1040, 1225
  666, 1054, 1221, 1517, 1540
  667, 1658,  733,  732,  740
  668, 1050, 1043, 1047, 1155
  669, 1041, 1125, 1093, 1062
  670, 1041, 1137, 1061, 1216
  671, 1041, 1047, 1216, 1040
  672, 1049, 1039, 1044, 1048
  673, 1054, 1213, 1040, 1419
  674, 1040, 1382, 1225, 1419
  675, 1216, 1063, 1213, 1210
  676, 1130, 1659, 1660, 1661
  677, 1130, 1129, 1659, 1661
  678, 1127, 1129, 1132, 1659
  679, 1127, 1158, 1135, 1128
  680, 1078, 1130, 1127, 1659
  681, 1130, 1075, 1343, 1661
  682, 1130, 1343, 1075, 1134
  683, 1156, 1447, 1165, 1427
  684, 1364, 1367, 1132, 1160
  685, 1156, 1159, 1157, 1166
  686, 1400, 1157, 1424, 1350
  687, 1133, 1158, 1591, 1365
  688, 1127, 1133, 1135, 1158
  689, 1023, 1662, 1368, 1016
  690, 1023, 1662, 1026, 1264
  691, 1023, 1367, 1113, 1366
  692, 1663,  320,  321,  301
  693, 1371, 1664, 1566, 1558
  694, 1371, 1185, 1085, 1665
  695, 1185, 1373, 1371, 1124
  696, 1373, 1371, 1564, 1558
  697, 1439, 1443, 1446, 1491
  698, 1262, 1260, 1489, 1264
  699, 1666, 1007,  940,  991
  700, 1489, 1030, 1231, 1490
  701, 1262, 1030, 1028, 1264
  702, 1262, 1260, 1261, 1489
  703, 1025, 1028, 1030, 1264
  704, 1030, 1029, 1667, 1028
  705, 1657, 1543, 1668, 1511
  706, 1029, 1535, 1231, 1669
  707, 1027, 1228, 1026, 1471
  708, 1482, 1486, 1412, 1265
  709, 1025, 1023, 1264, 1030
  710, 1108, 1029, 1448, 1332
  711, 1024, 1029, 1535, 1231
  712, 1025, 1264, 1026, 1028
  713, 1443, 1670, 1361, 1442
  714, 1443, 1671, 1672, 1673
  715, 1443, 1446, 1674, 1445
  716, 1443, 1671, 1673, 1674
  717, 1443, 1670, 1444, 1675
  718, 1439, 1446, 1443, 1445
  719, 1445, 1440, 1441, 1439
  720, 1032, 1230, 1229, 1254
  721, 1031, 1230, 1254, 1503
  722, 1031, 1237, 1676, 1119
  723, 1449, 1031, 1677, 1678
  724, 1118, 1031, 1119, 1237
  725, 1031, 1119, 1676, 1677
  726, 1679, 1680, 1681, 1682
  727, 1683, 1684, 1685, 1681
  728, 1680, 1683, 1681, 1463
  729, 1680, 1488, 1577, 1463
  730, 1627, 1685, 1679, 1686
  731, 1685, 1679, 1686, 1680
  732, 1680, 1577, 1683, 1463
  733, 1150, 1687, 1688, 1148
  734, 1405, 1147, 1586, 1251
  735, 1405, 1689, 1555, 1184
  736, 1404, 1405, 1147, 1406
  737, 1404, 1148, 1690, 1589
  738, 1147, 1406, 1691, 1148
  739, 1404, 1147, 1146, 1148
  740, 1147, 1251, 1146, 1643
  741, 1147, 1692, 1587, 1149
  742, 1145, 1150, 1149, 1152
  743, 1071, 1693, 1694, 1425
  744, 1071, 1695, 1696, 1693
  745, 1071, 1591, 1365, 1697
  746, 1071, 1697, 1365, 1425
  747, 1071, 1698, 1696, 1695
  748, 1543, 1657, 1699, 1656
  749, 1657, 1655, 1656, 1543
  750, 1656, 1700, 1515, 1701
  751, 1656, 1700, 1701, 1702
  752, 1656, 1700, 1702, 1543
  753, 1656, 1702, 1703, 1699
  754, 1208, 1372, 1704, 1353
  755, 1208, 1372, 1353, 1309
  756, 1372, 1705, 1556, 1402
  757, 1372, 1706, 1353, 1309
  758, 1372, 1706, 1309, 1184
  759, 1372, 1309, 1065, 1373
  760, 1473, 1707, 1691, 1708
  761, 1473, 1691, 1707, 1474
  762, 1206, 1474, 1473, 1478
  763, 1473, 1475, 1709, 1688
  764, 1473, 1477, 1709, 1475
  765, 1479, 1473, 1477, 1709
  766, 1046, 1051, 1052, 1056
  767, 1077, 1049, 1267, 1080
  768, 1075, 1078, 1050, 1056
  769, 1049, 1044, 1269, 1048
  770, 1049, 1080, 1075, 1073
  771, 1052, 1049, 1056, 1075
  772, 1182, 1710, 1139, 1711
  773, 1542, 1667, 1547, 1218
  774, 1182, 1536, 1099, 1102
  775, 1182, 1101, 1099, 1139
  776, 1182, 1139, 1710, 1101
  777, 1296, 1466, 1175, 1297
  778, 1531, 1712, 1713, 1466
  779, 1174, 1466, 1640, 1175
  780, 1297, 1640, 1713, 1466
  781, 1466, 1297, 1712, 1713
  782, 1056, 1343, 1075, 1661
  783, 1056, 1177, 1660, 1714
  784, 1056, 1155, 1617, 1078
  785, 1056, 1660, 1617, 1714
  786, 1039, 1048, 1225, 1226
  787, 1039, 1433, 1044, 1048
  788, 1050, 1056, 1078, 1155
  789, 1056, 1075, 1660, 1661
  790, 1059, 1572, 1308, 1066
  791, 1059, 1379, 1058, 1715
  792, 1057, 1063, 1307, 1058
  793, 1042, 1059, 1379, 1058
  794, 1450, 1454, 1497, 1716
  795, 1450, 1497, 1503, 1500
  796, 1450, 1497, 1500, 1716
  797, 1511, 1717, 1545, 1548
  798, 1718, 1544, 1499, 1549
  799, 1450, 1716, 1719, 1396
  800, 1450, 1500, 1503, 1719
  801, 1254, 1496, 1326, 1503
  802, 1496, 1498, 1508, 1499
  803, 1542, 1218, 1545, 1718
  804, 1497, 1230, 1503, 1254
  805, 1720, 1721, 1415, 1722
  806, 1720, 1722, 1723, 1721
  807, 1724,  287,  279,  291
  808, 1720, 1725, 1160, 1414
  809, 1510, 1654, 1657, 1655
  810, 1160, 1164, 1161, 1720
  811, 1405, 1407, 1555, 1406
  812, 1185, 1184, 1554, 1373
  813, 1373, 1184, 1554, 1372
  814, 1407, 1251, 1033, 1037
  815, 1405, 1033, 1678, 1677
  816, 1405, 1407, 1251, 1033
  817, 1407, 1411, 1185, 1557
  818, 1468, 1726, 1727, 1183
  819, 1468, 1183, 1276, 1536
  820, 1328, 1329, 1728, 1729
  821, 1209, 1468, 1195, 1401
  822, 1401, 1109, 1402, 1191
  823, 1109, 1401, 1195, 1469
  824, 1468, 1730, 1726, 1536
  825, 1468, 1537, 1731, 1465
  826, 1401, 1307, 1468, 1537
  827, 1106, 1359, 1240, 1121
  828, 1106, 1360, 1240, 1359
  829, 1106, 1240, 1360, 1333
  830, 1328, 1330, 1106, 1333
  831, 1656, 1700, 1543, 1655
  832, 1700, 1482, 1732, 1485
  833, 1700, 1543, 1733, 1702
  834, 1700, 1734, 1515, 1701
  835, 1700, 1505, 1482, 1486
  836, 1504, 1700, 1515, 1655
  837, 1700, 1505, 1515, 1734
  838, 1533, 1735, 1736, 1737
  839, 1533, 1738, 1735, 1739
  840, 1533, 1740, 1741, 1742
  841, 1194, 1206, 1477, 1199
  842, 1205, 1743, 1744, 1202
  843, 1194, 1192, 1205, 1204
  844, 1745, 1746,  173,  524
  845, 1205, 1744, 1201, 1202
  846, 1371, 1566, 1096, 1564
  847, 1201, 1476, 1477, 1747
  848, 1156, 1160, 1132, 1135
  849, 1556, 1201, 1403, 1200
  850, 1554, 1406, 1556, 1555
  851, 1372, 1403, 1556, 1373
  852, 1556, 1705, 1474, 1200
  853, 1294, 1291, 1748, 1749
  854, 1294, 1750, 1751, 1752
  855, 1294, 1753, 1748, 1754
  856, 1275, 1109, 1276, 1469
  857, 1191, 1402, 1202, 1200
  858, 1401, 1204, 1191, 1202
  859, 1191, 1402, 1200, 1705
  860, 1191, 1285, 1402, 1277
  861, 1109, 1275, 1401, 1469
  862, 1274, 1278, 1109, 1275
  863, 1753, 1181, 1294, 1293
  864, 1181, 1293, 1753, 1222
  865, 1047, 1295, 1181, 1216
  866, 1137, 1047, 1181, 1216
  867, 1286, 1291, 1293, 1295
  868, 1222, 1293, 1221, 1216
  869, 1216, 1293, 1221, 1295
  870, 1137, 1155, 1079, 1180
  871, 1137, 1181, 1207, 1216
  872, 1047, 1040, 1221, 1216
  873, 1755,   53,   44,   45
  874, 1047, 1221, 1295, 1216
  875, 1054, 1047, 1221, 1540
  876, 1054, 1517, 1221, 1213
  877, 1054, 1040, 1213, 1221
  878, 1210, 1221, 1211, 1213
  879, 1319, 1229, 1756, 1412
  880, 1319, 1229, 1412, 1254
  881, 1326, 1320, 1508, 1319
  882, 1319, 1507, 1498, 1505
  883, 1319, 1507, 1505, 1757
  884, 1320, 1319, 1757, 1507
  885, 1319, 1253, 1229, 1254
  886, 1758, 1414, 1759, 1760
  887, 1319, 1254, 1321, 1253
  888, 1761, 1762, 1763, 1764
  889, 1765, 1641, 1766, 1767
  890, 1765, 1768, 1762, 1769
  891, 1765, 1641, 1767, 1770
  892, 1765, 1770, 1771, 1764
  893, 1313, 1420, 1772, 1312
  894, 1455, 1457, 1461, 1598
  895, 1457, 1541, 1517, 1518
  896, 1455, 1461, 1457, 1456
  897, 1457, 1561, 1419, 1458
  898, 1296, 1299, 1306, 1532
  899, 1300, 1297, 1175, 1640
  900, 1175, 1174, 1176, 1640
  901, 1175, 1526, 1176, 1177
  902, 1172, 1174, 1052, 1343
  903, 1172, 1053, 1052, 1173
  904, 1172, 1431, 1053, 1173
  905, 1190, 1189, 1773, 1774
  906, 1235, 1369, 1234, 1385
  907, 1190, 1773, 1775, 1774
  908, 1187, 1190, 1773, 1775
  909, 1774, 1776, 1189, 1773
  910, 1054, 1598, 1305, 1541
  911, 1040, 1225, 1382, 1226
  912, 1046, 1054, 1051, 1047
  913, 1630, 1225, 1619, 1431
  914, 1039, 1225, 1040, 1226
  915, 1455, 1315, 1598, 1461
  916, 1418, 1226, 1225, 1421
  917, 1225, 1421, 1619, 1598
  918, 1447, 1167, 1725, 1446
  919, 1440, 1167, 1447, 1446
  920, 1427, 1167, 1156, 1447
  921, 1447, 1777, 1778, 1579
  922, 1578, 1777, 1447, 1579
  923, 1440, 1447, 1167, 1427
  924, 1624,  599,  593,  594
  925, 1447, 1442, 1777, 1393
  926, 1779, 1780, 1781, 1782
  927, 1783, 1784, 1780, 1779
  928, 1784, 1661, 1779, 1783
  929, 1779, 1661, 1128, 1343
  930, 1779, 1176, 1640, 1785
  931, 1779, 1783, 1176, 1785
  932, 1779, 1780, 1785, 1781
  933, 1779, 1786, 1785, 1640
  934, 1031, 1503, 1254, 1258
  935, 1120, 1454, 1450, 1449
  936, 1120, 1416, 1230, 1454
  937, 1086, 1020, 1096, 1123
  938, 1262, 1489, 1553, 1030
  939, 1717, 1787, 1788,  784
  940, 1262, 1789, 1441, 1259
  941, 1444, 1441, 1790, 1791
  942, 1439, 1441, 1445, 1444
  943, 1489, 1023, 1264, 1260
  944, 1441, 1445, 1790, 1553
  945, 1059, 1568, 1307, 1308
  946, 1727, 1307, 1792, 1793
  947, 1793, 1726, 1727, 1307
  948, 1401, 1209, 1307, 1568
  949, 1063, 1527, 1209, 1307
  950, 1307, 1527, 1209, 1792
  951, 1307, 1568, 1209, 1308
  952, 1307, 1726, 1727, 1468
  953, 1300, 1175, 1301, 1526
  954, 1176, 1783, 1661, 1177
  955, 1779, 1176, 1661, 1343
  956, 1175, 1177, 1430, 1526
  957, 1343, 1176, 1172, 1174
  958, 1106, 1237, 1330, 1241
  959, 1352, 1121, 1309, 1706
  960, 1794, 1352, 1706, 1240
  961, 1121, 1706, 1184, 1309
  962, 1352, 1353, 1706, 1309
  963, 1268, 1073, 1338, 1795
  964, 1118, 1108, 1106, 1103
  965, 1118, 1121, 1237, 1119
  966, 1123, 1103, 1121, 1359
  967, 1134, 1698, 1696, 1591
  968, 1130, 1659, 1078, 1660
  969, 1590, 1796, 1612, 1617
  970, 1071, 1365, 1591, 1698
  971, 1131, 1133, 1391, 1132
  972, 1156, 1364, 1392, 1133
  973, 1127, 1591, 1133, 1158
  974, 1229, 1483, 1756, 1412
  975, 1012, 1169, 1026, 1016
  976, 1229, 1027, 1228, 1227
  977, 1497, 1549, 1412, 1498
  978, 1471, 1229, 1027, 1228
  979, 1027, 1013, 1471, 1026
  980, 1073, 1343, 1344, 1797
  981, 1036, 1033, 1031, 1258
  982, 1412, 1497, 1254, 1230
  983, 1121, 1237, 1106, 1118
  984, 1237, 1330, 1448, 1798
  985, 1019, 1022, 1119, 1121
  986, 1120, 1237, 1448, 1449
  987, 1106, 1330, 1237, 1240
  988, 1237, 1676, 1330, 1798
  989, 1209, 1468, 1307, 1792
  990, 1590, 1618, 1413, 1760
  991, 1726, 1793, 1727, 1138
  992, 1726, 1793, 1190, 1730
  993, 1188, 1183, 1138, 1726
  994, 1144, 1730, 1536, 1188
  995, 1730, 1536, 1188, 1726
  996, 1799, 1029, 1535, 1332
  997, 1440, 1167, 1492, 1366
  998, 1492, 1167, 1446, 1725
  999, 1758, 1800, 1801, 1802
 1000, 1758, 1160, 1367, 1167
 1001, 1758, 1800, 1803, 1801
 1002, 1758, 1413, 1414, 1760
 1003, 1758, 1611, 1760, 1802
 1004, 1095, 1804, 1805, 1186
 1005, 1086, 1126, 1095, 1087
 1006, 1093, 1095, 1045, 1635
 1007, 1126, 1270, 1044, 1045
 1008, 1267, 1044, 1126, 1270
 1009, 1691, 1588, 1474, 1406
 1010, 1691, 1708, 1806, 1687
 1011, 1473, 1474, 1707, 1478
 1012, 1194, 1192, 1199, 1476
 1013, 1334, 1564, 1567, 1572
 1014, 1572, 1334, 1807, 1438
 1015, 1059, 1572, 1066, 1807
 1016, 1572, 1438, 1807, 1571
 1017, 1572, 1308, 1564, 1568
 1018, 1569, 1571, 1572, 1568
 1019, 1606, 1190, 1605, 1607
 1020, 1422, 1606, 1604, 1605
 1021, 1606, 1808, 1775, 1809
 1022, 1606, 1190, 1607, 1809
 1023, 1810,  881,  922,  886
 1024, 1811, 1812, 1813,  765
 1025, 1606, 1814, 1808, 1809
 1026, 1606, 1814, 1609, 1423
 1027, 1190, 1606, 1793, 1815
 1028, 1228, 1574, 1483, 1816
 1029, 1483, 1756, 1817, 1818
 1030, 1471, 1818, 1256, 1253
 1031, 1252, 1256, 1253, 1013
 1032, 1483, 1228, 1265, 1412
 1033, 1492, 1758, 1725, 1803
 1034, 1477, 1201, 1206, 1194
 1035, 1440, 1446, 1445, 1490
 1036, 1489, 1023, 1260, 1366
 1037, 1489, 1030, 1023, 1231
 1038, 1084, 1192, 1193, 1274
 1039, 1440, 1392, 1366, 1550
 1040, 1819, 1820, 1821, 1822
 1041, 1819, 1638, 1642, 1637
 1042, 1819, 1823, 1824, 1820
 1043, 1819, 1823, 1638, 1636
 1044, 1819, 1636, 1825, 1826
 1045, 1827,  881,  886,  885
 1046, 1151, 1322, 1643, 1154
 1047, 1322, 1318, 1151, 1149
 1048, 1151, 1145, 1154, 1643
 1049, 1586, 1149, 1316, 1322
 1050, 1152, 1145, 1154, 1151
 1051, 1151, 1149, 1317, 1602
 1052, 1318, 1327, 1325, 1324
 1053, 1151, 1828, 1829, 1830
 1054, 1829, 1151, 1602, 1828
 1055, 1151, 1325, 1830, 1324
 1056, 1251, 1643, 1322, 1255
 1057, 1405, 1147, 1406, 1587
 1058, 1405, 1258, 1586, 1678
 1059, 1405, 1184, 1407, 1033
 1060, 1404, 1589, 1406, 1148
 1061, 1405, 1588, 1555, 1689
 1062, 1039, 1046, 1049, 1043
 1063, 1039, 1040, 1054, 1047
 1064, 1077, 1137, 1179, 1125
 1065, 1047, 1295, 1155, 1180
 1066, 1496, 1326, 1502, 1831
 1067, 1502, 1832, 1833, 1834
 1068, 1502, 1835, 1832, 1836
 1069, 1502, 1831, 1834, 1500
 1070, 1502, 1836, 1837, 1835
 1071, 1838, 1839, 1840, 1841
 1072, 1261, 1444, 1839, 1838
 1073, 1404, 1405, 1407, 1251
 1074, 1838, 1261, 1259, 1842
 1075, 1838, 1441, 1791, 1259
 1076, 1838, 1840, 1843, 1844
 1077, 1838, 1261, 1842, 1843
 1078, 1838, 1844, 1843, 1845
 1079, 1054, 1213, 1419, 1517
 1080, 1457, 1541, 1518, 1461
 1081, 1054, 1541, 1540, 1517
 1082, 1541, 1846, 1847, 1540
 1083, 1305, 1430, 1541, 1302
 1084, 1046, 1049, 1050, 1056
 1085, 1054, 1430, 1051, 1540
 1086, 1483, 1505, 1482, 1756
 1087, 1471, 1168, 1256, 1574
 1088, 1818, 1471, 1483, 1253
 1089, 1228, 1026, 1471, 1168
 1090, 1265, 1263, 1090, 1259
 1091, 1228, 1816, 1168, 1574
 1092, 1483, 1816, 1574, 1817
 1093, 1057, 1066, 1059, 1308
 1094, 1539, 1192, 1848, 1274
 1095, 1208, 1372, 1309, 1065
 1096, 1064, 1527, 1528, 1196
 1097, 1527, 1621, 1307, 1063
 1098, 1047, 1295, 1221, 1540
 1099, 1137, 1207, 1061, 1216
 1100, 1849, 1850, 1084, 1083
 1101, 1125, 1126, 1045, 1093
 1102, 1210, 1064, 1063, 1223
 1103, 1042, 1040, 1382, 1226
 1104, 1223, 1064, 1528, 1061
 1105, 1041, 1042, 1040, 1216
 1106, 1135, 1127, 1128, 1129
 1107, 1391, 1076, 1114, 1104
 1108, 1127, 1080, 1131, 1591
 1109, 1758, 1132, 1367, 1160
 1110, 1758, 1391, 1367, 1132
 1111, 1127, 1078, 1131, 1080
 1112, 1192, 1851, 1199, 1476
 1113, 1391, 1364, 1362, 1367
 1114, 1706, 1353, 1794, 1852
 1115, 1706, 1794, 1240, 1853
 1116, 1121, 1854, 1706, 1240
 1117, 1372, 1706, 1705, 1704
 1118, 1706, 1855, 1689, 1705
 1119, 1856, 1689, 1853, 1855
 1120, 1689, 1853, 1855, 1706
 1121, 1706, 1704, 1852, 1855
 1122, 1370, 1235, 1369, 1233
 1123, 1849, 1479, 1199, 1857
 1124, 1104, 1362, 1391, 1131
 1125, 1362, 1364, 1363, 1366
 1126, 1362, 1367, 1113, 1391
 1127, 1362, 1236, 1233, 1369
 1128, 1401, 1465, 1204, 1537
 1129, 1858,  882,  888,  883
 1130, 1715, 1537, 1468, 1307
 1131, 1059, 1307, 1057, 1308
 1132, 1191, 1402, 1705, 1277
 1133, 1372, 1402, 1704, 1705
 1134, 1208, 1308, 1403, 1065
 1135, 1209, 1195, 1792, 1196
 1136, 1401, 1275, 1191, 1204
 1137, 1649, 1651, 1653, 1859
 1138, 1652, 1653, 1860, 1859
 1139, 1652, 1860, 1805, 1861
 1140, 1095, 1635, 1652, 1862
 1141, 1863, 1462, 1864, 1865
 1142, 1863, 1596, 1865, 1866
 1143, 1863, 1867, 1868, 1865
 1144, 1863, 1866, 1865, 1868
 1145, 1863, 1869, 1458, 1870
 1146, 1863, 1596, 1871, 1458
 1147, 1863, 1869, 1864, 1458
 1148, 1872, 1753, 1181, 1294
 1149, 1289, 1287, 1873, 1874
 1150, 1289, 1872, 1875, 1876
 1151, 1294, 1872, 1753, 1754
 1152, 1294, 1289, 1875, 1751
 1153, 1287, 1750, 1877, 1874
 1154, 1180, 1286, 1292, 1288
 1155, 1750, 1289, 1874, 1287
 1156, 1043, 1049, 1077, 1050
 1157, 1079, 1078, 1076, 1610
 1158, 1878,  888,  890,  892
 1159, 1077, 1079, 1076, 1104
 1160, 1095, 1652, 1635, 1805
 1161, 1879, 1244, 1243, 1448
 1162, 1879, 1454, 1716, 1544
 1163, 1879, 1454, 1396, 1716
 1164, 1879, 1880, 1881, 1882
 1165, 1831, 1500, 1501, 1883
 1166, 1352, 1121, 1123, 1309
 1167, 1136, 1335, 1045, 1433
 1168, 1057, 1042, 1061, 1063
 1169, 1060, 1309, 1528, 1353
 1170, 1352, 1309, 1060, 1353
 1171, 1057, 1064, 1060, 1065
 1172, 1179, 1060, 1061, 1359
 1173, 1210, 1063, 1213, 1212
 1174, 1103, 1107, 1359, 1247
 1175, 1086, 1125, 1098, 1123
 1176, 1125, 1126, 1044, 1045
 1177, 1097, 1024, 1332, 1884
 1178, 1024, 1535, 1884, 1367
 1179, 1123, 1179, 1103, 1359
 1180, 1020, 1123, 1124, 1096
 1181, 1021, 1014, 1018, 1087
 1182, 1086, 1125, 1123, 1062
 1183, 1121, 1240, 1237, 1119
 1184, 1416, 1029, 1244, 1448
 1185, 1029, 1120, 1448, 1416
 1186, 1120, 1031, 1237, 1449
 1187, 1855, 1885, 1886, 1887
 1188, 1493,  158, 1888, 1494
 1189, 1889, 1890, 1891, 1858
 1190, 1887, 1689, 1705, 1588
 1191, 1887, 1277, 1892, 1198
 1192, 1887, 1277, 1855, 1893
 1193, 1887, 1198, 1707, 1705
 1194, 1887, 1894, 1892, 1893
 1195, 1887, 1894, 1855, 1885
 1196, 1587, 1806, 1895, 1687
 1197, 1896, 1806, 1895, 1587
 1198, 1496, 1497, 1499, 1500
 1199, 1587, 1897, 1692, 1895
 1200, 1587, 1898, 1586, 1835
 1201, 1319, 1496, 1326, 1254
 1202, 1899,   80,  111,  114
 1203, 1432, 1435, 1630, 1226
 1204, 1336, 1433, 1226, 1432
 1205, 1315, 1304, 1488, 1306
 1206, 1900, 1901,  638, 1902
 1207, 1039, 1048, 1226, 1433
 1208, 1226, 1432, 1433, 1048
 1209, 1121, 1119, 1184, 1854
 1210, 1096, 1373, 1309, 1124
 1211, 1659, 1903, 1129, 1413
 1212, 1659, 1129, 1903, 1904
 1213, 1660, 1078, 1617, 1659
 1214, 1362, 1236, 1369, 1131
 1215, 1130, 1080, 1134, 1075
 1216, 1502, 1503, 1500, 1719
 1217, 1127, 1078, 1659, 1132
 1218, 1078, 1077, 1076, 1131
 1219, 1659, 1132, 1413, 1129
 1220, 1758, 1367, 1391, 1801
 1221, 1127, 1591, 1158, 1134
 1222, 1414, 1132, 1758, 1160
 1223, 1132, 1160, 1414, 1164
 1224, 1132, 1160, 1164, 1135
 1225, 1662, 1905, 1906, 1169
 1226, 1662, 1905, 1169, 1026
 1227, 1017, 1023, 1113, 1016
 1228, 1662, 1264, 1263, 1026
 1229, 1633, 1129, 1784, 1903
 1230, 1633, 1632, 1907, 1908
 1231, 1631, 1129, 1909, 1632
 1232, 1631, 1158, 1910, 1911
 1233, 1633, 1135, 1166, 1634
 1234, 1662, 1363, 1368, 1387
 1235, 1029, 1448, 1332, 1244
 1236, 1262, 1028, 1030, 1667
 1237, 1439, 1441, 1444, 1261
 1238, 1262, 1028, 1667, 1266
 1239, 1025, 1264, 1023, 1026
 1240, 1264, 1259, 1263, 1265
 1241, 1265, 1266, 1259, 1485
 1242, 1412, 1228, 1265, 1028
 1243, 1227, 1417, 1230, 1416
 1244, 1326, 1645, 1629, 1327
 1245, 1515, 1505, 1912, 1913
 1246, 1515, 1505, 1913, 1734
 1247, 1515, 1912, 1505, 1509
 1248, 1515, 1655, 1914, 1509
 1249, 1656, 1914, 1515, 1655
 1250, 1037, 1665, 1185, 1410
 1251, 1025, 1231, 1024, 1023
 1252, 1122, 1014, 1186, 1011
 1253, 1407, 1410, 1037, 1185
 1254, 1037, 1185, 1665, 1085
 1255, 1038, 1037, 1252, 1257
 1256, 1019, 1185, 1037, 1085
 1257, 1185, 1033, 1019, 1037
 1258, 1296, 1305, 1304, 1302
 1259, 1296, 1304, 1306, 1298
 1260, 1304, 1915, 1302, 1916
 1261, 1502, 1500, 1834, 1719
 1262, 1304, 1302, 1461, 1916
 1263, 1304, 1915, 1460, 1917
 1264, 1315, 1463, 1464, 1488
 1265, 1304, 1917, 1460, 1463
 1266, 1918, 1261, 1260, 1550
 1267, 1569, 1470, 1919, 1573
 1268, 1918, 1442, 1839, 1261
 1269, 1918, 1395, 1442, 1584
 1270, 1918, 1427, 1584, 1442
 1271, 1918, 1427, 1550, 1428
 1272, 1816, 1740, 1920, 1905
 1273, 1905, 1168, 1575, 1816
 1274, 1905, 1168, 1170, 1169
 1275, 1169, 1921, 1170, 1905
 1276, 1662, 1368, 1016, 1169
 1277, 1905, 1026, 1263, 1168
 1278, 1905, 1169, 1921, 1906
 1279, 1662, 1905, 1263, 1922
 1280, 1905, 1263, 1922, 1575
 1281, 1372, 1706, 1555, 1705
 1282, 1556, 1403, 1559, 1373
 1283, 1403, 1202, 1200, 1201
 1284, 1556, 1406, 1474, 1555
 1285, 1403, 1564, 1308, 1470
 1286, 1403, 1564, 1065, 1308
 1287, 1401, 1402, 1403, 1202
 1288, 1318, 1322, 1151, 1325
 1289, 1145, 1148, 1147, 1150
 1290, 1151, 1828, 1154, 1152
 1291, 1602, 1923, 1152, 1149
 1292, 1322, 1149, 1316, 1318
 1293, 1413, 1796, 1903, 1618
 1294, 1924,  156, 1925, 1769
 1295, 1924, 1768, 1769, 1926
 1296,  152,  156, 1925, 1924
 1297, 1924, 1927, 1928, 1929
 1298, 1924, 1768, 1926, 1928
 1299, 1924, 1641, 1928, 1927
 1300, 1765, 1768, 1924, 1641
 1301, 1077, 1078, 1079, 1050
 1302, 1077, 1267, 1369, 1131
 1303, 1046, 1051, 1054, 1053
 1304, 1052, 1049, 1073, 1268
 1305, 1267, 1072, 1074, 1073
 1306, 1267, 1080, 1049, 1073
 1307, 1135, 1127, 1129, 1132
 1308, 1130, 1075, 1660, 1078
 1309, 1900,  638, 1901,  642
 1310, 1172, 1430, 1053, 1431
 1311, 1080, 1075, 1073, 1134
 1312, 1266, 1543, 1733, 1485
 1313, 1266, 1930, 1485, 1733
 1314, 1542, 1667, 1266, 1547
 1315, 1542, 1266, 1486, 1543
 1316, 1355, 1790, 1931, 1375
 1317, 1355, 1932, 1933, 1931
 1318, 1355, 1934, 1933, 1932
 1319, 1355, 1934, 1358, 1357
 1320, 1130, 1661, 1343, 1128
 1321, 1935, 1936, 1714, 1937
 1322, 1050, 1075, 1049, 1080
 1323, 1080, 1078, 1130, 1127
 1324, 1938, 1939, 1796, 1618
 1325, 1335, 1045, 1433, 1862
 1326, 1042, 1058, 1379, 1382
 1327, 1336, 1059, 1042, 1066
 1328, 1124, 1123, 1309, 1096
 1329, 1354, 1359, 1207, 1061
 1330, 1042, 1058, 1382, 1063
 1331, 1604, 1596, 1423, 1419
 1332, 1325, 1320, 1321, 1940
 1333, 1154, 1940, 1941, 1325
 1334, 1324, 1151, 1829, 1830
 1335, 1325, 1324, 1327, 1942
 1336, 1325, 1943, 1830, 1942
 1337, 1190, 1187, 1773, 1189
 1338, 1189, 1773, 1944, 1945
 1339, 1189, 1187, 1773, 1945
 1340, 1774, 1190, 1189, 1946
 1341, 1944, 1947, 1453, 1776
 1342, 1774, 1946, 1948, 1949
 1343, 1774, 1815, 1606, 1190
 1344, 1774, 1949, 1808, 1871
 1345, 1617, 1659, 1714, 1660
 1346, 1554, 1407, 1406, 1555
 1347, 1036, 1038, 1229, 1032
 1348, 1036, 1032, 1229, 1254
 1349, 1036, 1255, 1254, 1253
 1350, 1019, 1184, 1119, 1033
 1351, 1037, 1085, 1665, 1257
 1352, 1700, 1732, 1482, 1734
 1353, 1107, 1247, 1728, 1329
 1354, 1104, 1098, 1097, 1113
 1355, 1019, 1085, 1124, 1185
 1356, 1015, 1022, 1027, 1032
 1357, 1105, 1246, 1107, 1247
 1358, 1106, 1107, 1097, 1108
 1359, 1756, 1319, 1412, 1505
 1360, 1507, 1644, 1912, 1320
 1361, 1181, 1289, 1180, 1207
 1362, 1286, 1289, 1294, 1750
 1363, 1293, 1181, 1216, 1222
 1364, 1221, 1950, 1295, 1749
 1365, 1221, 1293, 1222, 1211
 1366, 1293, 1222, 1211, 1753
 1367, 1286, 1750, 1294, 1291
 1368, 1286, 1181, 1180, 1295
 1369, 1596, 1464, 1462, 1951
 1370, 1310, 1596, 1866, 1951
 1371, 1455, 1596, 1462, 1458
 1372, 1310, 1814, 1596, 1423
 1373, 1596, 1866, 1871, 1814
 1374, 1509, 1952, 1953, 1912
 1375, 1604, 1596, 1458, 1871
 1376, 1458, 1604, 1561, 1419
 1377, 1200, 1201, 1475, 1556
 1378, 1691, 1707, 1474, 1588
 1379, 1201, 1206, 1194, 1200
 1380, 1473, 1691, 1474, 1475
 1381, 1954,  349,  295,  346
 1382, 1955,   15,  474,  478
 1383, 1147, 1587, 1691, 1406
 1384, 1691, 1406, 1474, 1475
 1385, 1691, 1587, 1588, 1406
 1386, 1475, 1200, 1474, 1206
 1387, 1385, 1370, 1235, 1369
 1388, 1235, 1384, 1370, 1385
 1389, 1235, 1171, 1956, 1186
 1390, 1235, 1804, 1186, 1956
 1391, 1235, 1234, 1804, 1385
 1392, 1957, 1840, 1273, 1958
 1393, 1957, 1843, 1959, 1960
 1394, 1957, 1376, 1428, 1961
 1395, 1957, 1843, 1958, 1959
 1396, 1957, 1376, 1962, 1428
 1397, 1137, 1180, 1247, 1207
 1398, 1180, 1288, 1246, 1287
 1399, 1180, 1246, 1288, 1292
 1400, 1289, 1287, 1180, 1247
 1401, 1355, 1963, 1964, 1374
 1402, 1355, 1933, 1963, 1341
 1403, 1356, 1965, 1357, 1966
 1404, 1356, 1930, 1668, 1358
 1405, 1967,  857,   43,   42
 1406, 1356, 1789, 1547, 1930
 1407, 1503, 1254, 1322, 1326
 1408, 1319, 1756, 1229, 1253
 1409, 1968, 1969, 1970, 1745
 1410, 1968, 1971, 1972, 1745
 1411, 1973, 1968, 1974, 1975
 1412, 1968, 1552, 1973, 1551
 1413, 1551, 1968, 1976, 1974
 1414, 1977, 1974, 1978, 1976
 1415, 1968, 1976, 1977, 1971
 1416, 1900,  642, 1979,  999
 1417, 1980,  815,  816,  817
 1418, 1418, 1420, 1419, 1423
 1419, 1604, 1058, 1379, 1605
 1420, 1604, 1419, 1382, 1213
 1421, 1604, 1815, 1871, 1561
 1422, 1328, 1331, 1330, 1333
 1423, 1871, 1604, 1561, 1458
 1424, 1455, 1315, 1464, 1596
 1425, 1225, 1598, 1419, 1421
 1426, 1054, 1047, 1540, 1051
 1427, 1981, 1982, 1983, 1984
 1428, 1981, 1983, 1985, 1986
 1429, 1981, 1987, 1983, 1988
 1430, 1981, 1983, 1987, 1985
 1431, 1981, 1989, 1143, 1990
 1432, 1991, 1986, 1992, 1981
 1433, 1993, 1991, 1986, 1992
 1434, 1981, 1992, 1991, 1990
 1435, 1405, 1033, 1677, 1689
 1436, 1407, 1410, 1251, 1037
 1437, 1556, 1555, 1474, 1705
 1438, 1554, 1555, 1372, 1184
 1439, 1405, 1555, 1588, 1406
 1440, 1706, 1689, 1555, 1705
 1441, 1405, 1555, 1407, 1184
 1442, 1474, 1705, 1555, 1588
 1443, 1994, 1475, 1559, 1995
 1444, 1201, 1994, 1475, 1559
 1445, 1995, 1475, 1996, 1997
 1446, 1995, 1994, 1998, 1559
 1447, 1995, 1475, 1148, 1996
 1448, 1027, 1227, 1029, 1028
 1449, 1999,  726,  724,  721
 1450, 1015, 1026, 1012, 1013
 1451, 1015, 1026, 1017, 1016
 1452, 1023, 1026, 1662, 1016
 1453, 1416, 1028, 1417, 1667
 1454, 1905, 1026, 1168, 1169
 1455, 1228, 1263, 1026, 1168
 1456, 2000, 1974, 2001, 2002
 1457, 2000, 2003, 2004, 1781
 1458, 2000, 1783, 1780, 2004
 1459, 2000, 2005, 2004, 2006
 1460, 2000, 1780, 1909, 2007
 1461, 2000, 2002, 2004, 2003
 1462, 2000, 1781, 1780, 2007
 1463, 1095, 1094, 2008, 2009
 1464, 1316, 2010, 1646, 1317
 1465, 1079, 1180, 1290, 1246
 1466, 1391, 1104, 1114, 1367
 1467, 1078, 1155, 1079, 1050
 1468, 1076, 1104, 1079, 1114
 1469, 1590, 1796, 1659, 1413
 1470, 1590, 1076, 1078, 1610
 1471, 1114, 1367, 1801, 1391
 1472, 1057, 1058, 1042, 1063
 1473, 1058, 1621, 1793, 1560
 1474, 1307, 1058, 1793, 1715
 1475, 1058, 1793, 1715, 1605
 1476, 1604, 1058, 1560, 1382
 1477, 1371, 1096, 1566, 1094
 1478, 1558, 1565, 1566, 1564
 1479, 1566, 1664, 1094, 2009
 1480, 1567, 1569, 1564, 1565
 1481, 1097, 1107, 1884, 1332
 1482, 1236, 1098, 1018, 1087
 1483, 1018, 1233, 1236, 1234
 1484, 1391, 1367, 1113, 1104
 1485, 1366, 1231, 1023, 1367
 1486, 1015, 1014, 1038, 1013
 1487, 1233, 1113, 1368, 1016
 1488, 1195, 1196, 1197, 1792
 1489, 1109, 1195, 1402, 1285
 1490, 1468, 1731, 1537, 1730
 1491, 1502, 1837, 1326, 1645
 1492, 1319, 1321, 1757, 1756
 1493, 1036, 1251, 1255, 1037
 1494, 2011,  771,    1,   48
 1495, 1307, 1058, 1621, 1793
 1496, 1196, 1285, 1208, 1195
 1497, 1473, 2012, 1478, 2013
 1498, 1688, 1148, 1691, 1475
 1499, 2014, 1936, 1935, 1937
 1500, 1372, 1556, 1403, 1402
 1501, 1554, 1589, 1556, 1406
 1502, 1854, 1677, 1853, 1676
 1503, 1545, 1546, 1162, 1218
 1504, 1106, 1103, 1107, 1359
 1505, 1229, 1471, 1253, 1483
 1506, 1734, 1889, 2015, 2016
 1507, 2017,   93,   57,   94
 1508, 1496, 1254, 1497, 1503
 1509, 1265, 1482, 1485, 1480
 1510, 1483, 1756, 1412, 1505
 1511, 1504, 1486, 1412, 1505
 1512, 1498, 1412, 1504, 1549
 1513, 1412, 1486, 1549, 1417
 1514, 1720, 1160, 1723, 1161
 1515, 1044, 1269, 1433, 1862
 1516, 1512, 1511, 1510, 2018
 1517, 1161, 1447, 1165, 1156
 1518, 1508, 1504, 1512, 1498
 1519, 1132, 1164, 1129, 1135
 1520, 1326, 1837, 1831, 1629
 1521, 1522,  297,  298,  284
 1522, 1319, 1321, 1254, 1322
 1523, 1320, 1322, 1326, 1318
 1524, 1318, 1327, 1326, 1320
 1525, 1496, 1502, 1503, 1500
 1526, 1502, 1326, 1837, 1831
 1527, 1496, 1326, 1831, 1501
 1528, 1492, 1367, 1758, 1803
 1529, 1492, 1758, 1367, 1167
 1530, 1439, 1442, 1443, 1491
 1531, 1447, 1167, 1156, 1161
 1532, 1447, 1723, 1778, 1491
 1533, 1160, 1167, 1723, 1161
 1534, 1160, 1723, 1167, 1725
 1535, 1447, 1725, 1167, 1723
 1536, 1937, 1661, 1660, 1904
 1537, 1659, 1661, 1904, 1660
 1538, 1129, 1661, 1779, 1784
 1539, 2019,  908,  892,  890
 1540, 1130, 1075, 1661, 1660
 1541, 1661, 1343, 1176, 1172
 1542, 1177, 1661, 1660, 1937
 1543, 1661, 1783, 1937, 1177
 1544, 1133, 1362, 1391, 1364
 1545, 1440, 1261, 1489, 1441
 1546, 1492, 1725, 1758, 1167
 1547, 1512, 1718, 1545, 1813
 1548, 1413, 1414, 1132, 1758
 1549, 1891,  884,  883,  888
 1550, 1113, 1366, 1363, 1023
 1551, 1367, 1104, 1114, 1024
 1552, 1492, 1367, 1366, 1167
 1553, 1023, 1368, 1662, 1363
 1554, 1545, 1542, 1547, 1218
 1555, 1900,  639, 2020, 1902
 1556, 1590, 1659, 1078, 1132
 1557, 1023, 1113, 1016, 1368
 1558, 1812, 1545, 1811, 1813
 1559, 1401, 1469, 1468, 1195
 1560, 1418, 1604, 1382, 1379
 1561, 1606, 1604, 1605, 1793
 1562, 1793, 1727, 1621, 1792
 1563, 1058, 1560, 1063, 1621
 1564, 1604, 1058, 1605, 1793
 1565, 1604, 1058, 1793, 1560
 1566, 1022, 1118, 1103, 1108
 1567, 1029, 1799, 1667, 1416
 1568, 1012, 1013, 1168, 1256
 1569, 1168, 1256, 1574, 1740
 1570, 1545, 2021, 1548, 1717
 1571, 1482, 1817, 2022, 1484
 1572, 1879, 1716, 1397, 1544
 1573, 1481, 1732, 1485, 2023
 1574, 1090, 1265, 1259, 1480
 1575, 1481, 1259, 1090, 1845
 1576, 2024, 1321, 2025, 1255
 1577, 1480, 1481, 1732, 1485
 1578, 1018, 1233, 1171, 1016
 1579, 1014, 1186, 1018, 1087
 1580, 1011, 1170, 1171, 2008
 1581, 2026, 1235, 1384, 1169
 1582, 1171, 2008, 1956, 1186
 1583, 1171, 1921, 1170, 1169
 1584, 1235, 1956, 1171, 2026
 1585, 1171, 1921, 1169, 2026
 1586, 1497, 1417, 1412, 1549
 1587, 1514, 1504, 1512, 1508
 1588, 1504, 1511, 1512, 1549
 1589, 1542, 1547, 1668, 1548
 1590, 1662, 1263, 1260, 1922
 1591, 1266, 1930, 1668, 1547
 1592, 1482, 2027, 1913, 1734
 1593, 1504, 1549, 1486, 1511
 1594, 1542, 1668, 1266, 1543
 1595, 1700, 1486, 1482, 1485
 1596, 1656, 1515, 1914, 1701
 1597, 1308, 1470, 1401, 1403
 1598, 1066, 1065, 1564, 1308
 1599, 1060, 1353, 1528, 1354
 1600, 1208, 1528, 1353, 1704
 1601, 1403, 1373, 1065, 1564
 1602, 1574, 1471, 1483, 1818
 1603, 1062, 1065, 1309, 1096
 1604, 1356, 1547, 1966, 1668
 1605, 1356, 1358, 1668, 1966
 1606, 2028, 2029,  517,  163
 1607, 1266, 1789, 1930, 1547
 1608, 1627, 1626, 2028,  163
 1609, 1266, 1485, 1930, 1259
 1610, 1481, 1930, 1485, 1259
 1611, 1356, 1791, 1930, 1931
 1612, 1930, 1931, 2023, 1358
 1613, 1517, 1846, 1540, 1950
 1614, 2030,   50,  111,   81
 1615, 1265, 1263, 1575, 1090
 1616, 1563, 1517, 1950, 2031
 1617, 2032,  264,  261,  263
 1618, 2033, 2034, 2035, 2036
 1619, 1457, 1517, 1419, 1561
 1620, 1221, 1563, 1517, 1950
 1621, 1419, 1598, 1541, 1457
 1622, 1054, 1305, 1598, 1225
 1623, 1541, 1517, 1846, 1540
 1624, 1057, 1062, 1065, 1060
 1625, 1057, 1064, 1061, 1060
 1626, 1528, 2037, 2038, 1353
 1627, 2039,   55,   59,   60
 1628, 1528, 2037, 1196, 1527
 1629, 2040,  454,  450,  491
 1630, 1528, 2037, 1223, 2038
 1631, 2041, 1899, 1348,  114
 1632, 1208, 1372, 1402, 1704
 1633, 2042,  433,  434,  431
 1634, 1208, 1064, 1309, 1528
 1635, 1064, 1527, 1063, 1223
 1636, 1119, 1121, 1184, 1019
 1637, 1824, 1820,  205,  135
 1638, 1824, 2043,  205, 2044
 1639, 1824, 2045, 2043, 1826
 1640, 2046,  218, 2047, 2048
 1641, 2049, 2050, 2051, 2052
 1642, 2053,  485,  482,  490
 1643, 2054,  256,  520,  257
 1644, 1229, 1756, 1483, 1253
 1645, 1824,  130,  205, 2043
 1646, 2055,  258,  256,  246
 1647,  130, 1824, 2045, 2043
 1648, 1824, 2043, 2044, 1823
 1649, 2056,  193,  188,  194
 1650, 2057,  149,  162,  150
 1651, 1824, 1826, 1821, 2058
 1652, 1824, 1826, 2043, 1823
 1653, 2059,  726,  719,  871
 1654, 2060,  148,  146,  138
 1655, 2061,  264, 2062,  262
 1656, 2063,  248,  224,  233
 1657, 1205, 2064, 1744, 1743
 1658, 1859,  277,  445,  453
 1659, 2065,  278,  323,  320
 1660, 2066,  672,  676,  681
 1661, 2067,  451,  450,  444
 1662, 1069,  350,  349,  348
 1663, 1744, 1573, 1202, 1743
 1664, 1559, 1919, 1470, 1744
 1665, 2068,  305,  306,  302
 1666, 1558, 1559, 1919, 1470
 1667, 2069,  139,  144,  140
 1668, 1205, 1201, 1744, 2064
 1669, 2028, 2070,  238,  390
 1670, 1744, 1919, 1470, 1573
 1671, 1208, 1195, 1209, 1196
 1672, 2071,  101,  139,  106
 1673, 1372, 1403, 1373, 1065
 1674, 1588, 2072, 1707, 1886
 1675, 1057, 1307, 1063, 1209
 1676, 2073, 2074,  442, 2075
 1677, 1057, 1064, 1209, 1063
 1678, 2029,  307,  311,  308
 1679, 1572, 1308, 1066, 1564
 1680, 1403, 1470, 1373, 1564
 1681, 2076,  978,  542,   10
 1682, 2077, 2078,  425,  421
 1683, 2079,  398,  396,  391
 1684, 1170, 1168, 1905, 1740
 1685, 1233, 1171, 1016, 1169
 1686, 2080, 2081, 2082, 2083
 1687, 1453,  327, 1947,  331
 1688, 2084,  338,  412,  394
 1689, 2085,  435,  430,  429
 1690, 1533, 1740, 1170, 2086
 1691, 1684, 2028, 1626, 2029
 1692, 1689, 1856, 1677, 2087
 1693, 2088,  687,  696, 2089
 1694, 1171, 2090, 1170, 1921
 1695, 2091, 2092, 2093, 2094
 1696, 1533, 1737, 1257, 2095
 1697, 2096, 2097, 2098,  472
 1698, 2099,  493,  476,  474
 1699, 1124, 1309, 1121, 1184
 1700, 1062, 1309, 1123, 1096
 1701, 1108, 1120, 1448, 1029
 1702, 1119, 1033, 1854, 1677
 1703,  519, 2100,  489,  488
 1704, 2101,  468,  472,  469
 1705, 2102, 1875,  287,  500
 1706, 2103,  489,  484,  519
 1707, 2100,  488,  452,  489
 1708, 2028,  517, 2029,  387
 1709, 1031, 1033, 1119, 1677
 1710, 1121, 1119, 1854, 1240
 1711, 1464, 1488, 1577, 1314
 1712, 1464, 1577, 1463, 1683
 1713, 1250,  262,  266,  203
 1714, 1310, 1596, 1814, 1866
 1715, 1477, 1475, 1997, 1709
 1716, 2104,  291,  290,  347
 1717, 1012, 1026, 1169, 1168
 1718, 1598, 1596, 1315, 1455
 1719, 1072, 1268, 1795, 1073
 1720, 1146, 1411, 2105, 1410
 1721, 2106,  555,  564,  569
 1722, 1072, 1696, 2107, 2108
 1723, 2109, 2110, 2111, 2112
 1724, 1267, 1268, 1072, 1073
 1725, 2113,  763, 1881,  766
 1726, 1267, 1074, 1072, 1270
 1727, 1296, 1306, 1299, 1298
 1728, 1296, 1175, 1466, 1431
 1729, 1619, 1296, 1306, 1532
 1730, 1306, 1619, 1487, 1305
 1731, 2114,  630,  643,  631
 1732, 1625,  531,  592,  562
 1733, 1304, 1306, 2115, 1488
 1734, 1315, 1305, 1487, 1598
 1735, 1305, 1053, 1431, 1225
 1736, 1937, 1714, 1935, 1904
 1737, 2116,  715,  694,  692
 1738, 1904, 1937, 1714, 1660
 1739, 1937, 2117, 1936, 2118
 1740, 2119, 2120, 2121, 2122
 1741, 2123,  754,  750,  746
 1742, 1661, 1937, 1784, 1904
 1743, 1937, 1783, 1639, 1177
 1744, 1937, 1639, 2124, 2118
 1745, 2016, 2125, 2126, 2127
 1746, 2088,  688,  687,  993
 1747, 1937, 2014, 2117, 2124
 1748, 1661, 1784, 1937, 1783
 1749, 1405, 1033, 1258, 1678
 1750, 2091,  585,  573,  572
 1751, 2128, 1003,  564,  596
 1752, 1254, 1322, 1258, 1503
 1753, 1033, 1258, 1678, 1031
 1754, 1409,   21,  490,   20
 1755, 2129,  652,  651,  653
 1756, 1678, 1031, 1677, 1033
 1757, 1148, 1690, 1145, 1146
 1758, 1645, 1503, 1586, 1322
 1759, 1172, 1430, 1177, 1178
 1760, 2130, 2131, 2132, 2133
 1761, 1172, 1173, 1174, 1431
 1762, 2134, 2025, 2135, 2136
 1763, 2137,   23,  519,   22
 1764, 2138,  677,  678,  682
 1765, 2139,  561,  592,  595
 1766, 1661, 1172, 1056, 1343
 1767, 1052, 1048, 1268, 1173
 1768, 2140,  717, 2112, 2141
 1769, 2102, 1875, 1724,  287
 1770, 2142,  538,  534,  535
 1771, 2143, 2144, 2145,  614
 1772, 1057, 1066, 1308, 1065
 1773, 1047, 1155, 1295, 1178
 1774, 1803, 1535, 1492, 1367
 1775, 2146,  830,  827,  983
 1776, 1978,  194,  188,  178
 1777, 1258, 1031, 1503, 1678
 1778, 1029, 1244, 1799, 1416
 1779, 2147,  739,  737,  727
 1780, 1055,  750,   25,  685
 1781, 1389,  969,  933,  970
 1782, 1120, 1118, 1241, 1237
 1783, 2148,   62, 2149,   75
 1784, 1039, 1045, 1044, 1433
 1785, 2150, 2038, 2151, 2152
 1786, 2140, 2153, 2112,  716
 1787, 1352, 1354, 1060, 1359
 1788, 1044, 1045, 1270, 1862
 1789,  836,  835, 2154,  829
 1790, 2155,   68,   73,  169
 1791, 1086, 1062, 1123, 1096
 1792, 1105, 1114, 1107, 1246
 1793, 2140, 2153,  716,  718
 1794, 1071, 1074, 1697, 1694
 1795, 2156,  806,  816,  815
 1796, 1364, 1391, 1132, 1367
 1797, 2140, 2153,  718, 2157
 1798, 1133, 1591, 1697, 1365
 1799, 1590, 1114, 1076, 1610
 1800, 2158,  819,  893,  875
 1801, 1249,   28,  199,  202
 1802, 2159, 2160,  874, 2161
 1803, 1659, 1660, 1904, 1714
 1804, 2162,  808,  805,  807
 1805, 1590, 1131, 1078, 1076
 1806, 1356, 1790, 1791, 1931
 1807, 2163,  858,  859,  845
 1808, 2146,  830,  776,  827
 1809, 2164,  785,  796,  791
 1810, 1545, 1812, 1811, 1279
 1811, 1355, 1790, 1356, 1931
 1812, 2165,  752,  744,  751
 1813, 2166,  970,  968,  965
 1814, 1859,  501,  445,  277
 1815, 2140,  717, 2141, 2167
 1816, 2151,  532, 2168, 2169
 1817, 2170,    6,  348,  502
 1818, 1970,  492,  173,   34
 1819, 1262, 1441, 1789, 1553
 1820, 2033, 2171, 2172, 2173
 1821, 2174,  895,  893,  821
 1822, 2175,  900,  903,  901
 1823, 2176,  914,  912,  902
 1824, 1441, 1261, 1838, 1444
 1825, 1693,   29,  196,  199
 1826, 2177, 1107, 1246, 1728
 1827, 2178,  831,  830,  829
 1828,  345, 2179,  343, 2180
 1829, 1912, 2109, 2181, 2182
 1830, 1242, 1217, 1238, 1239
 1831, 2183,  269,  204,  265
 1832, 1095, 1805, 2008, 1186
 1833, 1620, 2184, 2185, 2186
 1834, 2008, 1805, 1956, 1186
 1835, 1171, 1170, 2090, 2008
 1836, 1321, 2025, 1255, 1643
 1837, 2187,    5,  532,  535
 1838, 2148, 2188, 2189, 2190
 1839, 1011, 1737, 1122, 1257
 1840, 2191, 1011, 1737, 1122
 1841, 2192,  287,  294,  286
 1842, 2008, 1186, 1122, 1094
 1843, 2193,   47,   48,   52
 1844, 1095, 1186, 2008, 1094
 1845, 1171, 1956, 2008, 2090
 1846, 1018, 1234, 1087, 1186
 1847, 1023, 1662, 1264, 1260
 1848, 1030, 1667, 1029, 1669
 1849, 1077, 1098, 1105, 1104
 1850, 2180, 1451,  342, 1452
 1851, 1127, 1131, 1133, 1591
 1852, 2194,   17,  493,   16
 1853, 1086, 1094, 1093, 1096
 1854, 2195,  477,  493,  483
 1855, 2196, 2197, 2198, 2199
 1856, 2152,  346,  292,  347
 1857, 2084,  413, 2200, 2201
 1858, 1086, 1085, 1087, 1094
 1859, 1086, 1126, 1093, 1095
 1860, 2202,  485,  490,  484
 1861, 2203, 2082, 2204, 2205
 1862, 1724,  347,  292,  291
 1863, 2206, 2040,  491,  453
 1864, 1097, 1107, 1114, 1884
 1865, 1095, 1087, 1186, 1094
 1866, 1105, 1247, 1079, 1246
 1867, 2207,  353,  352,  354
 1868, 1320, 1942, 2208, 1941
 1869, 1515, 1509, 1953, 1912
 1870, 2209, 2210,  338,  337
 1871, 2103,   22,  519,  484
 1872, 1507, 1912, 1644, 1509
 1873, 1496, 1319, 1326, 1508
 1874, 1507, 1644, 1508, 1509
 1875, 2211, 2212, 2213, 2214
 1876, 2215,  491, 2040,  450
 1877, 1505, 1913, 1756, 1757
 1878, 1067,  348,    7,  355
 1879, 1846, 1916, 2071, 1518
 1880, 1846, 1916, 1847, 2216
 1881,  380, 2217,  383,  381
 1882, 2218,  435,  429,  426
 1883, 2219,    7,    8,  355
 1884, 2220,  679,  677,   21
 1885, 2195, 2194,   17,  493
 1886, 1846, 1950, 2221, 1540
 1887, 1517, 1950, 2031, 1846
 1888, 2076,   11,  379,   10
 1889, 2222, 2211, 2223, 2224
 1890, 2225,  380,  384,  381
 1891, 2226,  544,  557,  559
 1892, 2225,  381,  384,  478
 1893, 2227,  661,  663,  649
 1894, 1600,  280,  301,  297
 1895, 1541, 1461, 1916, 1518
 1896, 1155, 1056, 1051, 1050
 1897, 2228,  379,  525,   10
 1898, 1047, 1155, 1178, 1051
 1899, 2195, 2194, 2229,   17
 1900, 1040, 1063, 1382, 1213
 1901, 1545, 1717, 1788, 2021
 1902, 1086, 1096, 1085, 1094
 1903, 1015, 1021, 1020, 1014
 1904, 2230,    6,    7,  348
 1905, 2231,  558,  564,  555
 1906, 2232,   18, 1005,   19
 1907, 2233, 2099, 2195, 2234
 1908, 1124, 1096, 1371, 1085
 1909, 1371, 1096, 1094, 1085
 1910, 2235,  537,    7,  534
 1911, 1096, 1373, 1371, 1564
 1912, 2236, 2237, 1847, 1525
 1913, 2238,    8,  376,  355
 1914, 2239, 2240, 1993, 1986
 1915, 2241,    9,   10,  525
 1916, 2236, 1540, 1847, 2221
 1917, 2236, 2242, 2243, 2221
 1918, 2236, 1714, 1936, 1178
 1919,  381, 2225, 2244,  478
 1920, 2245,    9,  376,    8
 1921, 2219,  537,    8,    7
 1922, 2065, 2246, 2247,  323
 1923, 2236, 1714, 2243, 2248
 1924, 2249,  595,  598,  596
 1925, 2250,  545, 2251,  543
 1926, 2236, 2248, 2243, 2242
 1927, 2252,   24,  488,   23
 1928, 2253,  484,  490,   21
 1929, 1024, 1029, 1108, 1332
 1930, 1379, 1435, 1601, 1436
 1931, 1362, 1363, 1370, 1368
 1932, 1024, 1113, 1367, 1104
 1933, 1362, 1131, 1369, 1697
 1934, 1169, 1235, 1384, 1233
 1935, 2170,  349,  502,  348
 1936, 2254,  993,  611,  688
 1937, 1362, 1370, 1697, 1369
 1938, 1994, 2064, 1201, 1747
 1939, 1994, 1477, 1747, 1201
 1940, 1954,  349,  346,  502
 1941, 1055, 2255, 2256,    2
 1942, 2257,   46,   47,   51
 1943, 2258,  446,  447,  441
 1944, 1211, 1753, 2259, 2260
 1945, 2261,  576, 2262,  586
 1946, 2263,    5,    6,  502
 1947, 2264,  400,  410,  441
 1948, 1475, 1994, 1997, 1995
 1949, 1877,  499,  100,   91
 1950, 1947,  327,  324,  326
 1951, 1994, 2265, 2064, 1997
 1952, 2266,  741, 2267,  733
 1953, 1993,  462,  464,  456
 1954, 2268,  457,  456,  458
 1955, 1994, 1998, 2265, 1997
 1956, 1724,  292,  287,  291
 1957, 1070,  350,  354,  352
 1958, 2085,  429,  430,  427
 1959, 1477, 1994, 1997, 1475
 1960, 2269,  101,  106,  105
 1961, 2266, 2270, 2271,  646
 1962, 2054,  257, 2272,  246
 1963, 2068,  306,  305,  324
 1964, 2273,  409,  406,  408
 1965, 1995, 1559, 1998, 2274
 1966, 1591, 1134, 1127, 1080
 1967, 2266, 2275,  646,  740
 1968, 2276, 2024, 2277, 2278
 1969, 1127, 1128, 1134, 1158
 1970, 2279,  297,  301,  303
 1971, 2280,  288,  283,  282
 1972, 1631, 1158, 1135, 1159
 1973, 1631, 1159, 1135, 1634
 1974, 1874,  100,   99,  279
 1975, 2263,  346,    5,  502
 1976, 2067,  444,  443,  451
 1977,  268, 2281, 2256, 1861
 1978, 2185,  505,  293,  503
 1979, 2121,   22,  677,  680
 1980, 2017,   57, 2282,   94
 1981, 1631, 1129, 1128, 1909
 1982, 2283, 2271, 2266, 2270
 1983, 1655, 2284, 1513, 1510
 1984, 1779, 1129, 1128, 1661
 1985, 1909, 1779, 1784, 1129
 1986, 1130, 1661, 1128, 1129
 1987, 2285,  658,   20,   19
 1988, 2286, 2078, 2287,  422
 1989, 2288, 2289,  654,  653
 1990, 2089,  696,  990,  687
 1991, 1907, 1633, 1908, 1415
 1992, 2209,  336,  337,  334
 1993, 1633, 1784, 1632, 1908
 1994, 1013, 1014, 1038, 1011
 1995, 2290,   20,  490,  482
 1996, 1332, 1241, 1108, 1107
 1997, 2291, 2292, 2129, 2293
 1998, 2294,  669,  664,  659
 1999, 2295, 2251,  545,  539
 2000, 1799, 1242, 2296, 1239
 2001, 1799, 2296, 1242, 1245
 2002, 1362, 1133, 1131, 1697
 2003, 1799, 1332, 1245, 1244
 2004, 1799, 1416, 1242, 1280
 2005, 2097,   19,  481,  497
 2006, 1416, 1417, 1280, 1667
 2007, 2229,   18,  483,   17
 2008, 1879, 1416, 1242, 1244
 2009, 1416, 1417, 1454, 1544
 2010, 1416, 1280, 1417, 1544
 2011, 1879, 1880, 1397, 1881
 2012, 2195,  477, 2297, 2234
 2013, 2298,  559,  560,  546
 2014, 2225,  380,   13,  384
 2015, 1244, 1416, 1448, 1879
 2016, 1086, 1020, 1123, 1098
 2017, 1028, 1029, 1416, 1227
 2018, 1011, 1533, 1252, 1256
 2019, 1252, 1256, 1818, 1253
 2020, 1014, 1038, 1011, 1085
 2021, 1254, 1322, 1321, 1255
 2022, 1252, 1410, 2095, 1257
 2023, 2299,  597,  598,  595
 2024, 1955,  648,   15,   14
 2025, 2066,  681, 2300,  672
 2026, 2245, 2301, 2302,  374
 2027, 1081,  494,   11,   12
 2028, 1407, 1185, 1411, 1410
 2029, 1556, 1200, 1474, 1475
 2030, 2303, 2304,  978,  544
 2031, 1251, 1255, 1037, 1410
 2032, 2217,   12,  380,  494
 2033, 1554, 1407, 1555, 1184
 2034, 1038, 1085, 1037, 1257
 2035, 2239,  461,  463,  462
 2036, 1744, 2265, 1994, 1998
 2037, 1757, 2109, 2305, 2278
 2038, 1894, 2306, 2307, 1855
 2039, 2225,  384,   14,  478
 2040, 2308,  494,  379,   11
 2041, 2309, 2310, 1529, 2311
 2042, 1407, 1037, 1033, 1185
 2043, 1052, 1173, 1053, 1048
 2044, 1048, 2312, 2313, 1337
 2045, 1048, 1432, 2313, 2312
 2046, 1048, 1862, 2313, 1432
 2047, 1848, 1538, 2211, 2222
 2048, 2223, 2213, 2308,  378
 2049, 2223,  382, 2217,  383
 2050, 2314,  567,  666,  660
 2051, 1048, 1337, 1268, 1173
 2052, 2315, 2316, 2195, 2229
 2053, 1570, 1202, 1537, 1470
 2054, 1570, 2317, 1743, 2318
 2055, 2319,  545,    8,  537
 2056, 1570, 2320, 1568, 1537
 2057, 2321, 2322,  620, 1883
 2058, 2238, 2302, 2207,  376
 2059, 2194,  493,  474,   16
 2060, 1570, 2318, 1571, 2320
 2061, 2213,  378,  377,  379
 2062, 2323, 2324, 1083, 1850
 2063, 2324, 1083, 1850, 1849
 2064,   12,   13, 2225,  380
 2065, 2213,  377,  378,  364
 2066,  674, 2325,  671, 2326
 2067, 1955,   16,  474,   15
 2068, 2228,  375,  525,  379
 2069, 2321, 1836,  601,  621
 2070, 1849, 1857, 2324, 1479
 2071, 2194,  975,   17,   16
 2072, 1849, 1084, 1851, 1199
 2073, 2321,  601, 1836, 1834
 2074, 2212,  363,  377,  364
 2075, 1849, 2324, 2327, 1850
 2076, 2232,   19,  497,   18
 2077, 1831, 2321, 1834, 1883
 2078, 1851, 1849, 1850, 1084
 2079, 2328, 2329, 2272,  255
 2080, 1339, 1004, 1347, 1010
 2081, 1084, 1851, 1082, 1850
 2082, 2330, 1849, 1850, 1851
 2083, 1059, 1572, 1568, 1308
 2084, 1554, 1185, 1373, 1557
 2085, 1554, 1556, 1559, 1373
 2086, 2331,  675,  659,  668
 2087, 1124, 1371, 1096, 1373
 2088, 1225, 1226, 1048, 1630
 2089, 2308,  378,  379,  494
 2090, 2223,  383,  370,  382
 2091, 2306, 1855, 1885, 1886
 2092, 2316,   18,  497,  483
 2093, 2195, 2234, 2099,  477
 2094, 1339, 1342, 2332, 1010
 2095, 1808, 2333, 1949, 2334
 2096, 1871, 1863, 2335, 1949
 2097, 1362, 1370, 1233, 1368
 2098, 1949, 1863, 2335, 2333
 2099, 2336,  582,  587,  586
 2100, 1808, 1809, 2337, 1775
 2101, 2102,  294,  287,  292
 2102, 2338,  357,  363,  358
 2103, 2339,  289,  280,  288
 2104, 1808, 1866, 1814, 1871
 2105, 1894, 1885, 2306, 1855
 2106, 2104,  290,  291,  279
 2107, 2340, 1436, 2341, 1603
 2108, 2337, 1814, 1866, 2342
 2109, 2343,  676,  700,  702
 2110, 1808, 1814, 1866, 2337
 2111, 1863, 1808, 1866, 1868
 2112, 2252,  491,  488,   24
 2113, 2344, 2345, 1741, 1163
 2114, 1869, 2068, 2196, 2198
 2115, 1869, 1458, 1870, 1519
 2116, 1869, 1458, 1519, 1864
 2117, 1055,  685,   25,   24
 2118, 2346,  450,  452,  488
 2119, 1863, 1808, 1868, 2333
 2120, 2347,  246,  402,  404
 2121, 1458, 1870, 1871, 1863
 2122, 1869, 1864, 2348, 2196
 2123, 2349,  271,  274,  276
 2124, 2215,  450,  488,  491
 2125, 1155, 1295, 1178, 1290
 2126, 1137, 1179, 1207, 1247
 2127, 2040,  450,  454,  444
 2128,  272,  273, 2350,  267
 2129, 2351,  254,  229,  228
 2130, 1079, 1247, 1180, 1246
 2131, 1758, 1160, 1167, 1725
 2132, 1267, 1270, 1234, 1369
 2133, 1345, 1347, 1339, 2352
 2134, 2353,    1,  290,   99
 2135, 1796, 1659, 1617, 1590
 2136,   48,    1, 2193,  499
 2137, 2306, 1856, 2354, 2355
 2138, 2356,  231,  211,  136
 2139, 1355, 1964, 1963, 1357
 2140, 1052, 1343, 1075, 1056
 2141, 2120,  680,  684,  683
 2142, 1342, 2357,  899,  850
 2143, 1267, 1269, 1044, 1270
 2144, 2206,   25,  491,   24
 2145, 2358,   29,   28, 1000
 2146, 1570, 1202, 2317, 1537
 2147, 2359,   69,   68,  167
 2148, 2360,   35,  492,   34
 2149, 2361,  195,  219,  221
 2150, 1401, 1202, 1537, 1204
 2151, 1278, 1284, 1109, 2362
 2152, 2363,  970,  965, 1000
 2153,  204,   27, 2183,  202
 2154, 2364,  969,   28,   27
 2155, 2282,   94,   57,   51
 2156, 1401, 1568, 1537, 1470
 2157, 2365, 2366, 2367,  838
 2158, 1208, 1064, 1196, 1209
 2159, 1202, 1194, 1191, 1200
 2160, 2368, 2189,  498,   62
 2161, 1204, 1202, 1194, 1191
 2162, 2369,  884,  892,  891
 2163, 2370,  965,   30,   29
 2164, 1179, 1359, 1207, 1247
 2165, 2363, 1000,  965,   29
 2166,  204, 2371,   27,   26
 2167, 1037, 1252, 1257, 1410
 2168, 2002, 2372,  186, 2373
 2169, 1554, 1406, 1407, 1589
 2170, 2374,   98,   97,   93
 2171, 2372,  186, 2373,  187
 2172, 2045,  184,   89,  130
 2173, 2375,   64,   43,   56
 2174, 1371, 1085, 1122, 1665
 2175, 1012, 1011, 1256, 1170
 2176, 1170, 1737, 2086, 2191
 2177, 1908, 2014, 1784, 2376
 2178, 1755,   44,   53,   56
 2179, 2377,   44,   56,   43
 2180, 2378,  966,  963,  971
 2181, 1036, 1032, 1031, 1033
 2182, 1557, 1185, 1373, 1371
 2183, 1236, 1126, 1234, 1077
 2184, 2379,   44,  829,   45
 2185, 2149,   64,   58,   62
 2186, 1172, 1052, 1053, 1051
 2187, 2149,   75,   62,   58
 2188, 2380, 2034, 2035, 2381
 2189, 1172, 1177, 1056, 1178
 2190, 1221, 1293, 1211, 1749
 2191, 2382,   81,   80,   75
 2192, 2306, 2383, 2354, 2295
 2193, 2384,  191,  190,  195
 2194, 2306, 1886, 1856, 1855
 2195, 2385,   70,   72,   71
 2196, 2386,  496,   71,   67
 2197, 1063, 1215, 1212, 1210
 2198, 1210, 1207, 1223, 1222
 2199, 1208, 1528, 1704, 1196
 2200, 1061, 1207, 1354, 1223
 2201, 1908, 2149, 1939, 2382
 2202, 1379, 1336, 1059, 1042
 2203, 2387,  936,  939,  946
 2204, 2388, 1249, 2183,  202
 2205, 2389,   82,  114,  115
 2206, 2390,   83,   77,   82
 2207, 1572, 1334, 1066, 1807
 2208, 1210, 1215, 1223, 1063
 2209, 1746,   33,  173,  524
 2210, 1619, 1487, 2391, 1532
 2211, 1772, 1313, 1311, 1619
 2212, 2392,  217,  216,  215
 2213, 1487, 1619, 2391, 1311
 2214, 1530, 2391, 1619, 2393
 2215, 1680, 2115, 1488, 1463
 2216, 1296, 1532, 1619, 1431
 2217, 1619, 1772, 1421, 1630
 2218, 1151, 1152, 1149, 1602
 2219, 2061, 2032,  264,  261
 2220, 1496, 1831, 1502, 1500
 2221, 2359,   67,   68,   69
 2222,  127, 2394, 2395,  126
 2223, 1258, 1586, 1678, 1503
 2224, 1251, 1254, 1322, 1258
 2225, 1251, 1322, 1254, 1255
 2226, 2373,  509,  187,  186
 2227, 2392,  194,  215,  216
 2228, 1320, 1508, 1319, 1507
 2229, 1318, 1317, 1316, 1645
 2230, 1251, 1258, 1322, 1586
 2231, 2396,  215,  509,  206
 2232, 1147, 1251, 1322, 1586
 2233, 2397,  171,  172,  492
 2234, 1316, 1322, 1645, 1586
 2235, 1108, 1107, 1097, 1332
 2236, 2389,   83,   82,  115
 2237, 2398,   90,  184,  185
 2238, 1237, 1676, 1119, 1240
 2239,   86, 2171, 2399, 2400
 2240, 1037, 1255, 1252, 1410
 2241, 2172, 2389,  522,   83
 2242, 1106, 1121, 1103, 1359
 2243, 2401,  131,  132,  133
 2244, 1771,  495,  213,  234
 2245, 2043,  512,  130,  207
 2246, 2389,  522,   83,  115
 2247, 1448, 1331, 1330, 1241
 2248, 2394,  128,  126,  127
 2249, 1865, 1863, 1462, 1596
 2250, 1106, 1240, 1333, 1330
 2251, 1332, 1331, 1729, 1243
 2252, 1241, 1332, 1448, 1331
 2253, 1328, 1332, 1331, 1729
 2254, 2036, 2385,   66,   70
 2255, 1107, 1332, 2402, 1884
 2256, 1332, 1244, 1448, 1243
 2257, 1821,  135,  129,  134
 2258, 2004, 2045, 2403, 2404
 2259, 2395,  522,  127,  527
 2260, 1613, 1326, 1320, 1508
 2261, 1820,  205,  135,  209
 2262, 1509, 1514, 2405, 1644
 2263, 1513, 1509, 1514, 2405
 2264, 1628, 1508, 1613, 1514
 2265, 1819, 1821, 1826, 2406
 2266, 2407, 2408, 2409, 2048
 2267, 1507, 1757, 1320, 1912
 2268, 1968, 2410, 1745, 1970
 2269,  314, 2411, 2029,  387
 2270, 2412, 2413, 2051, 2050
 2271, 2414,  213,  209,  211
 2272, 1327, 1613, 1326, 1320
 2273, 1824,  129,  135,  205
 2274, 1644, 1320, 2415, 1912
 2275, 2394,  115,  128,  127
 2276, 2403,  184,  130,  512
 2277, 1310, 1596, 1951, 1464
 2278, 1313, 1619, 1421, 1598
 2279, 1313, 1314, 1310, 1311
 2280, 1420, 2416, 1312, 1597
 2281, 2417, 1820, 1766, 1822
 2282, 2417,  137,  135,  134
 2283, 2372,  187, 2373,  178
 2284, 2418, 2349,  274,  440
 2285, 1420, 1435, 1421, 1772
 2286, 1419, 1458, 1455, 1457
 2287, 1457, 1456, 1461, 1518
 2288, 1457, 1519, 1458, 1456
 2289, 2063,  248,  233,  250
 2290, 2417,  133,  136,  134
 2291, 1925,  152,  154,  156
 2292, 1310, 1951, 2419, 1314
 2293, 2420, 2421, 2422, 1797
 2294, 2423, 2424, 2375, 2425
 2295, 1310, 1464, 1951, 1314
 2296, 1458, 1864, 1456, 1519
 2297, 2426,  208,  207,  212
 2298, 2361, 2427,  219,  195
 2299,  126, 1824,  129,  128
 2300, 1863, 2335, 1870, 1871
 2301, 2428,  226,  229,  227
 2302, 2429, 2430, 2240, 2222
 2303, 2407, 2048, 2426, 2408
 2304, 2414,  211,  209,  137
 2305, 2431, 1992, 2432, 2433
 2306, 2434,  117,  123,  131
 2307, 1863, 1864, 1869, 2196
 2308, 2033, 2171, 2400, 2399
 2309, 2435, 1847, 2216, 2436
 2310, 2437, 1870, 2279, 1869
 2311, 1863, 1462, 1596, 1458
 2312, 1764,  495,  234,  232
 2313, 2051,  145,  143,  504
 2314, 1458, 1870, 1519, 1561
 2315, 1109, 1276, 1469, 1112
 2316, 1261, 1262, 1441, 1259
 2317, 2409,  214,  224,  212
 2318, 1556, 1402, 1200, 1403
 2319, 2414,  137,  136,  211
 2320, 1771,  211,  234,  213
 2321, 2438, 2439, 2282,   54
 2322, 1109, 1283, 2440, 1285
 2323, 1981, 1983, 1982, 2441
 2324, 1805, 1635, 2009, 2442
 2325, 1403, 1559, 1470, 1202
 2326, 1168, 1740, 1170, 1256
 2327, 1206, 1200, 1474, 1198
 2328, 1589, 1475, 1556, 1406
 2329, 1556, 1559, 1475, 1589
 2330, 1278, 1282, 1193, 1284
 2331, 1011, 1085, 1257, 1122
 2332, 2443,  829,  983,   45
 2333, 1969, 2444, 1745, 2384
 2334, 1289, 1247, 1329, 1287
 2335, 1207, 2445, 1223, 1222
 2336, 2268, 2433,  457, 2432
 2337, 2004, 2002, 2404, 2003
 2338, 2446,  964,  974,   34
 2339, 2447,   82,   77,   76
 2340, 1879, 1416, 1454, 1544
 2341, 1335, 1045, 1862, 1635
 2342, 1207, 1354, 1360, 1359
 2343, 2148,   75,   76,   62
 2344, 1552,  168,  170,  169
 2345, 2448,  529, 2449,  369
 2346, 1363, 1961, 1386, 1387
 2347, 1328, 1332, 1729, 2402
 2348, 1181, 1872, 1222, 1753
 2349, 2372,  178, 1551,  182
 2350, 2447,  114,   82,   80
 2351, 1745,  175,  174,  190
 2352, 2373,  194,  178,  187
 2353, 1286, 1287, 1289, 1750
 2354,   85,   84, 2036,   86
 2355, 1079, 1246, 1290, 1610
 2356, 1079, 1246, 1610, 1114
 2357, 1841, 2176, 2450, 2451
 2358, 1418, 1225, 1419, 1421
 2359, 2410,  173,  172,  174
 2360, 1978,  188,  183,  178
 2361, 1551,  183,  170,  182
 2362, 2452, 2453, 2431, 2454
 2363, 1652, 1095, 1270, 1805
 2364, 1441, 1790, 1791, 1789
 2365, 1931, 1791, 1375, 1790
 2366, 1774, 1949, 1815, 1946
 2367, 1774, 1775, 1606, 1808
 2368, 2385,   71,   72,   73
 2369, 1221, 1517, 1563, 1213
 2370, 2455, 2456,   39, 2457
 2371, 1726, 1188, 1190, 1138
 2372, 1774, 1189, 1776, 1948
 2373, 2282,   57,   54,   51
 2374, 1190, 1187, 1188, 1607
 2375, 1639, 1825, 1783, 2124
 2376, 1606, 1190, 1793, 1605
 2377, 1190, 1607, 1188, 1730
 2378, 1190, 1605, 1607, 1730
 2379, 1306, 2458, 2459, 1298
 2380, 2460,  862,  864,  861
 2381, 2457,  973,   40,   39
 2382, 1115,   31, 1116,   32
 2383, 2426,  212, 2408,  222
 2384, 1306, 1488, 2458, 2115
 2385, 2459, 2461, 1299, 2462
 2386, 2463,  197,  196,  198
 2387, 2438,   54,   53,   45
 2388, 2459, 1298, 2458, 1762
 2389, 2410,  189,  174,  172
 2390, 2464,  944,  943,  942
 2391, 2459, 1488, 2465, 1576
 2392, 1054, 1598, 1541, 1419
 2393, 1967, 2466, 2467,  855
 2394, 1315, 1488, 1314, 1487
 2395, 1455, 1315, 1304, 1463
 2396, 2468,  974,  957,  955
 2397, 2469,   33,   34,  173
 2398,   64,   42,   62, 2368
 2399, 1056, 1075, 1078, 1660
 2400, 2470,  179,  186,  181
 2401, 2433, 2432,  526,  457
 2402, 1457, 1598, 1541, 1461
 2403, 1310, 1419, 1420, 1423
 2404, 1077, 1098, 1236, 1126
 2405, 1455, 1596, 1464, 1462
 2406, 2471,  956, 2468,  957
 2407, 1233, 1235, 1384, 1370
 2408, 2472,  171,  166,  169
 2409, 2399,   74,   88,   84
 2410, 2397,  171, 1552,  170
 2411, 2455,   38,   67,   69
 2412, 1186, 1234, 1235, 1171
 2413, 1370, 1697, 1425, 1365
 2414, 2380, 2473,   65,   66
 2415, 2359,   67,   73,   68
 2416, 2455,  496,   67,   39
 2417, 1233, 1235, 1369, 1234
 2418, 1370, 1694, 1369, 1385
 2419, 1606, 1809, 1609, 1814
 2420, 2474,  955,  959,   36
 2421, 1809, 1190, 1187, 1775
 2422, 2444,  191, 2384, 2475
 2423,  974, 2468,  957, 2446
 2424, 1604, 1382, 1560, 1213
 2425, 1774, 1871, 1815, 1949
 2426, 1815, 1870, 2335, 1871
 2427, 1604, 1379, 1058, 1382
 2428, 1611, 2379, 2425, 1760
 2429, 1802, 1801, 1758, 1611
 2430, 2472, 2474, 2155,  166
 2431, 2474,   36,  166,   35
 2432, 2359,  166,  167,   68
 2433, 1176, 1343, 1640, 1174
 2434, 1780, 1909, 1779, 1784
 2435, 1780, 1783, 1785, 2004
 2436, 2472,  166,  171,  492
 2437, 1780, 2476, 1909, 1784
 2438, 1267, 1049, 1044, 1269
 2439, 1995, 1148, 1589, 1690
 2440, 1995, 1998, 1994, 1997
 2441, 2035,   78,   79,   65
 2442, 1862, 2477, 2313, 1649
 2443, 2372,  187,  181,  186
 2444, 1473, 1691, 1475, 1688
 2445,  186,  528, 2002,  509
 2446, 1473, 1687, 1688, 2478
 2447, 1406, 1475, 1148, 1589
 2448, 1995, 1148, 1475, 1589
 2449,  182, 2479,  180,  168
 2450, 2395,   89,  527,  127
 2451, 2480, 2386, 2481, 2380
 2452, 2480, 2034, 2035, 2380
 2453, 2480, 2001, 2400, 2033
 2454, 2482, 1907, 2483, 1632
 2455, 2481, 1907, 2483, 2482
 2456, 2433,  422,  418,  526
 2457, 2484,  200, 2475,  191
 2458, 1596, 1951, 1462, 1865
 2459, 2480, 2036, 2033, 2400
 2460, 2404,  185,  184,  528
 2461, 2044,  212,  207,  210
 2462, 2396,  206,  509,  528
 2463, 2485,   69,   37,   38
 2464, 2486, 1646, 2487, 2488
 2465, 2034, 2481, 2380, 2480
 2466, 2489, 1688, 1996, 1148
 2467, 1349,  198,   30,   31
 2468, 2036,   85,   79,   84
 2469, 2490,  197,  177,  192
 2470, 1995, 1148, 1690, 1996
 2471,  453, 2256,  268,    2
 2472, 1995, 1690, 1589, 2274
 2473, 1404, 1251, 1407, 1410
 2474, 1745,  174,  175,  173
 2475, 2491,   64,   42,   43
 2476, 1115,   32,  177,   31
 2477, 2424,   58,   64,   55
 2478, 1145, 1146, 2492, 1643
 2479, 1145, 1643, 1147, 1146
 2480, 1404, 1147, 1251, 1146
 2481, 1964, 2493, 2494,  822
 2482, 1404, 1146, 1411, 1690
 2483, 2495, 1579, 1585, 1165
 2484, 2496, 2497, 2498,  124
 2485, 2495, 2499, 1579, 1778
 2486, 2495, 1778, 1579, 1165
 2487, 2444,  176,  524,  175
 2488, 2475,  192,  177,  176
 2489, 2495, 2500, 1166, 1592
 2490, 1921, 2501, 2502, 2503
 2491, 1115,  176,  177,   32
 2492, 2041,  114,  117,  115
 2493, 2495, 1166, 1161, 1165
 2494, 1353, 2037, 2504, 1528
 2495, 2148,   63,   62,   76
 2496, 1976,  188,  189,  183
 2497, 2397,  492, 2472,  171
 2498, 1061, 1063, 1042, 1216
 2499, 2037, 1794, 2150, 2038
 2500, 2061,  262,  201,  261
 2501, 1751, 1874,  100, 1877
 2502, 1971, 2427, 2384,  190
 2503, 2384,  190,  191,  175
 2504, 2444,  191,  176,  175
 2505, 1861,  268,  269,  277
 2506, 1528, 2038, 1223, 1354
 2507, 2505,  254,  228,  249
 2508, 2484, 2384,  195,  191
 2509, 2347,  404, 2055,  246
 2510, 1695,  196,  197,  201
 2511,  263,  221, 2421,  227
 2512, 2438,   57,   53,   54
 2513, 2037, 1954, 2150, 2504
 2514, 1889, 2015, 2016, 1890
 2515, 2506, 2150, 2038, 2037
 2516, 1341, 2507, 2332, 2508
 2517, 2506, 2038, 2152, 2445
 2518, 1972, 2427, 1911, 2509
 2519, 1755,   53,   55,   56
 2520, 2509, 2484, 1911, 1910
 2521, 1978, 2056,  188,  194
 2522, 2447, 2390,   77,   82
 2523, 1751, 1874, 1875,  279
 2524, 2509, 2427, 1911, 2484
 2525, 1959,  916, 1958,  918
 2526, 2281,  269,  268,   26
 2527, 2510,   59,   53,   57
 2528, 2509, 1159, 1969, 2511
 2529, 1159, 2509, 1910, 2511
 2530, 2512,  201,  262,  203
 2531, 1554, 1559, 1556, 1589
 2532, 1249,  202,  199,  203
 2533, 1859, 1861,  277,  453
 2534, 1861, 1860, 1859, 2513
 2535, 1371, 1373, 1557, 1558
 2536, 2514,  104,   92,   91
 2537, 2515, 2516,  317, 2517
 2538, 2518,   52,   51,   47
 2539, 1248,  266,  202,  203
 2540, 1689, 1898, 1886, 2087
 2541, 1689, 2087, 1677, 1898
 2542, 1854, 1689, 1184, 1706
 2543, 2512,  203,  196,  201
 2544, 1706, 1854, 1689, 1853
 2545, 1887, 1855, 1689, 1886
 2546, 1689, 1677, 1856, 1853
 2547, 2348, 2197, 2196, 1864
 2548, 1869, 2335, 2068, 2437
 2549, 1519, 1523, 1524, 1456
 2550, 1693,  196,  203,  199
 2551, 1288, 2518, 2519, 2282
 2552, 2073, 2067,  440,  443
 2553, 2348, 1864, 1456, 2520
 2554, 2348, 1864, 2520, 2197
 2555, 2521, 2030, 2374, 2522
 2556, 2382, 2030, 2014, 1899
 2557, 2017, 2523,   57,   93
 2558, 1869, 1870, 2279, 1519
 2559, 1524, 1456, 2348, 1519
 2560, 2113, 1279, 1281, 1397
 2561, 2348, 1519, 2279, 1524
 2562, 1435, 2524, 2416, 1434
 2563, 2525, 2526,  520,  250
 2564, 2388,   28,  202,   27
 2565, 1701, 2527, 2528, 2160
 2566, 2439,   51,   54,   46
 2567, 2030, 2529,   60,   81
 2568, 2530, 1703, 2531, 1702
 2569, 1703, 2531, 1702, 1701
 2570, 1250,  267,  265,  266
 2571, 2016, 1702, 2531, 1734
 2572, 1682, 2532, 1679, 2458
 2573, 1701, 1914, 2528, 1953
 2574, 2533,  292, 2152,  346
 2575, 1701, 2160, 2528, 1703
 2576, 1701, 1953, 2527, 2015
 2577, 1298, 1762, 1299, 1770
 2578, 2479,   87,  180,   72
 2579, 1373, 1564, 1470, 1558
 2580, 1371, 1094, 1566, 1664
 2581, 1093, 1566, 1094, 1635
 2582, 1401, 1209, 1568, 1308
 2583, 2107, 2534, 1249, 1250
 2584, 2030, 2529,   81, 2382
 2585, 2535,   41,  860, 1006
 2586, 2455,   39,   67,   38
 2587, 2536, 1672, 1491, 1671
 2588, 2536, 1491, 2537, 1778
 2589, 2536, 1723, 1491, 1778
 2590, 2536, 1723, 2538, 1491
 2591, 1410, 1146, 2095, 2539
 2592, 1303, 2049, 2412, 1928
 2593, 2397,  171,  170,  172
 2594, 2154,   44, 2379, 2377
 2595, 1551,  178,  183,  182
 2596, 1410, 1146, 2539, 2105
 2597, 2540,  180,  181,  182
 2598, 2540,  179,  181,  180
 2599,   89, 2541, 2398,  184
 2600, 1404, 1146, 1410, 1411
 2601, 1410, 1665, 1411, 2105
 2602, 1208, 1402, 1372, 1403
 2603, 1556, 1559, 1403, 1201
 2604, 1570, 1571, 1568, 2320
 2605, 1568, 2320, 1715, 1537
 2606, 1059, 1715, 1307, 1568
 2607, 1570, 1568, 1470, 1537
 2608, 1570, 1202, 1743, 2317
 2609, 1821,  131,  129,  128
 2610, 1569, 1564, 1572, 1567
 2611, 1779, 2542, 1343, 1128
 2612, 2542, 1128, 1911, 1134
 2613, 1824,  129,  130,  126
 2614, 1313, 1487, 1315, 1314
 2615, 2542, 1797, 1134, 1911
 2616, 2542, 1786, 2543, 1782
 2617,  210,  207, 2044,  205
 2618, 2058,  115,  117,  128
 2619, 2542, 1797, 1911, 2484
 2620, 2542, 1786, 2361, 2543
 2621, 1822, 1929,  133, 2401
 2622, 2542, 1911, 2427, 2484
 2623, 2417,  134,  136,  137
 2624, 2044,  210,  209,  213
 2625, 2031, 2544,  110,   49
 2626, 2046,  218,  223,  220
 2627, 2545,  111, 2030,  113
 2628, 2060,  138, 2546, 2547
 2629, 2063, 2462,  250,  236
 2630, 1483, 1482, 1265, 1484
 2631, 1416, 1448, 1879, 1454
 2632, 1236, 1098, 1113, 1018
 2633, 2485,  865,   38,   37
 2634, 2474,   37,  167,   36
 2635, 1450, 1230, 1497, 1454
 2636, 1667, 1486, 1417, 1542
 2637, 1030, 1669, 1029, 1231
 2638, 2359,   37,   69,  167
 2639, 1497, 1454, 1544, 1716
 2640, 1542, 1486, 1417, 1549
 2641, 1028, 1266, 1486, 1667
 2642, 2155,   68,  169,  166
 2643, 1946, 1138, 1140, 2548
 2644, 2456,   40,  496,   39
 2645,  182, 1552,  168,  170
 2646, 2545, 1899,  114, 1348
 2647, 2472,  166,  492,   35
 2648, 1815, 1560, 2549, 2550
 2649,   73, 2551, 2386,   67
 2650, 1189, 1190, 1138, 1946
 2651, 1815, 1138, 2549, 1560
 2652, 1793, 1138, 1815, 1560
 2653, 1815, 1949, 1871, 2335
 2654, 1815, 2552, 1949, 2335
 2655, 2397,  183,  172,  170
 2656,   73,  168, 2479,  169
 2657, 2553, 2554, 2082, 2205
 2658, 1774, 1871, 1606, 1815
 2659, 1606, 1871, 1604, 1815
 2660, 1919, 1744, 2265, 1743
 2661, 2404,  528,  184,  512
 2662, 2045,  130,   89,  126
 2663, 2265, 2253, 1919, 1409
 2664, 2361, 2543, 2046,  220
 2665, 2555,  207,  206,  512
 2666, 2043,  130,  205,  207
 2667, 2265, 2556, 1997, 1998
 2668, 2265, 1997, 2557, 2064
 2669, 2265, 2220, 2138, 2253
 2670, 2265, 2556, 1998, 2138
 2671, 2265, 2220, 2557, 2138
 2672, 2172,   83,  522,   88
 2673, 2396,  528,  512,  206
 2674, 2396, 2555, 2003,  215
 2675, 1799, 1242, 1244, 1245
 2676, 1879, 1244, 1242, 1243
 2677, 2469,  964,   34,   33
 2678, 1879, 1242, 1280, 1880
 2679, 2554, 2070,  390,  243
 2680, 1768, 1926, 1682, 2532
 2681, 1355, 1670, 1375, 1374
 2682, 1375, 1839, 1841, 1394
 2683, 2558, 2554, 2559, 2070
 2684, 1375, 1345, 1341, 1374
 2685, 1375, 1933, 1340, 1841
 2686, 2535,  856, 1006,  860
 2687, 2398,   90,  185,   86
 2688, 1355, 1790, 1375, 1670
 2689, 2386,  496,   66,   71
 2690, 2385,   87,   72,   70
 2691, 1375, 1791, 1838, 1444
 2692, 1838, 1791, 1375, 1931
 2693, 2385,   66,   70,   71
 2694, 1790, 1444, 1375, 1670
 2695, 1375, 1444, 1839, 1670
 2696, 1809, 2560, 1187, 1607
 2697, 2372,  182,  181,  178
 2698, 1539, 2429, 1984, 1848
 2699, 2554,  243, 2559, 2070
 2700, 1284, 2212, 2561, 2211
 2701, 2394,  522, 2172, 2389
 2702, 2562, 1809, 1775, 2563
 2703, 2036,   85,   87,   70
 2704, 2058,  117, 1348, 2434
 2705, 2400,   87,   86,  179
 2706, 1808, 2337, 1809, 1814
 2707, 1774, 1808, 1606, 1871
 2708, 1606, 1190, 1809, 1775
 2709, 2372,  178,  181,  187
 2710, 2470,  185,  186,  179
 2711, 1809, 1775, 2563, 2337
 2712, 1115,  524, 2564, 2444
 2713, 2036,   70,   66,   85
 2714, 1809, 1609, 2565, 2566
 2715, 2470,  185,  528,  186
 2716, 2375, 2377,   56,   43
 2717, 1131, 1074, 1369, 1697
 2718, 2567, 1134, 1698, 1696
 2719, 1071, 1591, 1696, 1698
 2720, 2172,   74,   83,   88
 2721, 2394,  127,  522,  115
 2722, 1072, 1270, 2107, 1269
 2723, 2171,   90,   86,   84
 2724, 2058, 2041,  117,  115
 2725, 2211, 1111, 1284, 2212
 2726, 1072, 1073, 1795, 1696
 2727, 1071, 1074, 1694, 2108
 2728, 1074, 1697, 1694, 1369
 2729, 2172, 2390, 2389,   83
 2730, 1531, 1337, 1338, 2568
 2731, 2035, 2190, 2390,   78
 2732,  179, 2540, 2400,  180
 2733, 2395,  522,  527,   88
 2734, 1182, 1112, 1276, 2569
 2735, 1093, 1096, 1566, 1564
 2736, 1371, 1665, 2119, 1557
 2737, 2473,   61,   66,  496
 2738, 2558, 2080, 2553, 2554
 2739, 1123, 1062, 1125, 1060
 2740, 1062, 1093, 1066, 1065
 2741, 1566, 1558, 1664, 1565
 2742, 1970,  172,  173,  492
 2743, 1284, 1278, 1109, 1274
 2744, 2570, 2571,  946, 2572
 2745, 2573,  973,  860,   40
 2746, 2468,  955,  862,  959
 2747, 2574,  858,  845,  844
 2748, 2575,  498,   61,   41
 2749, 1151, 1830, 1325, 1154
 2750, 1318, 1324, 1317, 1327
 2751, 2456,   40,   61,  496
 2752, 1745,  524,  173,  175
 2753, 2479,   72,  180,  168
 2754, 2564,   32,   33,  524
 2755, 1326, 1628, 1831, 1501
 2756, 2189,   62,   63,  498
 2757, 2514, 2519,   92,   94
 2758, 1117,   31,  177,  198
 2759, 1325, 1321, 1322, 1154
 2760, 1320, 1941, 1940, 1325
 2761, 1325, 1320, 1942, 1327
 2762, 1512, 1511, 1787, 1545
 2763, 2376, 2041, 2389, 2447
 2764, 1512, 1511, 1545, 1549
 2765, 2473,   65,   66,   61
 2766, 2380,   79,   66,   65
 2767, 1504, 1543, 1700, 1655
 2768, 2148,   63,   76,   78
 2769, 1971,  174,  189,  190
 2770, 1504, 1655, 1509, 1513
 2771, 1504, 1510, 1655, 1513
 2772, 1504, 1549, 1512, 1498
 2773, 1884, 1800, 1535, 1245
 2774, 1328, 1106, 1241, 1107
 2775, 2359, 2455, 2551,   67
 2776, 2376, 2390, 2447, 2389
 2777, 1041, 1045, 1136, 1093
 2778, 1367, 1884, 1114, 1801
 2779, 2390,   77,   74,   78
 2780, 1276, 1538, 1111, 1274
 2781, 2035,   74,   79,   78
 2782, 1799, 1245, 1332, 1535
 2783, 1478, 1198, 1193, 1199
 2784, 2456,   61, 2576, 2473
 2785, 1194, 1476, 1205, 1192
 2786, 2362, 2577, 2301, 1111
 2787, 2575,  860,   41,   40
 2788, 1967,  855,  857,   42
 2789, 1478, 1708, 2013, 2578
 2790, 1478, 2012, 2324, 2013
 2791, 1095, 1186, 1087, 1234
 2792, 2394, 2389,  115,  522
 2793, 2554, 2328,  243,  389
 2794, 2399,   74,   84,   79
 2795, 2393, 2579, 2580, 2055
 2796, 2485,  959,  865,   37
 2797, 1235, 1186, 1804, 1234
 2798, 1014, 1186, 1087, 1122
 2799, 1011, 1170, 2008, 2191
 2800, 2581,  963,  962,   32
 2801, 2381,   63,   65,   61
 2802, 2576,   63,   61,  498
 2803, 1020, 1085, 1014, 1087
 2804, 1121, 1022, 1119, 1118
 2805, 2582,  840, 2583, 2574
 2806, 1064, 1060, 1309, 1528
 2807, 2554, 2328,  389, 2205
 2808, 2584,   42,  498,   41
 2809,   42,   62, 2368,  498
 2810, 2000, 2585, 2004, 2005
 2811, 1127, 1131, 1078, 1132
 2812, 1109, 1284, 1111, 2362
 2813, 2586,  501,  273,  276
 2814, 2439,  983,   46,   45
 2815, 1648, 2073, 2075, 2074
 2816, 2587, 2588, 2589, 2127
 2817, 2513,  273,  277,  269
 2818, 2281,  204,  269,   26
 2819, 1383, 1386, 1370, 1425
 2820, 2212, 1111, 1284, 2301
 2821, 1129, 1909, 1632, 1784
 2822, 2450,  991,  914,  903
 2823, 2039,   58,   55,   60
 2824, 2590,  669, 2294, 2325
 2825, 1568, 1308, 1470, 1401
 2826, 2040,  454,  445,  444
 2827, 1771, 1763, 1764,  234
 2828, 2102,  500,  287,  281
 2829, 1037, 1410, 1257, 1665
 2830, 2065,  320,  323,  322
 2831, 1935, 1939, 2529, 2014
 2832, 1410, 1146, 1255, 2095
 2833, 2568,  271,  263,  270
 2834, 1696, 1693, 1695, 2512
 2835, 1404, 1690, 1148, 1146
 2836, 1690, 1145, 1146, 2492
 2837, 2236, 1525, 1526, 1936
 2838, 1690, 1411, 2105, 1146
 2839, 1859,  501,  444,  445
 2840, 2591,  109,  107,  282
 2841, 2216,  106,  120,  105
 2842, 2568, 2592, 2593,  270
 2843, 2594, 2595, 2231, 2596
 2844, 2105, 1146, 2539, 1690
 2845, 1763,  232,  234,  237
 2846, 1277, 1705, 2597, 1704
 2847, 2525,  251,  250,  520
 2848, 2598,  275,  247,  260
 2849, 2046,  218,  220,  216
 2850, 1146, 1255, 2492, 1643
 2851, 1706, 1705, 1704, 1855
 2852, 2599, 2600, 2601, 2602
 2853, 1657, 1655, 1511, 1510
 2854, 2044,  213,  212,  210
 2855, 1504, 1486, 1700, 1543
 2856, 1504, 1655, 1511, 1543
 2857,   93,   98, 2242, 2374
 2858, 2568,  263,  229,  270
 2859, 2603,  140,  120,  106
 2860, 1504, 1655, 1515, 1509
 2861, 1504, 1486, 1543, 1511
 2862, 1374, 2493, 2162, 1965
 2863, 1965, 2604, 2605, 2606
 2864, 2346, 2040, 2067,  450
 2865, 1965, 2493, 2162, 2607
 2866, 1965, 2608, 2609, 2607
 2867, 1965, 2610, 2608, 2605
 2868, 2382,  111,   80,   81
 2869, 2052,  141,  504,  144
 2870, 1764,  233,  495,  232
 2871, 2050,  141,  159,  145
 2872, 2611,  142,  140,  144
 2873, 2603,  106,  139,  140
 2874, 1821,  131,  134,  129
 2875, 1966, 1965, 1547, 1356
 2876, 2069, 2611,  140,  144
 2877, 2546,  138,  149,  147
 2878, 1532, 1299, 2461, 2525
 2879, 1356, 1966, 1357, 1358
 2880, 1107, 1728, 2177, 2402
 2881,  214, 2409, 1771,  212
 2882, 1524,  298,  299,  146
 2883, 2612,  403,  410,  400
 2884, 1965, 1546, 1547, 2613
 2885, 1925,  154, 1769,  156
 2886, 2614,  157,  159,  162
 2887, 1761,  237,  235,  232
 2888, 2532,  164,  515,  155
 2889, 2615,  254, 2616, 2505
 2890, 1915, 2617, 2069, 2547
 2891, 1546, 1966, 2604, 1965
 2892, 1965, 2606, 1966, 2604
 2893, 1252, 2095, 1410, 1255
 2894, 2049, 2052, 2051, 2618
 2895, 2146, 2443, 2619, 2620
 2896, 1185, 1410, 1665, 1411
 2897, 1371, 1185, 1665, 1557
 2898, 1371, 1122, 1085, 1094
 2899, 1371, 2119, 1665, 2621
 2900, 2119, 1665, 2105, 1557
 2901, 2615,  254, 2505,  251
 2902, 2057,  309,  160,  162
 2903, 2412, 1494, 2050, 2614
 2904, 1554, 1372, 1556, 1373
 2905, 1626,  161,  163,  518
 2906, 1557, 1665, 2105, 1411
 2907, 1410, 1665, 2105, 2622
 2908, 1665, 2622, 1257, 2623
 2909, 2624,  225,  249,  228
 2910, 1655, 1509, 1513, 1914
 2911, 1504, 1505, 1700, 1486
 2912, 1509, 2625, 2415, 2405
 2913, 2626,  255,  257,  244
 2914, 2627,  307, 2029,  308
 2915, 2628,  230,  242,  237
 2916, 2568,  229, 2351,  253
 2917, 1509, 2625, 1952, 2415
 2918, 2070,  245,  238,  390
 2919, 2627,  309,  307,  160
 2920, 1644, 1509, 1514, 1508
 2921, 1246, 1287, 1247, 1180
 2922, 2559,  244,  241,  240
 2923, 2180, 2179,  343, 1451
 2924, 1917, 2614, 2050, 2617
 2925, 2445, 1354, 1876, 1207
 2926, 1872, 2445, 1222, 2259
 2927, 1278, 1274, 1284, 1193
 2928, 2629,  273,  269,  265
 2929, 1207, 1872, 2445, 1222
 2930, 2630,  311,  316,  313
 2931, 1147, 1692, 1150, 1687
 2932, 1587, 1835, 1316, 1647
 2933, 1452,  334,  335,  336
 2934, 1147, 1687, 1587, 1692
 2935, 2082,  391,  392,  388
 2936, 1475, 1556, 1406, 1474
 2937, 2631,  311,  307,  310
 2938, 1587, 1316, 1149, 1692
 2939, 2057,  309,  162,  149
 2940, 1917, 2057, 2614, 2617
 2941, 1587, 1149, 1316, 1586
 2942, 1147, 1149, 1150, 1692
 2943, 2465, 2272, 2054, 2626
 2944, 1587, 1586, 1316, 1835
 2945, 2197,  302,  312,  521
 2946, 1109, 1111, 1274, 1276
 2947, 2632,  424, 2218,  429
 2948, 1036, 1258, 1251, 1033
 2949, 1503, 1586, 1322, 1258
 2950, 1586, 1316, 1835, 1645
 2951, 1518, 1516, 1519, 1523
 2952, 1456, 2546, 1460, 1523
 2953, 1455, 1419, 1598, 1596
 2954, 1455, 1456, 1460, 1461
 2955, 2615,  251, 2525, 2054
 2956, 1371, 1558, 1566, 1564
 2957, 2272,  402,  246,  255
 2958, 1893, 1285, 2597, 2440
 2959, 2057, 2614,  150,  162
 2960, 2633,  316,  310,  315
 2961, 1533, 1252, 1256, 1818
 2962, 2191, 1011, 1170, 1737
 2963, 2241, 2301, 2561, 2362
 2964, 1120, 1032, 1230, 1227
 2965, 2515,  304,  306,  315
 2966, 1410, 2095, 1257, 2622
 2967, 2634,  428,  430,  446
 2968, 1453,  335,  341,  342
 2969, 1257, 1122, 2623, 1737
 2970, 1011, 1257, 1533, 1737
 2971, 1233, 1169, 1016, 1368
 2972, 1905, 1575, 1168, 1263
 2973, 2533,  295,  294,  292
 2974, 2437,  305,  301,  321
 2975, 1239, 1242, 1280, 1799
 2976, 1662, 1905, 1026, 1263
 2977, 1227, 1028, 1412, 1417
 2978, 1234, 1018, 1171, 1186
 2979, 2207,  354,  376,  353
 2980, 2224,  365,  371,  356
 2981, 1233, 1384, 1169, 1368
 2982, 2635,  320,  326,  321
 2983, 2258,  428,  446,  441
 2984, 1169, 1906, 1368, 1384
 2985, 1250,  262,  267,  266
 2986, 2636,  322,  326,  320
 2987, 1852, 2230, 2307, 2597
 2988, 1905, 1740, 1920, 1170
 2989, 1011, 2191, 2008, 1122
 2990, 1919, 2103, 2202, 2253
 2991, 2464, 2637, 2471,  942
 2992, 1336, 1226, 1435, 1432
 2993, 1859, 2040,  445,  444
 2994, 1336, 1435, 1379, 1436
 2995, 2638,  433,  467,  434
 2996, 2639,  360,  358,  359
 2997, 1435, 2416, 2524, 1772
 2998, 2077, 2640, 2641,  425
 2999, 1992, 2268, 1990, 2432
 3000, 2280,  282, 2260,  285
 3001, 1418, 1604, 1419, 1382
 3002, 1040, 1419, 1213, 1382
 3003, 1630, 1435, 1772, 1421
 3004, 2560, 2642, 2640, 2643
 3005, 1226, 1421, 1435, 1630
 3006, 2644,  373,  371,  372
 3007, 1583, 1271, 2645, 2571
 3008,  421,  431, 2078,  425
 3009, 1303, 1641, 1768, 1298
 3010, 1304, 1298, 1303, 2115
 3011, 2646,  329,  351,  352
 3012, 2643,  425,  431,  432
 3013, 1034,  487,  448,  449
 3014, 1304, 1303, 1915, 2115
 3015, 1070,  351,  350,  352
 3016, 1303, 1301, 1915, 2049
 3017, 1351, 1424, 2511, 1350
 3018, 2647, 2346, 2067,  451
 3019, 1910, 1424, 2511, 1351
 3020, 1910, 1159, 1424, 1158
 3021, 2154,   44,  836,  829
 3022, 1278, 1277, 1282, 1283
 3023, 2648, 2649,  768,  760
 3024, 2650,  972,   27,   26
 3025, 2069, 2052,  144,  141
 3026, 1191, 1200, 1198, 1705
 3027, 1117,  197,  198,  177
 3028, 1206, 1478, 1199, 1198
 3029, 2069,  140, 2603,  139
 3030, 1915, 2069, 2617, 2052
 3031, 2069,  139, 2547,  147
 3032, 1887, 1277, 1705, 1855
 3033, 1285, 1283, 1893, 1277
 3034, 1191, 1277, 1705, 1198
 3035, 2193,   48,  499,   52
 3036, 1874,  290,  279,   99
 3037, 1089, 2651, 1092, 2652
 3038, 1874,  499,   99,  100
 3039, 2653, 2654, 1707, 1708
 3040, 2652, 2027, 1891, 2655
 3041, 2656,  935,  931,  972
 3042, 1691, 1806, 1587, 1687
 3043, 2281,  268,    2,   26
 3044, 1473, 2013, 1478, 1708
 3045, 2568, 2657, 2032,  271
 3046, 1473, 1691, 1687, 1708
 3047, 1806, 1687, 2654, 1895
 3048, 1607, 1609, 1422, 1606
 3049, 1808, 2334, 1775, 2337
 3050, 2658,   59,   93,   97
 3051, 1576, 2558, 2626, 2559
 3052, 2545,  111,  112,  116
 3053, 1793, 1190, 1730, 1605
 3054, 1946, 1138, 1815, 1190
 3055, 1058, 1379, 1605, 1715
 3056, 2659,   59,   97,   60
 3057, 1106, 1359, 1329, 1360
 3058, 1969, 2444, 1746, 1745
 3059, 2356, 1769, 1763,  231
 3060, 1338, 2032, 2568, 2657
 3061, 2660, 1676, 2661, 1853
 3062, 1676, 2661, 1853, 1240
 3063, 1237, 1676, 1240, 1330
 3064, 1328, 2402, 1107, 1332
 3065, 2545,  114,  111,  116
 3066, 2030,   50,  113,  111
 3067, 2543,  219,  193,  216
 3068, 1771,  214,  213,  495
 3069, 1888,  155,  154,  158
 3070, 1097, 1103, 1106, 1108
 3071, 1706, 1853, 1240, 1854
 3072, 2401,  133,  134,  131
 3073, 1783, 1825, 2585, 2124
 3074, 2038, 1352, 1794, 1360
 3075, 1119, 1240, 1676, 1854
 3076,  208,  215, 2555,  206
 3077, 1019, 1037, 1038, 1085
 3078, 2516, 2662, 2633, 2515
 3079, 1929,  152,  136,  133
 3080, 2435, 2069, 2603, 2071
 3081, 1193, 1277, 1892, 1282
 3082, 1626,  160, 1495, 2627
 3083, 2617,  150,  147,  149
 3084, 1849, 1193, 1084, 1199
 3085, 2050,  159,  141,  150
 3086, 2462,  250,  236,  241
 3087, 2663, 2324, 2327, 1857
 3088, 1887, 1277, 1198, 1705
 3089, 2628,  235,  237,  242
 3090, 2664,  242,  240,  235
 3091, 2617,  150,  141,  147
 3092, 2614,  159,  150,  162
 3093, 2411,  516,  387,  314
 3094, 1887, 1707, 1198, 1892
 3095, 1478, 1193, 1198, 2578
 3096, 2356,  211,  231,  234
 3097, 2665, 2666, 2667, 2668
 3098, 2668, 2669, 2665, 2670
 3099, 2627,  308,  160,  307
 3100,  239, 1627,  164, 2671
 3101, 2672, 2668, 2669, 2665
 3102, 1627,  238, 2028, 2070
 3103, 2670, 2668, 2669, 1923
 3104, 2029,  314,  517,  308
 3105, 2552, 2550, 2549, 1663
 3106,  308, 1626,  163, 2029
 3107, 2670, 2666, 2673, 2665
 3108, 2670, 2673, 2666, 2674
 3109, 1926, 1925, 2413, 1888
 3110, 2526,  257,  520,  241
 3111, 2052,  142,  144,  504
 3112, 2664,  241,  236,  235
 3113, 2069,  147,  141,  144
 3114, 2060,  146,  299,  138
 3115, 1720, 1721, 1414, 1415
 3116, 1725, 1720, 2675, 1414
 3117, 1165, 1447, 1579, 1427
 3118, 2197,  312,  300,  521
 3119, 1025, 1030, 1029, 1231
 3120, 2411,  516,  311,  313
 3121, 2546,  300,  149,  138
 3122, 2536, 1723, 2676, 2677
 3123, 2554,  243,  390,  388
 3124, 1447, 1723, 1491, 1725
 3125, 2626,  244,  257,  241
 3126, 2678, 2203, 2679, 2204
 3127, 1979,  789, 1506,  998
 3128, 1723, 1491, 1725, 2538
 3129, 1375, 1839, 1394, 1361
 3130, 2328,  243,  389,  244
 3131, 1375, 1394, 1841, 1340
 3132, 2333, 2515, 2199, 2068
 3133, 2631, 2627,  307, 2029
 3134, 1839, 1393, 1395, 1394
 3135, 2680,  316,  514,  313
 3136, 1838, 1375, 1841, 1931
 3137, 1839, 1361, 1670, 1442
 3138, 2681, 1381, 2682, 2683
 3139, 1979, 2059,  719, 2684
 3140, 1627,  239,  164,  518
 3141, 1979,  644, 2684,  719
 3142, 2681, 2685, 2686,  849
 3143, 2199,  304,  312,  302
 3144, 2687, 2688, 2641, 2273
 3145, 2631,  312,  310,  307
 3146, 2528, 2160, 2059, 2684
 3147, 2689, 2616, 2615, 2690
 3148, 1300, 1637, 1526, 1301
 3149, 2411,  516,  314,  311
 3150, 2554,  388,  389,  243
 3151, 2029,  314,  308,  311
 3152, 2681,  850, 2685,  849
 3153,  515, 2628, 2671, 2532
 3154, 2681,  938, 2682, 2357
 3155, 2028,  387,  390,  238
 3156, 2028,  163,  517,  238
 3157, 2681,  938, 2357,  850
 3158, 2083,  386,  393,  387
 3159, 1355, 1934, 1932, 1358
 3160, 2393, 2691, 2690, 2579
 3161, 2633,  304,  315,  310
 3162, 1934, 2692, 2693, 2174
 3163, 1979, 2684,  998, 1506
 3164, 1934, 1358, 2694, 2692
 3165, 1493,  158,  161,  164
 3166, 1482, 2652, 2027, 1889
 3167, 1934, 2695, 2692, 2694
 3168, 1934, 2692, 2695, 2693
 3169, 2624, 2696, 1712, 2505
 3170, 2582,  859, 2697,  846
 3171, 1934, 1964, 1980, 2156
 3172,  163, 2029,  517,  308
 3173, 1626, 2627, 2029,  308
 3174, 2582, 2583,  840,  846
 3175, 2695, 2156, 2694, 1934
 3176, 1419, 1517, 1213, 1561
 3177, 1136, 1226, 1336, 1433
 3178, 2582, 2163,  859,  845
 3179, 2070,  245,  390,  243
 3180, 1604, 1560, 1561, 1213
 3181, 2393, 2579, 2698, 2691
 3182, 2532, 1493, 1627,  164
 3183, 1626,  163,  161,  308
 3184, 1210, 1215, 1212, 1211
 3185, 1212, 1521, 1517, 1563
 3186, 2664,  241,  235,  240
 3187, 2559,  240,  243,  244
 3188, 1221, 1950, 1517, 1540
 3189, 2680, 2083,  386, 2699
 3190, 1627,  238,  518,  163
 3191, 1494,  153,  157,  158
 3192, 1495,  160,  157,  162
 3193,  504, 2052,  145,  141
 3194, 1221, 1295, 1950, 1540
 3195, 1560, 1215, 1212, 1063
 3196, 1482, 2022, 1480, 1484
 3197, 1541, 1916, 1302, 1847
 3198, 1627,  518,  238,  239
 3199, 2179,  343, 2700,  523
 3200, 1950, 1563, 2701, 1749
 3201, 1950, 1749, 2702, 2221
 3202, 2269, 1950, 2702, 2221
 3203, 2591, 1950, 2702, 2269
 3204, 2080, 2554, 2070,  390
 3205, 1950, 1563, 2031, 2701
 3206, 1965, 1547, 1546, 1966
 3207, 1262, 1789, 1266, 1667
 3208, 1769,  230,  513,  155
 3209, 2652, 1732, 1480, 2651
 3210, 2652, 1889, 1732, 2703
 3211, 1546, 1667, 1218, 1547
 3212, 1548, 1542, 1547, 1545
 3213, 2069,  139, 2071, 2547
 3214, 1761,  236,  232,  235
 3215, 1929,  143,  152,  133
 3216, 2704, 1699, 2705, 1702
 3217, 1930, 1733, 1358, 2023
 3218, 1767, 1771, 2409, 2044
 3219, 1733, 1668, 2706, 1699
 3220, 2356,  136,  156,  231
 3221, 2453, 2707, 2700, 1100
 3222, 1733, 2706, 1668, 2694
 3223, 1451, 2180,  342,  343
 3224, 1733, 2126, 1702, 2704
 3225, 1733, 1702, 2126, 2127
 3226, 2413,  153,  154,  151
 3227, 1607, 1608, 2708, 1603
 3228, 1938, 2425, 2510, 2424
 3229, 2528, 1952, 2181, 1953
 3230, 2528, 1952, 2709, 2181
 3231, 2431, 2454,  418,  422
 3232, 1352, 1354, 2038, 1353
 3233, 1929,  143,  133,  132
 3234, 2528, 2059, 2160, 2527
 3235, 1701, 1703, 2531, 2160
 3236, 1335, 1650, 1653, 1651
 3237, 1475, 1997, 1709, 1996
 3238, 2710, 2618, 2711, 2497
 3239, 2463,  198,  196,   30
 3240, 2324, 2663, 2291, 1857
 3241, 1270, 1269, 2477, 2107
 3242, 2712,  548, 2713,  552
 3243, 1805, 1095, 1270, 1804
 3244, 1270, 2477, 2714, 2715
 3245, 2031,  109,  110,  101
 3246, 1385, 2108, 1074, 1270
 3247, 2242,  105,   98,   95
 3248, 2192,  286,  281,  287
 3249, 2716,  102,   96,  103
 3250, 2188,   75,   80,   76
 3251, 1077, 1267, 1049, 1044
 3252, 2717,   98,  120,  118
 3253, 1214, 2506, 1620, 2186
 3254, 1418, 1422, 1604, 1379
 3255, 2680, 2699, 2718, 2081
 3256, 2680, 2081, 1868, 2719
 3257, 2598,  438,  275,  260
 3258, 2483, 2481, 2551, 2720
 3259, 2680, 2411, 2083, 2719
 3260, 2690,  260,  259,  165
 3261, 1059, 1715, 1807, 1379
 3262, 1307, 1792, 1793, 1621
 3263, 2269,  105,  109,  101
 3264, 2069,  147,  144,  139
 3265, 2547,  148,  147,  139
 3266, 2721, 2722, 2309, 2310
 3267, 1058, 1382, 1063, 1560
 3268, 1210, 1214, 1222, 1223
 3269, 1793, 1621, 1727, 1138
 3270, 1621, 1197, 1527, 1792
 3271, 2445, 1223, 2506, 2038
 3272, 2721,  661, 2227,  649
 3273, 2721, 2227,  554,  649
 3274, 2717,  120,   98,  105
 3275, 2723,  148,  110,  146
 3276,  109,  284, 1520,   49
 3277,  164, 1626,  518,  161
 3278, 2037, 1223, 2038, 2506
 3279, 2314, 2309, 2724, 2725
 3280, 2721, 2227, 2722, 2663
 3281, 1711,  329, 2338,  358
 3282,  283,  109,  284, 1520
 3283, 1524,  303,  299,  298
 3284, 2721, 2327, 2227, 2663
 3285,  554, 2327, 2227, 2721
 3286, 1248,  265,  202,  266
 3287, 2726, 2727, 2145, 2728
 3288, 2729,  284,  280,  297
 3289, 2544,  146,  110,   49
 3290, 2728, 2726, 2727, 2730
 3291, 2728, 2143, 2731, 2732
 3292, 1768, 1298, 1641, 1770
 3293, 1768, 1298, 2458, 2115
 3294, 1304, 2115, 1306, 1298
 3295, 1576, 2559, 2626, 2664
 3296, 2519,   51,   92,   94
 3297, 2073,  443,  439,  442
 3298, 1304, 1303, 1302, 1915
 3299, 2073,  442,  451,  443
 3300, 2280,  285,  288,  282
 3301, 2733,  508,  349,  350
 3302, 2734,  293,  285,  294
 3303, 1306, 2391, 2465, 1487
 3304, 2246,  278,  288,  505
 3305, 1580, 1579, 1582, 2735
 3306, 1777, 1580, 2736, 2735
 3307, 1663,  278,  320,  301
 3308,  431, 2078,  425, 2643
 3309, 1182, 1183, 1099, 1536
 3310, 2264,  441,  410,  428
 3311, 1099, 1945, 1144, 1188
 3312, 1981, 1986, 1984, 1983
 3313, 1981, 1984, 1992, 1982
 3314, 1600,  278,  301,  289
 3315,  289, 2339, 2246,  288
 3316, 1465, 1982, 1983, 2441
 3317, 2055,  404,  258,  246
 3318, 1988, 1981, 2737, 2441
 3319, 1522,   49,  284,  298
 3320, 1539, 1982, 1983, 1465
 3321, 1982, 1538, 1539, 1984
 3322, 2738, 2598,  438,  275
 3323, 1580, 1777, 1346, 1393
 3324, 2071,  101,  148,  139
 3325, 1580, 1582, 2739, 2735
 3326, 1580, 2683, 1583, 1381
 3327, 1447, 1777, 1442, 1491
 3328, 2598,  165,  438,  260
 3329, 1393, 1777, 1346, 1361
 3330, 1580, 2740, 1381, 1346
 3331, 1495,  157,  160,  161
 3332, 2054,  246,  256,  257
 3333, 1996, 1997, 2300, 2066
 3334, 2198,  303,  305,  302
 3335, 2741, 2177, 1288, 2282
 3336, 1580, 2683, 1381, 2740
 3337, 1580, 2740, 2736, 2739
 3338, 2742,  224,  225,  223
 3339, 1634, 2483, 1975, 2743
 3340, 2482, 2744, 1552, 2155
 3341, 2482, 1552, 1973, 1975
 3342, 2001, 1975, 1909, 1632
 3343, 2480, 2001, 1975, 1973
 3344, 2001, 1973, 2400, 2540
 3345, 2030,   97,   50,   60
 3346, 2373,  215,  187,  509
 3347, 2484,  195,  221,  200
 3348, 2001, 1632, 2476, 2034
 3349, 1192, 2315, 2745, 1539
 3350, 1539, 1848, 1192, 2233
 3351, 2476, 2005, 2033, 2376
 3352, 1792, 1621, 1307, 1527
 3353, 2039,   81,   58,   60
 3354, 1539, 2315, 2233, 1192
 3355, 1982, 1465, 1539, 1538
 3356, 2047,  217,  218,  216
 3357, 1539, 1204, 1465, 2745
 3358, 2051,  504, 2052,  145
 3359, 2434,  131, 2058,  117
 3360, 2746,  112,  118,  119
 3361, 1286, 1750, 1291, 1292
 3362, 1870, 1521, 1561, 2550
 3363, 1815, 2552, 1870, 2550
 3364, 2545,  113,  112,  111
 3365, 1815, 1561, 1870, 1871
 3366, 2702,  107, 2716, 2591
 3367, 1869, 2348, 1519, 2279
 3368, 1870, 2747, 2552, 2437
 3369, 1354, 1360, 2038, 1876
 3370, 1235, 1171, 1169, 2026
 3371, 2060, 1524,  299,  146
 3372, 1849, 1850, 2327, 2330
 3373, 1849, 1478, 2324, 2578
 3374, 2324, 2578, 2013, 2323
 3375, 1764,  233,  214,  495
 3376, 2498,  122,  124,  123
 3377, 2324, 2748, 2310, 2013
 3378, 2324, 2323, 2310, 2749
 3379, 2048,  222,  224,  223
 3380, 2327, 2324, 2749, 1850
 3381, 2356,  152,  156,  136
 3382, 2711,  125,  143,  132
 3383, 2324, 2749, 1850, 2323
 3384, 1187, 1142, 2452, 1945
 3385, 1929,  143,  151,  152
 3386, 2618,  124,  142,  143
 3387, 1187, 1188, 1607, 1144
 3388, 1607, 1809, 1190, 1187
 3389, 1097, 1104, 1024, 1114
 3390, 2398,  179,   86,  185
 3391, 2395,  527,   89,   90
 3392, 1187, 1773, 1945, 2452
 3393, 2374,  113,   97,   98
 3394, 1819, 1637, 1825, 1636
 3395, 2750,  200,  261,  201
 3396, 2523,   93,   59,   57
 3397, 1642, 1641, 1927, 1301
 3398, 1572, 1066, 1334, 1564
 3399, 1638, 1641, 2751, 1767
 3400, 1300, 1297, 2751, 1641
 3401, 1642, 1641, 1766, 1927
 3402, 1637, 1638, 1642, 1300
 3403, 1785, 2004, 2003, 1781
 3404, 1175, 1430, 1302, 1526
 3405, 1176, 1639, 1783, 1177
 3406, 2000, 2476, 1780, 1783
 3407, 1176, 1640, 1785, 1636
 3408, 2496,  122,  116,  119
 3409, 1785, 2752, 1640, 1786
 3410, 2753, 2711, 1929, 2401
 3411, 2470,  179, 2398,  185
 3412, 2353,    3, 2754, 2104
 3413,  224, 2063,  233,  214
 3414, 2470, 2372, 2002, 2540
 3415, 2398, 2001, 2470, 2002
 3416, 2401,  125,  132,  131
 3417, 2001, 2173, 2398, 2400
 3418, 2680, 2718, 2662, 1867
 3419, 2420,  220,  226,  227
 3420, 2485, 2359, 2455, 2755
 3421, 2485, 2359,   37,   69
 3422, 1751, 1875,  500,  279
 3423, 2746,  121,  118,  120
 3424, 2474, 2500, 2155, 2359
 3425, 2756,  103,  104,  108
 3426, 1362, 1133, 1697, 1365
 3427, 2485, 2500, 2755, 2460
 3428, 2564, 1746,  524,   33
 3429, 1336, 1432, 2524, 1648
 3430, 2008, 2757, 2009, 2758
 3431, 1294, 1751, 1875, 1754
 3432, 2518,   92,   51,   52
 3433, 1754,  281,  108,  500
 3434, 2691,  165,  405,  438
 3435, 2067,  440,  443,  444
 3436,  167,   37, 2474, 2359
 3437, 1492, 1803, 1725, 1446
 3438, 1400, 1165, 1157, 1426
 3439, 1751, 1877,  100, 2759
 3440, 1874,  100, 1877,  499
 3441, 1364, 1392, 1365, 1363
 3442, 1363, 1113, 1368, 1362
 3443, 1874, 2104,  279,  290
 3444, 1156, 1392, 1167, 1427
 3445, 1487, 1314, 1311, 2465
 3446, 2240,  456, 2760,  368
 3447, 1751, 1874,  279,  100
 3448, 2240, 2760,  456, 1993
 3449, 2240, 2222, 2644, 2761
 3450, 1748,  108,  282,  107
 3451, 2240, 2760, 1993, 1986
 3452, 2269,  109,  105,  102
 3453, 2240, 2644,  461,  373
 3454, 2240, 2761,  373,  368
 3455, 1590, 1114, 1611, 1801
 3456, 2542, 1128, 1134, 1343
 3457, 2586,  440,  501,  276
 3458, 2756,  108,  104,  500
 3459, 2762,   11,  542,  977
 3460, 1631, 1632, 1909, 1634
 3461, 1056, 1177, 1661, 1660
 3462, 1909, 1632, 1975, 1634
 3463,  107,  103, 2716,  108
 3464, 2514,  104,   96,   92
 3465, 1215, 1621, 1063, 1560
 3466, 1779, 1343, 2542, 1786
 3467, 2001, 1974, 1909, 1975
 3468, 1909, 1974, 2007, 1977
 3469, 2000, 1909, 1780, 2476
 3470, 2510,   59,   55,   53
 3471, 2340, 1603, 2085, 2634
 3472, 2340, 1601, 1436, 1603
 3473, 2340, 1601, 2763, 1436
 3474, 2522,  118,  112,  113
 3475, 2421,  221,  263,  261
 3476, 2340, 1436, 1438, 2341
 3477, 1438, 2340, 2763, 1436
 3478, 1048, 1337, 1630, 2312
 3479, 2340, 2764, 2341, 2765
 3480, 2742,  225,  224,  248
 3481, 2745, 2315, 2316, 2766
 3482, 2232, 2315, 2316, 2745
 3483, 1476, 2315, 2767, 2232
 3484, 1769,  230,  231,  513
 3485, 2664, 2626, 2526,  241
 3486, 2768, 2766, 2316, 2195
 3487, 1769,  156,  513,  231
 3488, 2618,  142,  504,  143
 3489, 2547,  138,  147,  148
 3490, 2766, 2316, 2195, 2315
 3491, 1339, 2352, 2494, 1345
 3492, 2315, 2767, 2232, 2229
 3493, 2505,  251,  254,  249
 3494,  826, 2508, 2332,  824
 3495, 2611,  142,  121,  140
 3496, 1293, 1753, 1211, 1749
 3497, 2063,  233,  236,  250
 3498, 1539, 2233, 2315, 2766
 3499, 2526,  520,  250,  241
 3500, 2715, 2769, 2629, 2534
 3501, 2544,  146,   49,  298
 3502, 2315, 2767, 2194, 1851
 3503,  107, 2702, 2269, 2591
 3504, 2315, 1192, 1851, 2233
 3505, 2198,  303,  521,  299
 3506, 2414,  209,  135,  137
 3507, 2632, 2770, 2273,  409
 3508, 1494,  159,  157,  153
 3509, 2198,  521,  303,  302
 3510, 1951, 1577, 1685, 2553
 3511, 2060,  148, 2723,  146
 3512, 2771,  430,  428,  427
 3513, 1249, 1693,  203,  199
 3514, 2772,  407,  406,  409
 3515, 2083,  390,  387,  393
 3516, 2203, 1951, 1310, 1866
 3517, 1313, 1315, 1487, 1598
 3518, 2773, 1814, 2203, 1310
 3519, 2272,  255,  246,  257
 3520, 2328,  255,  244,  389
 3521, 2688,  408,  416,  423
 3522, 2328,  401,  255,  389
 3523, 1863, 1596, 1866, 1871
 3524, 1464, 1462, 1951, 1683
 3525, 2260,  108,  281,  282
 3526, 2346,  450,  451,  452
 3527, 2647,  447,  452,  451
 3528, 2033, 2034, 2390, 2035
 3529, 1380, 2450, 2774, 1472
 3530, 1310, 1421, 1419, 1598
 3531, 2221, 1749, 1295, 1950
 3532, 2192,  281,  286,  285
 3533,  914, 1472,  991, 2450
 3534, 1195, 1109, 1469, 2775
 3535, 1401, 1568, 1307, 1537
 3536, 2192,  286,  294,  285
 3537, 1744, 1202, 1573, 1470
 3538, 2185,  508,  503,  293
 3539, 1275, 1465, 1468, 1536
 3540, 1276, 1102, 1538, 1536
 3541, 2569, 1182, 1102, 1276
 3542, 1751,  279,  500,  100
 3543, 1110, 1109, 2775, 1112
 3544, 1182, 1183, 1276, 1112
 3545, 2040,  491,  453,  454
 3546, 2534,  267,  273,  265
 3547, 2776, 2742, 2409, 2063
 3548, 1875,  279,  287,  500
 3549, 2097, 2745, 1743, 1747
 3550, 1570, 2317, 2320, 1537
 3551, 2150, 2506, 2038, 2152
 3552, 2053, 2097, 2098, 1743
 3553, 2062,  264,  267,  262
 3554, 1872, 2102, 1753, 1754
 3555, 2445, 1223, 2038, 1354
 3556, 2445, 1222, 2259, 1223
 3557, 2590, 2292,  669,  670
 3558, 2353,  499,    1,   99
 3559, 2120,  680,  683,   23
 3560, 2765,  448,  446,  449
 3561, 1207, 1223, 2445, 1354
 3562, 2269,  107,  109,  102
 3563, 2751, 1638, 1767, 2407
 3564, 2754, 2151,    4, 2168
 3565, 2751, 2752, 1638, 2407
 3566, 2751, 2777, 1640, 2752
 3567, 2294,  664, 2292, 2293
 3568, 1819, 1824, 1823, 1826
 3569, 1300, 2751, 1636, 1638
 3570, 1300, 1636, 2751, 1640
 3571, 2206,   25,  453,  491
 3572, 2206,  453,   25,    2
 3573, 2353,    3,  290,    1
 3574, 1806, 2072, 1588, 1896
 3575, 1887, 1705, 1689, 1855
 3576, 2294, 2325,  675, 2331
 3577, 1707, 1886, 1887, 1588
 3578, 2532,  230,  155,  515
 3579, 2778,  403,  407,  411
 3580, 2779,  300,  309,  149
 3581, 2411, 2719, 2630, 2029
 3582, 1626,  160, 2627,  308
 3583, 2722, 2748, 2780, 2310
 3584, 1885, 1707, 1886, 1887
 3585, 1588, 1896, 1886, 1898
 3586, 1691, 1588, 1806, 1707
 3587, 2781, 2669, 1534, 2782
 3588, 2520,  521,  300,  299
 3589, 2779,  312,  309,  300
 3590, 2520,  299,  300,  138
 3591, 1555, 1689, 1588, 1705
 3592, 1405, 1251, 1258, 1033
 3593, 2783,  305,  321,  324
 3594, 1095, 1862, 1652, 1270
 3595, 2714, 2629, 2715, 2769
 3596, 2546, 2779, 2057,  149
 3597, 1652, 2629, 2714, 2513
 3598, 1731, 2784, 1144, 2785
 3599, 2513, 1649, 2769, 2714
 3600, 1635, 1862, 1335, 1652
 3601, 2199,  306,  304,  302
 3602, 2632,  427,  409,  424
 3603, 2107, 2477, 2715, 2769
 3604, 2778,  403,  404,  402
 3605, 2477, 2715, 2769, 2714
 3606, 1493,  161,  158,  157
 3607, 1652, 1270, 2714, 2715
 3608, 2714, 2477, 1270, 1862
 3609, 1590, 1391, 1076, 1114
 3610, 2318, 2320, 2786, 2787
 3611, 2628,  230,  515,  242
 3612, 2788, 2328, 2272, 2626
 3613, 2413,  153,  151,  145
 3614, 1131, 1697, 1591, 1074
 3615, 1370, 1425, 1697, 1694
 3616, 2293, 2780, 2294, 2789
 3617, 2050,  159,  153,  145
 3618, 1928, 2413, 1929, 2051
 3619, 1071, 1694, 1697, 1425
 3620, 1591, 1158, 1134, 1698
 3621, 1047, 1540, 1051, 1178
 3622, 1107, 1247, 1329, 1359
 3623, 1925,  151,  154,  152
 3624, 1247, 1728, 1329, 1287
 3625, 1610, 1155, 1079, 1078
 3626, 2671,  242,  515,  239
 3627, 1080, 1078, 1050, 1075
 3628, 2038, 2445, 1354, 1876
 3629, 2063,  250, 2696,  248
 3630, 1888,  158,  154,  153
 3631, 1494, 2614,  159, 2050
 3632, 2495, 2790, 1166, 2500
 3633, 1166, 2743, 1634, 1969
 3634, 2001, 2033, 2173, 2400
 3635, 2081, 2082, 2083, 2699
 3636, 2532,  155,  158,  164
 3637, 1769,  231,  230,  237
 3638, 1166, 2790, 2791, 2483
 3639, 1135, 1164, 1166, 1161
 3640, 1156, 1161, 1166, 1165
 3641, 2044, 2408, 2426,  212
 3642, 1769,  155,  513,  154
 3643, 2459, 2626, 1576, 2465
 3644, 1157, 1166, 1592, 1165
 3645, 1166, 1159, 1969, 1634
 3646, 1432, 1649, 1335, 1862
 3647, 2279,  303,  298,  297
 3648, 1336, 1226, 1379, 1435
 3649, 1041, 1066, 1136, 1042
 3650, 1652, 1270, 1862, 2714
 3651, 1095, 1862, 1045, 1635
 3652, 2477, 1270, 1862, 1269
 3653, 1862, 2313, 2477, 1269
 3654, 2437,  303,  301,  305
 3655, 1862, 2313, 1432, 1649
 3656, 2792,  325,  506,  306
 3657, 2783,  326,  324,  321
 3658, 2515,  315,  306,  506
 3659, 2480, 2001, 1632, 1975
 3660, 2480, 1973, 2744, 2400
 3661, 2792,  324,  325,  306
 3662, 2001, 1975, 1973, 1974
 3663, 1551, 1973, 1968, 1974
 3664, 1973, 2400, 2479, 2744
 3665, 1973, 2479, 1551, 1552
 3666, 2631,  310,  312,  304
 3667, 1955, 2225,   14,  478
 3668, 2350, 2477, 2349, 2657
 3669, 2792,  327,  325,  324
 3670, 2477, 2349, 2657, 2313
 3671, 2313, 2312, 2738, 2657
 3672, 1048, 2313, 1862, 1269
 3673, 1268, 2313, 2793, 1337
 3674, 2313, 1337, 2657, 2793
 3675, 2794,  319, 2718, 2662
 3676, 1048, 2312, 1630, 1432
 3677, 2082,  391,  397,  392
 3678, 2795,  331,  326,  330
 3679, 1585, 1579, 1582, 1578
 3680, 1777, 1579, 2735, 1778
 3681, 2662,  317,  316,  315
 3682, 2796,  408,  396,  511
 3683, 2565, 2796, 2688, 2273
 3684, 2209,  337,  318,  334
 3685, 1776, 2797, 2792, 1947
 3686, 1579, 2735, 1778, 2499
 3687, 1679, 1626, 1684, 1627
 3688, 1985,  465,  464,  477
 3689, 1579, 2798, 1582, 2499
 3690, 1208, 1209, 1401, 1308
 3691, 2180,  340,  339,  345
 3692, 1057, 1308, 1208, 1065
 3693, 2799, 2611, 2618, 2497
 3694, 1196, 1704, 2440, 2504
 3695, 2414, 2044,  209,  213
 3696, 1195, 1197, 1141, 1792
 3697, 2210,  338,  340,  412
 3698, 1196, 1527, 1197, 1792
 3699, 1570, 2318, 1743, 1573
 3700, 2317, 1465, 1204, 2745
 3701, 2480, 2034, 2033, 2036
 3702, 2180,  345,  339,  342
 3703, 1453,  335,  331,  341
 3704, 2317, 2096, 1731, 2441
 3705, 2317, 2318, 2320, 2786
 3706, 2795,  330,  326,  328
 3707, 2317, 1731, 1537, 1465
 3708, 2800,  396,  399,  511
 3709,  318, 2209,  334, 2794
 3710, 2084, 2794,  394, 2201
 3711, 1653, 2801, 2215, 2346
 3712, 2517,  506,  325,  334
 3713, 2644, 2761,  371,  373
 3714, 1944, 2802, 2700, 1453
 3715, 1335, 1334, 1635, 1650
 3716,  318, 2084,  394,  338
 3717, 2078,  433,  431,  421
 3718, 2218,  429,  424,  426
 3719, 2679,  408,  397,  396
 3720, 1860, 1653, 2215, 2040
 3721, 2067, 2586, 1859, 1651
 3722, 2800,  398,  399,  396
 3723, 2515,  317,  315,  506
 3724, 1765, 1764, 1771, 1763
 3725, 2726,  614, 2145,  633
 3726, 2116, 2803,  690,  694
 3727, 2699,  398,  393,  386
 3728, 1653, 1635, 2442, 2801
 3729, 1653, 2442, 2215, 2801
 3730, 1651, 2040, 2067, 2346
 3731, 2201,  511,  399,  413
 3732, 2117, 1348, 2118, 1825
 3733, 2205,  389,  392,  401
 3734, 2804, 2805, 2116, 2167
 3735, 1348, 2496, 2806, 2117
 3736, 2496, 2118, 2117, 1348
 3737, 2124, 2117, 1348, 1899
 3738, 2662,  316,  319,  514
 3739, 1964, 2156, 2162,  808
 3740, 1348, 2124, 2041, 1825
 3741, 2082, 2079, 2679,  397
 3742, 2640,  425,  432,  426
 3743, 1964, 2156,  808,  816
 3744, 1937, 2117, 2118, 2124
 3745, 2746, 2237, 2522, 2117
 3746, 2209, 1452,  334, 2517
 3747, 1763,  231,  237,  234
 3748, 1964, 2507,  823,  822
 3749, 2634,  449,  446,  430
 3750, 2117, 2496, 2806, 2746
 3751, 2641,  423,  424,  409
 3752, 2214,  365,  364,  378
 3753, 2545, 2117, 1348, 2806
 3754, 1451,  343,  342,  341
 3755, 2448,  369,  344,  529
 3756, 2807,  353,  374,  362
 3757, 2200,  416,  511,  413
 3758, 2273,  423,  409,  408
 3759, 2808, 2646, 1070,  352
 3760, 2522, 2117, 2030, 2545
 3761, 1504, 1513, 1509, 1514
 3762, 1699, 1702, 1703, 2705
 3763, 1142, 2643, 2078, 2042
 3764, 2246,  323,  278,  505
 3765, 1656, 1654, 1699, 2809
 3766, 1656, 1657, 1699, 1654
 3767, 1656, 1703, 1701, 1914
 3768, 2065,  296,  322,  323
 3769, 1703, 2530, 2705, 1702
 3770, 2639, 1711, 2338,  358
 3771, 1703, 2810, 1914, 2809
 3772, 1703, 2159, 2809, 2811
 3773, 1520,  280,  284,  283
 3774, 2280,  288,  280,  283
 3775, 2812,  285,  505,  288
 3776, 1224, 2610, 2609, 2813
 3777, 1224, 1674, 2814, 2813
 3778, 1964, 2507,  822, 2494
 3779, 1224, 1239, 1220, 2813
 3780, 2662,  317,  319,  316
 3781, 2701,  109,  282,  283
 3782, 2235, 2230, 2142,    6
 3783, 1438, 2763, 2765, 2815
 3784, 2698,  404,  405,  258
 3785, 1224, 1239, 1217, 1220
 3786, 2260,  281,  285,  282
 3787, 2459, 1762, 2462, 1299
 3788, 1731, 2784, 2785, 2737
 3789, 2230, 1067, 2170,  348
 3790, 1232, 1239, 1217, 1224
 3791, 1220, 2610, 2816, 1224
 3792, 2816, 2610, 2817, 1224
 3793, 2771,  411,  427,  428
 3794, 2818, 1438, 2815, 2100
 3795, 2290, 1743, 1409, 2819
 3796, 2536, 1672, 2365, 2574
 3797, 2612,  404,  403,  400
 3798, 2678, 2770, 2772, 2273
 3799, 2630,  310,  316,  311
 3800, 1533, 1742, 2095, 1818
 3801, 2235,  534, 2142, 2307
 3802, 2536, 2538, 2677, 2367
 3803, 2820, 1491, 1725, 1446
 3804, 2821,  438,  405,  441
 3805, 2778, 2347,  404, 2612
 3806, 2579,  259,  258,  165
 3807, 2031,   49,  110,  109
 3808, 2716,  107,  102,  103
 3809, 2776, 1764, 1771, 1770
 3810, 2820, 1443, 1671, 1491
 3811, 2504, 2187, 2230, 2170
 3812, 2815, 2346,  452, 2100
 3813, 2593,  275,  270,  247
 3814, 2593,  274,  270,  275
 3815, 2702,   95,  102,  105
 3816, 2051, 2052, 2050,  145
 3817, 1723, 2675, 2538, 1725
 3818, 2185,  503, 2246,  505
 3819, 2592,  253,  247,  270
 3820, 1675, 1443, 1670, 1345
 3821, 2822,   94,   96,   95
 3822, 2514,   96,   94,   92
 3823, 2436,  121,  120,  140
 3824, 1447, 1393, 1427, 1442
 3825, 1447, 1491, 1446, 1725
 3826, 1261, 1440, 1550, 1442
 3827, 1031, 1503, 1678, 1449
 3828, 2230, 1067,  348,    7
 3829, 2822,   96,  102,   95
 3830, 2819, 1747, 2097, 1743
 3831, 2422,  227,  229,  263
 3832, 1677, 1854, 1853, 1689
 3833, 2611, 2436,  140,  121
 3834, 2746,  121,  119,  118
 3835, 2428,  226,  228,  229
 3836, 2616,  247,  253,  254
 3837, 2497,  121,  142,  124
 3838, 1677, 1853, 1676, 2823
 3839, 1677, 1676, 2824, 2823
 3840, 2421,  221,  261,  200
 3841, 2171,   84,   88,   90
 3842, 1950, 2701, 2031, 2591
 3843, 1677, 1678, 2087, 1833
 3844, 2703, 2019, 1092,  892
 3845, 1805, 1861, 2281, 2629
 3846, 1071, 1693, 1696, 2108
 3847, 1150, 1692, 1149, 1923
 3848, 2555,  208,  206,  207
 3849, 1587, 1692, 1897, 1316
 3850, 2051,  151,  143,  145
 3851, 2589, 2703, 2588, 2019
 3852, 1692, 1602, 2825, 2010
 3853, 1692, 1602, 2010, 1316
 3854, 2615, 2616,  252, 2690
 3855, 1019, 1020, 1124, 1085
 3856, 1127, 1130, 1129, 1659
 3857, 1364, 1160, 1167, 1367
 3858, 1552, 1975, 2743, 1968
 3859, 2390,   74,   77,   83
 3860, 2826,  223,  226,  220
 3861, 1758, 1414, 1160, 1725
 3862, 2374,  113,   50,   97
 3863, 1755,   45, 2438,   53
 3864, 1611, 1801, 1758, 1590
 3865, 2611, 2497,  121,  142
 3866, 1590, 1611, 1760, 1758
 3867, 1413, 1414, 1760, 1618
 3868, 1132, 1131, 1078, 1590
 3869, 1120, 1416, 1454, 1448
 3870, 1013, 1471, 1168, 1256
 3871, 1029, 1332, 1799, 1244
 3872, 1120, 1031, 1450, 1230
 3873, 2711,  143,  125,  124
 3874, 2197, 2631, 2779,  312
 3875, 1450, 1719, 1503, 1449
 3876, 1450, 1396, 1454, 1716
 3877, 1450, 1449, 1454, 1396
 3878, 1497, 1417, 1544, 1454
 3879, 2696,  251,  249,  248
 3880, 2616,  247,  252,  260
 3881, 2826,  225,  226,  223
 3882, 2772,  406, 2273,  409
 3883, 2723,  110,  148,  101
 3884, 2560, 1809, 2562, 2687
 3885, 2708, 2566, 1607, 2560
 3886, 2318, 1743, 2202, 2053
 3887, 2580,  258,  259,  256
 3888, 2775, 1070, 2808, 2646
 3889, 2579,  258,  405,  165
 3890, 2652, 1089, 2827, 2369
 3891, 2828, 2278, 2305, 2829
 3892, 2830, 1693, 2108, 1249
 3893, 2699,  393,  391,  388
 3894, 2698, 2347, 2612,  404
 3895, 1773, 1776, 1944, 2831
 3896, 2830, 1385, 2832, 2108
 3897, 2830, 2832, 2388, 2183
 3898, 2830, 1249, 2832, 2183
 3899, 2830, 2388, 1385, 2358
 3900, 2204,  407,  401,  392
 3901, 1769, 1763,  237, 2628
 3902, 1166, 2791, 2790, 1161
 3903, 2790, 2483, 2833, 2791
 3904, 2790, 1161, 2834, 1778
 3905, 2329,  401,  402,  255
 3906, 2495, 1161, 2790, 1778
 3907, 2835, 2627, 1681, 2779
 3908, 1131, 1133, 1591, 1697
 3909, 2790, 1161, 1722, 2834
 3910, 2790, 2720, 2500, 2755
 3911, 2204,  407,  392,  406
 3912, 2579,  165, 2690,  259
 3913, 1361, 1340, 1394, 1375
 3914, 2711, 2401, 2434,  125
 3915, 2001, 2033, 2006, 2173
 3916, 2039, 2659, 2529,   60
 3917, 2406, 2401, 1821, 2434
 3918, 2031, 1520,  109, 2701
 3919, 2030,   81,   60,   50
 3920, 2149,   58,   81,   75
 3921, 1345, 1670, 1375, 1361
 3922, 2479, 1551,  182, 2540
 3923, 2568,  263, 2422,  229
 3924, 2062, 2032,  271,  264
 3925, 2056,  193,  194,  216
 3926, 2514, 2822,   96, 1752
 3927, 2393, 2416, 1312, 1772
 3928, 1443, 1444, 1670, 1442
 3929,  154, 1769,  156,  513
 3930, 1790, 1670, 1675, 1444
 3931, 2356, 1769,  231,  156
 3932, 2061,  261,  264,  262
 3933, 1427, 1585, 1426, 1584
 3934,   91, 2759, 2514,  100
 3935, 1682, 1888, 1926, 2412
 3936, 2536, 2676, 1778, 2537
 3937, 2759,   91,   92,   52
 3938, 1925, 2413,  151, 1929
 3939, 1187, 1142, 1945, 1144
 3940, 1774, 1773, 1775, 1776
 3941, 2361, 2421, 2484,  221
 3942, 1774, 1606, 1775, 1190
 3943, 1187, 1775, 1773, 2562
 3944, 2427,  193,  195,  190
 3945, 1809, 2337, 2563, 2565
 3946, 1400, 1425, 1365, 1386
 3947, 1809, 1814, 2337, 2565
 3948, 2361,  220,  221,  219
 3949, 1764,  233,  232,  236
 3950, 1414, 2836, 2675, 1759
 3951, 2543,  220,  219,  216
 3952, 2806,  119,  116,  112
 3953, 1774, 1190, 1946, 1815
 3954, 1361, 1394, 1380, 1393
 3955, 1270, 1234, 1369, 1385
 3956, 1236, 1233, 1369, 1234
 3957, 1578, 1585, 1427, 1584
 3958, 2375,   55,   64,   56
 3959, 2427,  193,  219,  195
 3960, 2475,  192,  191,  200
 3961, 2837, 2838, 2839, 2814
 3962, 1957, 1843, 1840, 1958
 3963, 2410,  189,  172,  183
 3964, 1971,  189,  188,  190
 3965, 1659, 1617, 1590, 1078
 3966, 1132, 1590, 1758, 1391
 3967, 2381,   65,   63,   78
 3968, 2479,   73,   72,  168
 3969, 1077, 1126, 1267, 1044
 3970, 2399,   79, 2035,   74
 3971, 1115,  524,  176,   32
 3972, 2484,  191,  195,  200
 3973, 2615, 2525,  251, 2505
 3974, 1922, 1960, 1377, 2840
 3975, 1383, 1384, 1370, 1387
 3976, 2750,  197,  200,  201
 3977, 1720, 1723, 1725, 2675
 3978, 1720, 1415, 1414, 1164
 3979, 1721, 1415, 2368, 2836
 3980, 2490,  197,  192,  200
 3981, 1721, 2368, 1415, 2584
 3982, 1721, 2675, 2836, 2491
 3983, 2000, 2001, 2033, 2006
 3984, 1785, 1638, 1823, 1636
 3985, 2003, 1785, 1823, 2004
 3986, 1785, 2752, 2751, 1640
 3987, 2004, 2045, 2006, 2005
 3988, 2475,  191,  192,  176
 3989, 2004, 1823, 2403, 1826
 3990, 1828, 2841, 2842, 2732
 3991, 1766, 2356, 2417, 1929
 3992, 2470,  186, 2002, 2372
 3993, 2190,   78,   76,   77
 3994, 2843, 1959, 1843, 1960
 3995, 1960, 1957, 1961, 1378
 3996, 2056,  188,  193,  190
 3997, 1828, 2842, 1152, 1602
 3998, 1149, 1317, 1318, 1151
 3999, 1828, 2804, 1830, 1154
 4000, 2364,   28,  969, 1000
 4001, 1828, 2842, 2841, 1152
 4002, 1838, 1791, 2844, 1845
 4003, 1828, 2845, 1830, 2804
 4004, 2738,  274,  275,  438
 4005,  271,  263, 2032, 2568
 4006, 1728, 1287, 1873, 1329
 4007, 2017,   94,   95,   93
 4008, 1760, 2377, 1755, 2423
 4009, 1939, 2149, 2368, 2424
 4010, 1728, 1873, 1729, 1329
 4011, 1054, 1225, 1598, 1419
 4012, 2334, 2515, 2792, 2517
 4013, 1114, 2177, 1884, 1107
 4014, 1479, 1476, 2599, 1477
 4015, 2062,  264,  271,  267
 4016, 1838, 1845, 2844, 1844
 4017, 2767, 1479, 1476, 2599
 4018, 1477, 2599, 1747, 1476
 4019, 1194, 1199, 1477, 1476
 4020, 2496,  121,  124,  119
 4021,  126,  130, 1824, 2045
 4022, 2403, 2555, 2396,  512
 4023, 1747, 1205, 1201, 1476
 4024, 2586,  501,  440,  444
 4025, 2018, 2846,  619,  781
 4026, 1880, 1243, 2847, 1467
 4027, 1877,   91,   52,  499
 4028, 1880, 1243, 1467, 2848
 4029, 1879, 1280, 1544, 1397
 4030, 1879, 1243, 1880, 1882
 4031, 1880, 1243, 2848, 1882
 4032, 1751,  500,  104,  100
 4033, 2513,  273,  501,  277
 4034, 1879, 1396, 1881, 1397
 4035, 2350,  271,  272,  267
 4036, 1611, 1938, 2523, 1612
 4037, 1938, 2523, 2510, 2425
 4038, 2502, 2849,  928,  923
 4039, 2555, 2396,  512,  206
 4040, 2350,  276,  272,  271
 4041, 1938, 2424, 1935, 1939
 4042, 2044, 1638, 1820, 1823
 4043, 1345, 1443, 1672, 1675
 4044, 1938, 1796, 1939, 1935
 4045, 1938, 1612, 1796, 1935
 4046, 1542, 1511, 1548, 1668
 4047, 2110, 2111,  722,  738
 4048, 2350,  272,  276,  273
 4049, 1028, 1412, 1417, 1486
 4050, 1879, 1416, 1280, 1242
 4051, 1549, 1542, 1718, 1544
 4052, 1497, 1499, 1716, 1544
 4053, 2850,  487,  484,  489
 4054, 2110, 2851,  738,  736
 4055, 1417, 1667, 1218, 1280
 4056, 1496, 1319, 1508, 1498
 4057, 1512, 1549, 1499, 1498
 4058, 2647,  442,  447,  451
 4059, 2258,  442,  441,  447
 4060, 2821,  442,  438,  441
 4061, 2527, 2110, 1999, 2852
 4062, 2063,  250, 2525, 2696
 4063, 2301, 2302,  374, 2807
 4064, 1265, 1028, 1228, 1263
 4065, 2853,  437,  385,  436
 4066, 2764,  436,  449,  430
 4067, 2305, 1913, 2182, 1757
 4068, 2549, 2246, 2065, 1663
 4069, 1515, 1913, 1912, 1953
 4070, 2636,  322,  328,  326
 4071, 2632,  429,  427,  424
 4072, 1734, 1913, 1701, 2015
 4073, 1515, 1914, 1701, 1953
 4074, 2671,  242,  245,  240
 4075, 1504, 1515, 1700, 1505
 4076, 1843, 1840, 1958, 1844
 4077, 1482, 2854, 1913, 2027
 4078, 2681, 2682, 1381, 2855
 4079, 1482, 1913, 2854, 1756
 4080, 2110, 2851,  736, 2852
 4081, 2615,  252,  251,  259
 4082, 2856, 1279, 1162, 1219
 4083, 1130, 1134, 1128, 1343
 4084, 1937, 2014, 1904, 1935
 4085, 2521, 2014, 1936, 1935
 4086, 2856,  778, 1788, 1812
 4087, 2696,  251,  248,  250
 4088, 1714, 1796, 1935, 1904
 4089, 1371, 1665, 1122, 2621
 4090, 1788, 2856, 1545, 2021
 4091, 2856, 1279,  761, 1812
 4092, 2496,  119,  124,  122
 4093, 1771,  234, 1764,  495
 4094, 2615, 2690,  259, 2580
 4095, 2856,  778, 1812,  761
 4096, 1665, 2623, 1122, 2621
 4097, 2856, 1162, 2021,  782
 4098, 1371, 2119, 1558, 1557
 4099, 1559, 1557, 1411, 1554
 4100, 2615,  251,  252,  254
 4101, 1407, 1554, 1589, 1411
 4102, 1122, 2621, 2009, 1094
 4103, 2054,  256,  251,  520
 4104, 1558, 1557, 1998, 1559
 4105, 2857, 2676, 2574, 2537
 4106, 2568,  253,  270,  229
 4107, 2351,  254,  253,  229
 4108, 1375, 1341, 1361, 1340
 4109, 1012, 1014, 1011, 1171
 4110, 1557, 1411, 2858, 1998
 4111, 1411, 1557, 2858, 2105
 4112, 1644, 1509, 2415, 2405
 4113, 2696,  249,  225,  248
 4114, 2447,   76,   80,   82
 4115, 2624,  225,  228,  226
 4116, 1514, 1628, 2859, 2405
 4117, 1514, 2846, 1513, 2859
 4118, 1512, 1813, 1545, 1787
 4119, 2846, 1514, 1512, 2860
 4120, 1504, 1509, 1508, 1514
 4121, 1512, 1514, 1499, 2860
 4122, 1310, 1596, 1315, 1598
 4123, 1418, 1379, 1226, 1435
 4124, 2616,  254,  252,  247
 4125, 2690,  252,  259,  260
 4126, 2857, 2697, 2861, 2862
 4127, 2615,  251,  256,  259
 4128, 1435, 1630, 2312, 1432
 4129, 1435, 2416, 1601, 1434
 4130, 1313, 1311, 1487, 1314
 4131, 2419, 2203, 1951, 1310
 4132,  217,  223, 2048,  218
 4133, 1418, 1604, 1423, 1419
 4134, 2426,  217,  208,  212
 4135, 1348,  116,  123,  117
 4136, 1305, 1431, 1053, 1430
 4137, 1305, 1302, 1541, 1461
 4138, 1305, 1225, 1619, 1598
 4139,  215,  208, 2392,  217
 4140, 2048,  217,  222,  223
 4141, 1054, 1541, 1305, 1430
 4142, 1225, 1630, 1619, 1421
 4143, 2408,  222,  212,  224
 4144, 2426,  222,  217,  212
 4145,  264,  271,  263, 2032
 4146, 2434,  125,  131,  123
 4147, 1402, 1403, 1202, 1200
 4148, 1468, 1307, 1792, 1727
 4149, 1140, 2802, 2795, 1711
 4150, 1192, 1205, 2745, 1476
 4151, 1539, 2745, 1465, 2766
 4152, 2856, 1162,  782,  759
 4153, 1275, 1539, 1204, 1465
 4154, 1191, 1275, 1401, 1109
 4155, 2499, 2755, 2500, 2460
 4156, 1277, 1402, 1704, 1285
 4157, 2792, 2517,  506,  325
 4158, 1531, 2568, 2428, 2351
 4159, 1531, 2505, 2689, 2351
 4160, 2028,  387,  238,  517
 4161, 1466, 1532, 1431, 1530
 4162, 1344, 1337, 1338, 1531
 4163, 2559,  245,  243,  240
 4164, 2083,  393,  388,  390
 4165, 1531, 2568, 2422, 2428
 4166, 1138, 1183, 1141, 1727
 4167, 1296, 1466, 2863, 1532
 4168, 1531, 1530, 1337, 2592
 4169, 1466, 1344, 1531, 1530
 4170, 1405, 1184, 1033, 1689
 4171, 2203, 2082, 2679, 2204
 4172, 2411,  516,  313,  386
 4173, 2411, 2083, 2719, 2029
 4174, 1607, 1144, 1730, 2864
 4175, 1031, 1676, 1237, 1449
 4176, 1029, 1535, 1332, 1024
 4177, 2679,  397,  408,  406
 4178, 2831, 1451, 1453, 2700
 4179, 2680, 2411,  386, 2083
 4180, 2204,  397,  406,  392
 4181, 1099, 1143, 1536, 1144
 4182, 1338, 2032, 1795, 2421
 4183, 1676, 1449, 2824, 1798
 4184, 1240, 1330, 1676, 2661
 4185, 2699,  393,  398,  391
 4186, 2079,  397,  391,  396
 4187, 2707,  529, 2448, 2179
 4188, 1240, 1676, 1854, 1853
 4189, 2747, 1663, 2552, 2437
 4190, 1031, 1677, 1676, 1449
 4191, 2794,  394,  395,  319
 4192, 1451, 2700,  341, 1453
 4193, 2210,  339, 2180,  340
 4194, 2452, 2865, 2210, 2287
 4195, 2179, 1451, 2700,  343
 4196, 2790, 2833, 2834, 1722
 4197,  442,  438, 2075, 2821
 4198, 2418,  439,  440,  274
 4199, 1237, 1676, 1798, 1449
 4200, 1233, 1171, 1169, 1235
 4201, 1242, 1217, 2847, 1238
 4202, 1879, 1448, 1243, 1882
 4203, 1451,  341, 2700,  343
 4204, 2349,  274,  440,  276
 4205, 1879, 1396, 1448, 1882
 4206, 2593,  274,  271,  270
 4207, 2180, 1452,  342,  339
 4208, 2158,  893, 2866,  894
 4209, 1879, 1396, 1454, 1448
 4210, 1242, 1280, 1880, 1217
 4211, 1880, 1217, 1280, 1281
 4212, 1626,  308,  161,  160
 4213, 2073,  439,  443,  440
 4214, 1799, 1669, 2296, 1535
 4215, 2499, 2861, 2460, 2862
 4216, 2867, 2693, 2158,  799
 4217, 1861,  268,  277,  453
 4218, 2868,  481,  471,  480
 4219, 1108, 1241, 1332, 1448
 4220, 1332, 1331, 1243, 1448
 4221, 2096,  481,  472,  471
 4222, 2238,  376,  354,  355
 4223, 1144, 2784, 1143, 2785
 4224, 2180,  345,  414,  340
 4225, 1304, 1460, 1916, 1461
 4226, 1296, 1305, 1175, 1431
 4227, 1296, 1298, 1300, 1301
 4228, 2644,  372,  461,  373
 4229, 2301,  374,  375,  363
 4230, 2869, 2870, 2871, 2866
 4231, 2433,  457,  526,  418
 4232, 1306, 2459, 2461, 1299
 4233, 1541, 1847, 1302, 1430
 4234, 1306, 2391, 1487, 1532
 4235,  375, 2872, 2212,  377
 4236, 1054, 1430, 1053, 1051
 4237, 2768,  480,  471,  479
 4238, 1139, 1710, 2802, 1711
 4239, 1303, 1928, 1768, 1641
 4240, 1303, 2412, 1768, 1928
 4241, 1303, 1768, 2115, 1298
 4242, 1924, 1928, 1926, 1925
 4243, 1298, 1641, 1770, 1297
 4244, 2459, 1488, 1576, 2458
 4245, 2245,  525,  375,  374
 4246, 2768,  480,  479,  483
 4247, 2795,  330,  328,  329
 4248, 2308,  382,  378,  494
 4249, 1768, 1298, 1770, 1762
 4250, 1768, 2458, 1298, 1762
 4251, 1631, 1633, 1135, 1129
 4252, 1156, 1135, 1166, 1161
 4253, 2511, 1594, 1424, 1159
 4254, 2223,  378,  370,  365
 4255, 1082, 1851, 1955, 2330
 4256, 1424, 1365, 1425, 1698
 4257, 1157, 1159, 1594, 1592
 4258, 1631, 1634, 1972, 1969
 4259, 1592, 1594, 2511, 1159
 4260, 2873, 2843, 1842, 1960
 4261, 2873, 1575, 1906, 1922
 4262, 2217,  383,  382,  380
 4263, 2200,  415, 2077,  417
 4264, 2223,  370,  378,  382
 4265, 2873, 2843, 2874, 1090
 4266, 1082, 1955, 2225,   14
 4267, 2586, 1859, 2513,  501
 4268, 1777, 2736, 2875, 2537
 4269, 2873, 1922, 2840, 1960
 4270, 2433,  418,  369,  457
 4271, 1090, 1091, 2874, 2873
 4272, 1149, 1923, 1152, 1150
 4273,  417,  415, 2077,  421
 4274, 1692, 1687, 2876, 1923
 4275, 2297,  479,  465,  477
 4276, 1687, 2668, 1688, 2478
 4277, 1895, 1687, 2654, 2594
 4278, 2099,  476,  475,  474
 4279, 2797,  325,  327,  335
 4280, 1710,  361,  333,  360
 4281,  381,  475, 2244,  383
 4282, 1147, 1251, 1643, 1322
 4283, 1405, 1251, 1586, 1258
 4284, 2877,  880, 2878,  876
 4285, 2099,  478,  474,  381
 4286, 2879, 2878,  992, 2880
 4287, 1806, 1707, 1588, 2072
 4288,  372, 2644, 2430,  370
 4289, 2240,  462,  368,  373
 4290, 2843, 1960, 2881, 1959
 4291, 1806, 1687, 1708, 2654
 4292, 1687, 2654, 2594, 1708
 4293, 1588, 1896, 1587, 1806
 4294, 1990,  455,  460,  459
 4295, 1621, 1141, 2548, 1197
 4296, 2084, 2865, 2200,  412
 4297, 1947,  331,  327,  326
 4298, 1350, 1351, 1115, 2511
 4299, 2210,  337,  340,  338
 4300, 1985,  465,  458,  464
 4301, 1604, 1793, 1815, 1560
 4302, 2882,  361,  360,  356
 4303, 1307, 1793, 1726, 1715
 4304, 2179,  523,  529,  343
 4305, 2708, 1607, 1603, 1730
 4306, 1731, 2096, 2101, 2737
 4307, 1946, 1140, 1948, 2883
 4308, 1726, 1730, 1190, 1188
 4309, 1946, 1815, 2883, 1948
 4310, 2883, 1946, 2548, 2549
 4311, 1621, 2548, 1138, 2549
 4312, 1990,  460,  510,  459
 4313, 1188, 1189, 1190, 1138
 4314, 1093, 1094, 1095, 1635
 4315, 2730, 2732, 2116, 2845
 4316, 1065, 1096, 1564, 1373
 4317, 1093, 1334, 1566, 1635
 4318, 2884,  366,  356,  371
 4319, 2463, 1349,   30, 2370
 4320, 1572, 1568, 1571, 1807
 4321, 1744, 2265, 1998, 1919
 4322, 1452,  342,  339,  336
 4323, 1206, 1479, 1473, 1477
 4324, 1744, 1201, 1202, 1559
 4325, 2432,  422,  510, 2286
 4326, 1744, 1559, 1994, 1201
 4327, 1477, 1479, 1476, 1199
 4328, 1204, 1192, 1205, 2745
 4329, 2668, 2842, 2672, 1923
 4330, 2666, 2670, 2668, 2665
 4331, 1711,  330,  329,  332
 4332, 2668, 2478, 2667, 2885
 4333, 1473, 1687, 2478, 1708
 4334, 2797,  325,  335,  334
 4335, 1393, 1583, 1380, 1381
 4336, 1424, 1157, 1400, 1365
 4337, 1425, 1349, 2370, 1390
 4338, 1156, 1160, 1364, 1133
 4339, 2269, 2071,  106,  101
 4340, 2641,  425,  424,  423
 4341, 1447, 1165, 1778, 1161
 4342, 1156, 1427, 1400, 1392
 4343, 2802,  330,  333,  331
 4344, 1165, 1427, 1585, 1426
 4345, 1157, 1165, 1593, 1426
 4346, 1444, 1441, 1791, 1838
 4347, 1838, 1931, 2844, 1791
 4348, 2210,  414,  412,  340
 4349, 1439, 1442, 1261, 1444
 4350, 1838, 1842, 1259, 1845
 4351, 1838, 1375, 1839, 1841
 4352, 1262, 1667, 1030, 1553
 4353, 1260, 1918, 1961, 1842
 4354, 2802,  331,  333,  341
 4355, 1489, 1445, 1440, 1441
 4356, 1492, 1803, 1446, 1490
 4357, 2886,  467, 2737, 1989
 4358, 1803, 1446, 2820, 1725
 4359,  344, 2454,  345,  418
 4360, 1988,  471,  466,  470
 4361, 1711,  358,  332,  329
 4362, 1803, 1367, 1801, 1884
 4363, 2143, 2728,  614, 2145
 4364, 1725, 1759, 2887, 1758
 4365, 2653, 2888, 2889, 2578
 4366, 2653, 2888, 2578, 2303
 4367, 2653, 1707, 1885, 1892
 4368, 2653, 1885, 2303, 1892
 4369, 1991,  465,  455,  458
 4370, 2890,  359,  356,  360
 4371, 2891, 2065,  322, 2636
 4372, 2884,  366,  361,  356
 4373, 2654, 1707, 1708, 1806
 4374, 1336, 1379, 1059, 1807
 4375, 2639,  332,  358,  360
 4376, 1181, 1207, 1216, 1222
 4377, 1872, 1724, 2445, 2102
 4378, 2892,  368,  367,  366
 4379, 1093, 1335, 1334, 1635
 4380, 2890,  359,  365,  356
 4381, 2567, 2490, 2484, 2750
 4382, 1385, 2832, 1804, 2388
 4383, 1457, 1419, 1517, 1541
 4384, 2104, 1876, 1724, 2152
 4385, 2445, 1223, 2259, 2506
 4386, 2234,  476,  463,  461
 4387, 1222, 1223, 1214, 2259
 4388, 1210, 1211, 1222, 1214
 4389, 2804, 1203, 2893, 2805
 4390, 1293, 1295, 1291, 1749
 4391, 1139, 1140, 1141, 1711
 4392, 1346, 2894, 2736, 2740
 4393, 1221, 1295, 1293, 1749
 4394, 2895, 1710, 2639, 2882
 4395, 2896, 2084, 2209, 2865
 4396, 2896, 2831, 1773, 2452
 4397, 2896, 1773, 2831, 1776
 4398, 2085,  427, 2632,  429
 4399, 2896, 2517, 2209, 2897
 4400, 1702, 1734, 1732, 1700
 4401, 2700,  333,  343,  341
 4402, 1930, 1789, 1259, 1791
 4403, 1356, 1930, 1547, 1668
 4404, 2700,  523,  343,  333
 4405, 1266, 1668, 1733, 1543
 4406, 1480, 1265, 1259, 1485
 4407, 2286, 2432, 1990,  510
 4408, 2449,  369,  529,  367
 4409, 1542, 1511, 1486, 1549
 4410, 2449,  369,  456,  457
 4411,  367, 2707, 2898,  523
 4412, 1265, 1486, 1266, 1485
 4413, 1028, 1667, 1486, 1417
 4414, 1667, 1029, 1416, 1028
 4415, 2728,  614, 2726,  617
 4416, 2252,  488,  519,   23
 4417, 2533,  346,  295,  292
 4418, 1542, 1266, 1668, 1547
 4419, 1547, 2613, 1546, 1667
 4420, 2899, 2900, 2901, 2157
 4421, 1668, 1511, 1548, 1657
 4422, 2246,  505,  503,  323
 4423, 1733, 2694, 2704, 2706
 4424, 1699, 1733, 2704, 2706
 4425, 2728,  615, 2143,  614
 4426, 1930, 1485, 1733, 2023
 4427, 1789, 1547, 1667, 2613
 4428, 2815,  447,  448,  452
 4429, 2902,  632, 2145, 2903
 4430, 1481, 1930, 1791, 2023
 4431, 2184,  503,  508,  351
 4432, 2726, 2145, 2902,  633
 4433, 1616, 2020, 2902, 2903
 4434, 2734,  293,  294,  295
 4435, 1668, 2694, 1966, 1358
 4436, 1356, 2613, 1789, 1790
 4437, 2904,  683,   24,   23
 4438, 2528, 2159, 1703, 2160
 4439, 2812,  285,  293,  505
 4440, 2528, 2810, 1979, 1952
 4441, 2763,  448,  447,  446
 4442, 2905,  452,  448,  489
 4443, 1952, 2415, 2906, 1912
 4444, 2907,  754,  982,  758
 4445, 2754,  533,    4,    3
 4446, 1952, 2415, 2908, 2906
 4447, 2649,  768,  760,  772
 4448, 2075,  438,  439,  274
 4449, 2104,    3,  347,  290
 4450, 2528, 1953, 2181, 2527
 4451, 2528, 2810, 2684, 1979
 4452, 1399,  584,  589,  588
 4453, 2728, 2726, 2730,  692
 4454, 1478, 1479, 2324, 2012
 4455,    5, 2152,    4,  347
 4456, 2754,    3,    4,  347
 4457, 1509, 2415, 1952, 1912
 4458, 1590, 1796, 1618, 1612
 4459, 2186,  508,  295,  349
 4460, 1611, 1114, 1802, 1801
 4461, 1246, 1290, 2741, 1292
 4462, 2205,  392,  389,  388
 4463, 1565, 2103, 2137, 2100
 4464, 1610, 1617, 1612, 2909
 4465, 1246, 1610, 2177, 2741
 4466, 1610, 2177, 1611, 1114
 4467, 1246, 1610, 1114, 2177
 4468, 1610, 1617, 2909, 1290
 4469, 1350, 1349, 1425, 1386
 4470, 2891,  328,  322,  296
 4471, 2891,  296,  329,  328
 4472, 2179,  343,  529,  345
 4473, 1400, 1350, 1429, 1426
 4474, 1157, 1158, 1365, 1424
 4475, 2896, 1776, 2831, 1452
 4476, 1429, 1376, 2910, 2378
 4477, 2911,  313,  514,  386
 4478, 1386, 1390, 1376, 1429
 4479, 2565, 2679, 2796, 2273
 4480, 1429, 1428, 1426, 2910
 4481, 1429, 2910, 2581, 2378
 4482, 2688, 2273,  423, 2641
 4483, 1715, 2341, 1807, 1436
 4484, 2630, 2029, 2631,  311
 4485, 1726, 1793, 1730, 1715
 4486, 2517,  334,  317,  506
 4487, 1715, 1379, 1436, 1807
 4488, 1419, 1596, 1458, 1604
 4489, 1730, 1537, 1468, 1715
 4490, 2794,  394,  319,  318
 4491, 1307, 1568, 1715, 1537
 4492, 2726, 2145, 1615, 2902
 4493, 1418, 1420, 1435, 1421
 4494, 1482, 2854, 2022, 1817
 4495, 2083, 2699, 2082,  388
 4496, 2022, 2827, 1810, 1827
 4497, 1813, 1499, 1718, 2912
 4498, 1514, 1501, 2860, 2913
 4499, 2911,  386,  395,  398
 4500, 2914, 2860, 2912, 1501
 4501,  647, 2915, 2330,   15
 4502, 2860, 2912, 1501, 1499
 4503, 1682, 2532, 1888, 1493
 4504, 1487, 2391, 2465, 1311
 4505, 2915, 2129, 2288,  975
 4506, 1682, 1679, 1495, 1681
 4507, 2688,  511,  416,  408
 4508, 1919, 1998, 2121, 2138
 4509, 1681, 1682, 1463, 1917
 4510, 1682, 1495, 1679, 1493
 4511, 1682, 1463, 1917, 2115
 4512, 2916, 2890, 2884, 2882
 4513, 1896, 1835, 1624, 1832
 4514, 2728,  692, 2730, 2116
 4515, 1682, 1917, 1495, 2614
 4516, 1682, 1917, 2614, 2412
 4517, 2640,  425,  426,  424
 4518, 2802,  333,  330,  332
 4519, 1619, 1313, 1311, 1487
 4520, 2215, 2346,  488,  450
 4521, 1304, 1463, 1488, 2115
 4522, 2643,  434,  432,  431
 4523, 1306, 1532, 2461, 2391
 4524, 1584, 1393, 1442, 1427
 4525, 1443, 1777, 1491, 1442
 4526, 2454,  418,  422,  419
 4527, 2495, 1165, 1161, 1778
 4528, 2644, 2223,  370, 2224
 4529, 2644,  372,  371,  370
 4530, 2867, 2695, 2692, 2693
 4531, 2227,  652, 2327,  650
 4532, 2867, 2693,  799,  815
 4533,  526, 2432, 2433,  422
 4534, 2867, 2917, 2918, 2919
 4535, 2915, 1955,   16, 2194
 4536, 2884, 2890,  356, 2882
 4537, 2867, 2917, 2919, 2877
 4538, 1100, 2760, 1984, 1992
 4539, 2867, 2158, 2692, 2917
 4540, 1993,  456,  464,  458
 4541, 2569, 1710, 1711, 2639
 4542, 2867,  875, 2877,  800
 4543, 2867,  799, 2158,  875
 4544, 1951, 2203, 2553, 2081
 4545, 1814, 2203, 1310, 1866
 4546, 1866, 2081, 1868, 2342
 4547, 2342, 2337, 1868, 1866
 4548, 2865,  415,  412,  414
 4549,  336, 2210,  337,  339
 4550, 1452, 1453,  342,  335
 4551, 1866, 2337, 1868, 1808
 4552, 1768, 2412, 1926, 1928
 4553, 2200,  415,  413,  412
 4554, 1765, 1924, 1768, 1769
 4555, 1926, 1769, 1925,  154
 4556, 1926,  155, 1769,  154
 4557, 1926, 1928, 2412, 2413
 4558, 1926, 2412, 1888, 2413
 4559, 2642,  435,  426,  432
 4560, 1453,  331,  335,  327
 4561, 2200,  415,  416,  413
 4562, 2532,  155, 1769, 1926
 4563, 1710,  332,  360,  333
 4564, 2634, 2771,  430,  428
 4565, 1735, 2622, 2920, 2623
 4566, 2737,  467,  471,  468
 4567, 1533, 2345, 2086, 1736
 4568, 2688,  425,  423,  416
 4569, 2200,  417,  416,  415
 4570, 2728,  616, 2732, 2731
 4571, 1533, 2095, 1742, 1739
 4572, 1601, 2771, 2634, 2264
 4573, 1735, 2622, 1737, 2095
 4574, 1735, 2920, 2622, 1739
 4575, 1735, 2921, 2920, 1736
 4576, 2642,  432,  434,  435
 4577, 1533, 1737, 1736, 2086
 4578, 2239, 2234,  463,  461
 4579, 2781,  993, 2782,  665
 4580, 2646,  329,  296,  351
 4581, 2247,  351,  296,  503
 4582, 2247,  296,  323,  503
 4583, 2781, 2130, 2131, 2254
 4584, 2781, 2130, 2669, 2131
 4585, 2728, 2727, 2143, 2732
 4586, 2781,  610,  611,  607
 4587,  570,  607, 2133, 2781
 4588, 2179,  345,  529,  344
 4589, 2792, 2515,  506, 2517
 4590, 2077,  417,  425,  416
 4591, 1867, 2515, 2633, 2199
 4592, 2634,  430, 2764,  449
 4593, 2077,  421,  425,  417
 4594,  361, 2882, 1710,  523
 4595, 2348, 2520, 1524, 2198
 4596, 2922,  434,  437,  435
 4597, 2781, 1534,  570,  665
 4598, 2781, 2130, 2133, 2669
 4599, 1339, 1010, 2855, 1342
 4600, 2923,  437,  436,  435
 4601, 2923,  436,  430,  435
 4602, 2338,  358,  329,  357
 4603, 1434, 2763, 1437, 2074
 4604, 2184,  508,  350,  351
 4605, 1154, 2924, 2893, 2925
 4606, 1345, 1341, 2494, 1339
 4607, 1004, 2352, 2494, 1339
 4608, 1339, 1004, 2332, 2494
 4609, 2273, 2641,  409,  423
 4610, 1870, 1561, 1521, 1519
 4611, 1034,  385,  449,  436
 4612, 2287,  414,  420,  415
 4613, 1034,  385,  487,  449
 4614, 2808,  352,  357,  329
 4615, 1315, 1310, 1314, 1464
 4616, 1137, 1180, 1047, 1155
 4617, 1212, 1517, 1213, 1563
 4618, 1455, 1458, 1462, 1456
 4619, 1828, 2893, 1152, 2841
 4620, 1815, 2550, 1870, 1561
 4621, 2478, 2667, 2926, 2780
 4622, 1473, 1708, 2478, 2013
 4623, 1601, 2258, 2634, 2763
 4624, 2186,  295,  508,  293
 4625, 2797, 1453,  335,  327
 4626, 2478, 2667, 2885, 2926
 4627, 2340, 2763, 2634, 2765
 4628, 2287,  420,  422,  421
 4629, 2670, 2876, 1923, 2669
 4630, 2478, 2780, 2666, 2667
 4631, 2084, 2865,  412,  338
 4632, 2297, 1987, 1985,  465
 4633, 2707,  529, 2179,  523
 4634, 2792, 2515,  306,  506
 4635, 2478, 2013, 2666, 2748
 4636, 2896, 2084, 2865, 2563
 4637, 2287,  420,  421,  415
 4638, 1189, 1945, 1944, 1188
 4639, 1774, 1775, 1949, 1776
 4640, 2454,  345,  419,  414
 4641, 1768, 1682, 2115, 2458
 4642, 1567, 2818, 2103, 2100
 4643, 1990, 2432,  459,  510
 4644, 1767, 1642, 1638, 1641
 4645, 2515,  506, 2517,  317
 4646, 1296, 1466, 1297, 2863
 4647, 1303, 2115, 2412, 2049
 4648, 1452,  336,  335,  342
 4649, 1754,  500, 2102,  281
 4650, 1651, 2647, 2346, 2067
 4651, 1641, 1297, 2776, 1770
 4652, 1765, 1771, 1770, 1767
 4653, 1300, 1641, 1298, 1297
 4654, 2807,  362,  352,  353
 4655, 2819,   19,   20,  482
 4656, 1466, 1173, 1530, 1431
 4657, 2245,  525,  374,    9
 4658, 1296, 1299, 2863, 1297
 4659, 1107, 1241, 1108, 1106
 4660, 2302,  374,  353,  376
 4661, 1306, 2459, 2458, 1488
 4662, 1466, 1531, 1712, 2863
 4663, 2850,  485,  484,  487
 4664, 1680, 1577, 1488, 1576
 4665, 1619, 1530, 1630, 1431
 4666, 2595,  557,  561,  563
 4667, 2470, 2398, 2404,  185
 4668, 2398, 2395, 2171, 2173
 4669, 2398,   90, 2171, 2395
 4670, 2398,   86, 2171,   90
 4671, 2398,  184, 2541, 2404
 4672, 2316,  480,  483,  497
 4673, 2872,  377,  375,  379
 4674, 2577,  363,  357,  362
 4675, 2577,  374,  363,  362
 4676,  184,   89,   90, 2398
 4677, 1142, 2286, 2078, 2287
 4678, 1422, 1423, 1606, 1609
 4679, 2240,  368,  462,  456
 4680, 1436, 1379, 1603, 1601
 4681, 2923, 2764,  436, 2853
 4682, 1056, 1617, 1155, 1178
 4683, 2217,  382,  494,  380
 4684, 1772, 1630, 2312, 1435
 4685, 2234,  463,  476,  477
 4686, 2239,  462,  463,  464
 4687, 1432, 1435, 2524, 2312
 4688, 1541, 1846, 1518, 1916
 4689, 1619, 1431, 1532, 1530
 4690, 2212, 2338,  363,  359
 4691, 2224, 2884, 2890,  356
 4692, 2761,  373,  366,  371
 4693, 2927, 1941, 2928, 2925
 4694, 1305, 1619, 1487, 1598
 4695, 2430,  475,  461,  372
 4696, 1226, 1048, 1630, 1432
 4697, 1758, 1803, 1367, 1801
 4698, 2296, 1803, 1800, 1535
 4699, 2430,  383,  475,  372
 4700, 2099,  476,  493,  477
 4701, 2240,  462,  373,  461
 4702, 2224,  370,  371,  365
 4703, 2234,  476,  461,  475
 4704, 2195,  483,  493,   17
 4705, 1443, 1446, 2820, 1674
 4706, 1941, 2928, 2925, 1943
 4707, 2538, 2820, 1491, 1725
 4708, 1439, 1491, 1447, 1442
 4709, 2099,  474,  475,  381
 4710, 1439, 1443, 1444, 1445
 4711, 1156, 1159, 1158, 1157
 4712, 1023, 1113, 1368, 1363
 4713, 2707,  367,  529,  523
 4714, 1446, 1674, 1490, 2820
 4715, 1830, 1943, 2929, 1942
 4716, 1440, 1427, 1392, 1550
 4717, 2928, 1941, 2929, 1943
 4718, 2423, 2375, 1755, 2425
 4719, 1987,  465,  470,  455
 4720, 2340, 2634, 2085, 2764
 4721, 2423, 2836, 1760, 2377
 4722, 2638,  434,  468,  437
 4723, 2423, 2836, 1618, 1760
 4724, 1611, 1802, 2379, 1760
 4725, 2886,  470,  466,  455
 4726, 2868,  497,  481,  480
 4727, 1938, 2423, 1618, 2425
 4728, 2423, 1415, 2836, 2368
 4729, 2423, 2424, 1939, 2368
 4730, 1907, 2480, 2482, 2481
 4731, 2761,  373,  368,  366
 4732, 2483, 1975, 2743, 2482
 4733,  466,  467, 2886,  460
 4734, 2304,  978, 2076, 2241
 4735, 2097,  481,  482,  472
 4736, 1035,  507,  473,  486
 4737, 2480, 2482, 1973, 1975
 4738, 2096,  472,  468,  471
 4739, 2808,  362,  357,  352
 4740, 1034,  385,  486,  487
 4741,  551,  553,  568, 2309
 4742, 2853,  469,  385,  437
 4743, 1346, 2875, 2736, 2894
 4744, 2000, 2001, 2006, 2002
 4745, 2000, 2001, 1909, 2476
 4746, 2001, 2034, 2476, 2033
 4747, 2053,  485,  473,  482
 4748, 2315, 2194, 2767, 2229
 4749, 1035,  473,  485,  486
 4750, 2600, 2601, 2602,  656
 4751, 1909, 1975, 1974, 1977
 4752, 1633, 2483, 1632, 1634
 4753, 2287,  419,  422,  420
 4754, 1632, 2034, 1908, 2476
 4755, 1069,  354,  350,  348
 4756, 1830, 2929, 1943, 2167
 4757, 1966, 1547, 1546, 1548
 4758, 1263, 1090, 1260, 1922
 4759, 1662, 1263, 1264, 1260
 4760, 1256, 1253, 1013, 1471
 4761, 2209,  338,  318,  337
 4762, 1989,  510,  460,  433
 4763, 2314, 2930,  662, 2789
 4764, 2078,  433,  421,  422
 4765,  334, 2794,  317,  318
 4766, 2890, 2882,  360,  356
 4767, 2890, 2214,  365,  359
 4768, 2448,  344,  369,  418
 4769, 2314, 2665, 2782, 1534
 4770, 2597, 2219, 2235, 1894
 4771, 2314, 2089, 2782, 2665
 4772, 2314, 2782, 1009,  666
 4773, 2314, 2930, 2789, 2665
 4774, 1685, 1577, 1686, 2558
 4775, 2449,  369,  368,  456
 4776, 2338,  358,  363,  359
 4777, 2465, 1488, 1314, 1576
 4778,  526,  457, 2432,  459
 4779, 1997, 2602, 2601, 2300
 4780, 1981, 2886, 1990, 1991
 4781, 2884,  361,  366,  367
 4782, 1306, 1298, 2115, 2458
 4783, 1933, 2931, 2175, 1932
 4784, 1035,  385,  469,  507
 4785, 1934, 2931, 1933, 1932
 4786, 1991,  455,  459,  458
 4787, 1943, 2928, 2804, 2167
 4788, 1925, 2413,  154,  151
 4789, 1355, 1934, 1963, 1933
 4790, 1375, 1933, 1841, 1931
 4791, 1375, 1340, 1933, 1341
 4792, 1988,  471,  470,  479
 4793, 1933, 2508, 2932, 2174
 4794, 1963, 2508, 1341, 1933
 4795, 1934, 1933, 2174, 1963
 4796, 1987,  479,  470,  465
 4797, 2212,  359,  363,  364
 4798, 2214,  365,  359,  364
 4799, 2933, 1067, 2238, 2207
 4800, 1925, 2413, 1888,  154
 4801, 1302, 1915, 1301, 2799
 4802, 1355, 1356, 1790, 1965
 4803, 2454, 2180, 2179,  345
 4804, 1355, 2162, 1965, 1374
 4805, 2268,  458,  459,  457
 4806, 2934, 2340, 1603, 2708
 4807, 2340, 2935, 2764, 2085
 4808, 2297,  479,  477,  483
 4809, 2202,  490, 1409, 2253
 4810, 2098,  473,  469,  472
 4811, 2764, 2853, 2923, 2935
 4812, 2935, 2853, 2923, 2922
 4813, 2098,  473,  472,  482
 4814, 1533, 1739, 1742, 1738
 4815, 2101,  468,  469,  437
 4816, 2886,  466,  460,  455
 4817, 2935, 2934, 2864, 2708
 4818, 2935, 2708, 2642, 2085
 4819, 2797, 1947, 1453,  327
 4820, 2638,  434,  467,  468
 4821, 1637, 1639, 2118, 1825
 4822, 2933, 1110, 2440, 2775
 4823, 1300, 1637, 1636, 1639
 4824, 1300, 1637, 1639, 1526
 4825, 1637, 2710, 1301, 1927
 4826, 2286,  510,  433,  422
 4827, 1948, 2636, 2795, 1947
 4828, 2525, 2505, 2696,  251
 4829, 1642, 1637, 1301, 1927
 4830, 1642, 1767, 1638, 1820
 4831, 2778,  403,  402,  407
 4832, 2632,  427,  411,  409
 4833, 1599,  410,  411,  428
 4834, 1702, 1733, 2704, 1699
 4835, 2802,  331, 2795,  330
 4836, 2329,  401,  407,  402
 4837, 2772,  407,  409,  411
 4838, 1512, 2860, 2018, 2846
 4839, 2528, 1703, 2810, 1914
 4840, 2705, 1699, 2809, 1703
 4841, 2698,  400,  405,  404
 4842, 2821,  400,  441,  405
 4843, 1668, 2706, 1699, 1657
 4844, 2459, 2664, 2626, 2526
 4845, 1577, 1576, 2788, 1314
 4846, 2459, 1576, 2664, 2458
 4847, 1951, 1865, 1866, 2081
 4848, 1680, 1683, 1577, 1685
 4849, 1680, 1682, 2458, 2115
 4850, 2432,  510,  526,  459
 4851, 1677, 2824, 1449, 1833
 4852, 1576, 2558, 2788, 2626
 4853, 1488, 1487, 2465, 1314
 4854, 1291, 1290, 2936, 1295
 4855, 1211, 2259, 2937, 2260
 4856, 1989,  467,  433,  460
 4857, 1394, 2645, 1472, 1380
 4858, 2557,   20,  658,  679
 4859, 1394, 1840, 1273, 1395
 4860, 1839, 1841, 1394, 1840
 4861, 2024, 1253, 1756, 1321
 4862, 2097,   19,  482,  481
 4863, 1562, 1622, 2549, 2246
 4864, 2550, 2339, 2246, 1663
 4865, 2024, 1255, 1253, 1321
 4866, 1682, 1926, 1888, 2532
 4867, 2024, 1255, 2025, 2095
 4868, 1033, 1854, 1689, 1184
 4869, 1605, 1730, 1715, 1603
 4870, 1995, 1589, 1559, 2274
 4871, 1475, 1688, 1148, 1996
 4872, 1214, 2259, 2734, 2937
 4873,  507,  469, 1035,  473
 4874, 1474, 1478, 1198, 1707
 4875, 1407, 1185, 1033, 1184
 4876, 2193,  828,   48,   47
 4877, 1581, 2572, 1271, 2571
 4878, 1145, 1148, 2489, 1690
 4879, 1000, 2363,  970,  969
 4880, 1689, 1184, 1706, 1555
 4881, 2296, 1238, 2938, 2838
 4882, 2011,  771,  580,    1
 4883, 2619,  827,  828,   46
 4884, 1468, 1183, 1727, 1469
 4885, 1211, 2937, 1562, 2701
 4886, 1261, 1260, 1259, 1842
 4887, 1726, 1793, 1138, 1190
 4888, 2656,  925,  935,  926
 4889, 1138, 1621, 1141, 2548
 4890, 1621, 2549, 1138, 1560
 4891, 1443, 1670, 1345, 1361
 4892, 2939,  931,  969,  972
 4893, 2649,  772,  828,  773
 4894, 2649, 1467,  768, 2940
 4895, 1138, 1188, 1139, 1183
 4896, 1792, 1621, 1197, 1141
 4897, 1621, 1727, 1141, 1792
 4898, 2006, 2005, 2045, 2541
 4899, 2941,   31,  971,  963
 4900, 1700, 1485, 1733, 1543
 4901, 2839,  831,  835,  833
 4902, 2476, 2001, 2033, 2000
 4903, 2717, 2242,  105,   98
 4904, 2006, 2000, 2005, 2033
 4905, 2532, 2671, 2458, 2628
 4906, 1888, 1494,  153, 2413
 4907, 2036,   79,   85,   66
 4908, 2697,  853, 2862, 2739
 4909, 1271,  951, 2571,  960
 4910, 2001, 2002, 1974, 2540
 4911, 2000, 2004, 2585, 1783
 4912, 2942,   43,  857,  836
 4913, 1924, 1641, 1768, 1928
 4914, 2474,  955,   36,   35
 4915, 2033, 2000, 2005, 2476
 4916, 2006, 2005, 2541, 2173
 4917, 2348, 1456, 1524, 2520
 4918, 2485,  959,  862,  865
 4919, 1863, 1869, 1870, 2335
 4920, 2163,  859,  858,  860
 4921, 1456, 1460, 1518, 1523
 4922, 1313, 1421, 1310, 1598
 4923, 1596, 1951, 1865, 1866
 4924, 2943,  861,  863,  973
 4925, 1457, 1516, 1519, 1518
 4926, 1443, 1777, 1442, 1361
 4927, 1765, 1768, 1641, 1770
 4928, 2697,  851,  859,  863
 4929, 1613, 1644, 2415, 2405
 4930, 1489, 1023, 1030, 1264
 4931, 2208, 2415, 1320, 1912
 4932, 2474,  959,   37,   36
 4933, 2415, 2906, 1912, 2208
 4934, 1613, 2415, 1616, 2405
 4935, 1616, 2944, 2908, 2415
 4936, 1515, 1953, 1509, 1914
 4937, 2370,  965,  971,   30
 4938, 2942,  836, 2377,   43
 4939, 1412, 1482, 1483, 1505
 4940, 1700, 1701, 1702, 1734
 4941, 1913, 1734, 2027, 2015
 4942, 1913, 1953, 2015, 2182
 4943, 1349,  971,   31,   30
 4944, 1195, 1727, 1141, 1469
 4945, 2945,  827,  773,  828
 4946, 2317, 1465, 2441, 1731
 4947,    2, 2206,  453, 2256
 4948, 2532,  158, 1493,  164
 4949, 2317, 1465, 2745, 2441
 4950, 2443,  830,  983,  829
 4951, 2827,  884,  891,  881
 4952, 2860, 2912, 1813, 2946
 4953, 2619,  827,   46,  983
 4954,  100, 2759, 2514, 1751
 4955, 2021,  782,  802,  786
 4956, 2113,  769,  764,  763
 4957, 1390,  966,  971,  965
 4958, 1570, 1743, 1202, 1573
 4959, 2588,  904,  890,  889
 4960, 2607,  812,  807,  811
 4961, 1468, 1730, 1536, 1731
 4962, 1788,  778,  782,  784
 4963, 2800,  395, 2947, 2201
 4964, 1537, 1730, 1731, 2934
 4965, 2091,  573,  577,  575
 4966,  980,    1, 2754, 2011
 4967, 2175,  895,  901,  896
 4968, 2656,  935,  925,  931
 4969, 1568, 2341, 1715, 2320
 4970, 2317, 2096, 2441, 2745
 4971, 2948,  787,  783,  786
 4972, 2866,  894,  896,  897
 4973, 1673, 2607,  811, 2493
 4974, 1578, 1579, 1582, 1580
 4975, 2790, 2834, 2755, 2861
 4976, 2482, 2155, 2483, 2551
 4977, 2949, 1673, 2365,  839
 4978, 2950,  980,  581,  572
 4979, 2816,  759,  804,  801
 4980, 2790, 1722, 1161, 2791
 4981, 2790, 2834, 2861, 2499
 4982, 1163,  932,  925,  924
 4983, 2619,  828,   47,   46
 4984, 2832, 2371, 2388, 2183
 4985, 1633, 1632, 2483, 1907
 4986, 1392, 1961, 1363, 1550
 4987, 2483, 2720, 2551, 2155
 4988, 2483, 2791, 2481, 2833
 4989, 2584, 1006,   42,   41
 4990, 2365,  838,  844,  839
 4991, 2620, 2177, 2402, 1802
 4992, 2620, 1802, 2439, 2177
 4993, 2620, 2945, 2619, 2146
 4994, 2945, 2620, 2177, 2402
 4995, 2620, 2439, 2619, 2257
 4996, 1700, 1486, 1485, 1543
 4997, 2683, 2570,  939,  945
 4998, 2800, 2699,  398, 2079
 4999, 2678, 1423, 1597, 1609
 5000, 1310, 2773, 1814, 1423
 5001, 2573,  973,  859,  860
 5002, 1951, 1685, 1577, 1683
 5003, 1774, 1189, 1948, 1946
 5004, 2681, 2686, 2740, 2683
 5005, 2943,   38,  861,   39
 5006, 2681,  849, 2686,  937
 5007, 2943,  861,  973,   39
 5008, 2360,   34,  974,   35
 5009, 2117, 2014, 2521, 2030
 5010, 2685, 1347, 2740, 2894
 5011, 2564,   32,  979,   33
 5012, 2360,  974,  955,   35
 5013, 2685,  847, 1347, 2894
 5014, 2800, 2342, 2081, 2079
 5015, 2460,  861,  865,  862
 5016, 2446,  958,  974,  964
 5017,  847, 2740, 2685,  854
 5018, 2951, 2467,  834, 2952
 5019, 2685, 2855,  848,  850
 5020, 2953,  814, 2493,  813
 5021, 2581, 1116, 2941,  963
 5022, 2681, 2855, 2685,  850
 5023, 1361, 1393, 1381, 1346
 5024, 1395, 1584, 1393, 1442
 5025, 1790, 2609, 1445, 1675
 5026, 2468,  955,  957,  956
 5027,   73, 2155, 2551, 2359
 5028, 2954,  866,  968,  930
 5029, 2637,  942,  854,  853
 5030, 2955,  979,  964,   33
 5031, 2501,  931,  933,  969
 5032, 1447, 1723, 1167, 1161
 5033, 1440, 1489, 1492, 1490
 5034, 1238,  989,  984,  774
 5035, 1400, 1365, 1392, 1386
 5036, 1279,  770,  761,  769
 5037, 1442, 1440, 1550, 1427
 5038, 1481, 1845, 1090, 2651
 5039, 1965, 2610, 2604, 1546
 5040, 1392, 1427, 1400, 1428
 5041, 1152, 2668, 1150, 1923
 5042, 2364,  972,  969,   27
 5043, 2956,  771,  760,  580
 5044, 2957,  771,  828,  772
 5045, 1092,  892,  908,  909
 5046, 1923, 2842, 1152, 2668
 5047, 1055, 2904, 2958,   24
 5048, 2086, 2345, 2959, 2907
 5049, 2842, 1923, 2669, 2672
 5050, 2668, 2672, 2842, 2960
 5051, 2842, 1923, 2131, 2669
 5052, 2023, 2869, 1932, 2587
 5053, 2259, 2734, 2192, 2102
 5054, 2650,  934,  972,   26
 5055, 2704, 2694, 2917, 2706
 5056, 2754,  980,  533,    3
 5057, 2905,  448,  487,  489
 5058, 2800,  396, 2079,  398
 5059, 1148, 1688, 1150, 2489
 5060, 1148, 1687, 1688, 1691
 5061, 1153, 1152, 2489, 1145
 5062, 2137,   22,  680,   23
 5063, 2220,   21,  677,   22
 5064, 2800, 2796,  511, 2201
 5065, 2169,  575,  538,  532
 5066, 1145, 1150, 1152, 2489
 5067, 1149, 1602, 1692, 1316
 5068, 2668, 2478, 2885, 1688
 5069, 2288,  654,   17,  975
 5070, 2800,  398, 2911,  395
 5071, 2142,  535,  534,    6
 5072, 2668, 1150, 1688, 2885
 5073, 2670, 2674, 2666, 2013
 5074, 2557,  678,  679,  658
 5075, 2245,    9,  374,  376
 5076, 2961, 2132, 2299,  598
 5077, 1837, 2962, 1647, 1836
 5078, 2668, 2842, 1152, 2960
 5079, 1625,  562,  541,  531
 5080, 1150, 1688, 2885, 2489
 5081,  800, 2877,  995,  876
 5082, 1668, 2706, 1966, 2694
 5083, 2960, 2489, 2963, 1152
 5084, 1721, 1414, 2836, 2675
 5085, 1077, 1098, 1125, 1179
 5086, 2251,  539,  562,  556
 5087, 2251,  539,  543,  545
 5088, 1414, 1759, 2675, 1725
 5089, 2212,  364, 2214,  359
 5090, 2323, 2888, 2964, 2965
 5091, 1758, 1759, 1414, 1725
 5092, 1720, 1723, 1160, 1725
 5093, 2251,  539,  556,  543
 5094, 1720, 1164, 1722, 1415
 5095, 1413, 1415, 1903, 1164
 5096,    9,  543, 2250,  978
 5097, 2227, 2293,  651,  663
 5098, 2227, 2722,  663,  661
 5099, 2966, 2967, 2122,  743
 5100, 2128,  563,  595,  596
 5101, 2789,  668,  659,  662
 5102, 2327, 2749, 2721,  554
 5103, 2721, 2227,  661, 2722
 5104, 2721,  553,  554, 2749
 5105, 2589, 2019, 2651, 2703
 5106, 2915,  647,  650,  652
 5107, 2968, 1003,  608, 1008
 5108, 2276, 2277, 1940, 2927
 5109, 2276, 2024, 2278, 1757
 5110, 2129, 2288,  653, 2289
 5111, 2713,  977,  552,  548
 5112, 1940, 1320, 1321, 2276
 5113, 1940, 2277, 2924, 2969
 5114, 1321, 2924, 1643, 1154
 5115, 2025, 2924, 1643, 1321
 5116, 2970, 2919, 2164, 2918
 5117, 2235,  534,  536,  537
 5118, 1810, 2971, 2270,  919
 5119, 2757, 1956, 2371, 2972
 5120, 2066, 2300,  681, 2556
 5121, 2235,  534,    7,    6
 5122, 2757, 2191, 2008, 1956
 5123,   15, 2915, 2330, 1955
 5124, 2595,  563,  558,  557
 5125, 2231,  558,  563,  564
 5126, 2126, 2973, 2880, 2125
 5127, 1545, 1787, 1717, 1511
 5128, 2008, 1122, 2758, 2009
 5129, 1170, 2008, 2191, 2090
 5130, 2972, 2757, 2907, 2255
 5131, 1733, 2023, 1732, 2127
 5132, 2128,  564,  563,  596
 5133, 2728,  690,  616,  618
 5134, 2089,  990,  667, 1009
 5135, 2133,  570,  608,  607
 5136,  552, 2311, 2749,  553
 5137, 2789,  667,  668,  662
 5138, 2757, 2758, 2123, 2974
 5139, 1836,  601,  621,  602
 5140, 2975,  595,  592,  597
 5141, 1347, 2875, 2352, 1345
 5142, 2728, 2727, 2145, 2143
 5143, 2130,  610,  607,  609
 5144, 2123, 2907, 2191, 2757
 5145, 1456, 1459, 1460, 2546
 5146, 1868, 2947, 2337, 2342
 5147, 1315, 1306, 1488, 1487
 5148, 1455, 1463, 1460, 1459
 5149,  616, 2732, 2731,  686
 5150, 2254,  611,  610,  686
 5151, 1460, 1917, 1915, 2617
 5152, 2879,  992, 2878,  880
 5153, 2944,  711,  994,  636
 5154, 2726,  633,  637,  617
 5155, 1460, 1461, 1518, 1916
 5156, 1456, 1518, 1460, 1461
 5157, 2878, 2880,  877,  992
 5158, 2337, 2516, 2334, 2897
 5159, 1961, 1957, 1843, 1918
 5160, 1376, 1962, 1088, 1378
 5161, 2731,  616,  610,  615
 5162, 2976,  697,  701,  700
 5163, 1606, 1808, 1814, 1871
 5164, 1429, 1376, 1428, 2910
 5165, 2860, 2913, 2977, 2846
 5166, 2131, 2130, 2731, 2254
 5167, 1376, 2978, 2910, 2378
 5168, 2731,  612,  610,  609
 5169, 1831, 1628, 2979, 2322
 5170, 1831, 1501, 2322, 1883
 5171, 2878, 2161, 2980,  879
 5172, 2167,  714,  976,  713
 5173, 1831, 1500, 1883, 1834
 5174, 1837, 1836, 1502, 1831
 5175, 2878, 2973, 2161,  879
 5176, 1937, 1639, 1936, 1177
 5177, 2878,  879, 2980,  876
 5178, 2728,  618,  616,  615
 5179, 2728,  618,  617,  692
 5180, 2728,  614,  617,  615
 5181, 2132,  596,  598,  609
 5182, 2599, 2600, 2602, 2981
 5183, 2878, 2973,  879,  877
 5184, 1296, 1297, 1300, 1298
 5185, 1176, 1639, 1177, 1526
 5186, 1176, 1785, 1783, 1636
 5187, 2944,  711,  636,  996
 5188, 1637, 1526, 2710, 2118
 5189, 1639, 1177, 1526, 1936
 5190, 2928,  729,  714,  731
 5191, 1460, 1523, 2546, 2547
 5192, 1012, 1011, 1013, 1256
 5193, 1516, 1523, 2031, 2544
 5194, 1519, 1521, 2279, 1524
 5195, 2147,  737, 2828, 2829
 5196, 2728,  692,  690,  618
 5197, 1516, 1563, 1517, 1521
 5198, 2133,  596,  609,  608
 5199, 2561, 2076, 2982, 2308
 5200, 1999,  725,  722,  721
 5201, 2031, 1523, 2071, 2723
 5202, 1456, 1864, 2546, 2520
 5203, 1457, 1561, 1458, 1519
 5204, 1456, 1864, 1459, 2546
 5205, 2983,  726,  723,  720
 5206, 2928,  729,  705,  714
 5207, 2153,  716,  718,  723
 5208, 1457, 1516, 1521, 1519
 5209, 2207, 2807,  352,  353
 5210, 1458, 1462, 1456, 1864
 5211, 2348, 1519, 1456, 1864
 5212, 2979,  623,  621,  625
 5213, 2167,  976,  715,  713
 5214, 1894, 2319, 2235, 2307
 5215, 2781,  665,  611,  993
 5216, 1894, 2307, 2306, 2295
 5217, 2732,  686,  616,  690
 5218, 1894, 1893, 1855, 2597
 5219, 2325,  669,  674,  671
 5220, 2712,  548,  549,  550
 5221, 2022, 1817, 2854, 2270
 5222, 2226,  557,  543,  556
 5223, 2250,  545, 2984, 2319
 5224, 1894, 2306, 1885, 2295
 5225, 2654, 2596, 2985, 2595
 5226, 1894, 2295, 1885, 2250
 5227, 2595,  595,  563,  561
 5228, 2254,  686,  610, 2731
 5229, 1894, 1893, 2250, 1892
 5230, 2303, 2888, 2304,  544
 5231, 2300,  673,  658,  657
 5232, 1602, 1829, 2486, 1317
 5233, 1692, 1316, 2010, 1897
 5234, 2293,  664,  651,  663
 5235, 2982, 1193, 1274, 1084
 5236, 2825, 2299, 2961, 2132
 5237, 2721,  649,  553,  661
 5238, 1692, 1687, 1923, 1150
 5239, 1692, 1602, 1923, 2876
 5240, 2712,  552,  554,  548
 5241, 2842, 2131, 1602, 1829
 5242, 2802,  341, 1453,  331
 5243, 2128, 2249, 2133,  596
 5244, 2986,  548,   13,   12
 5245, 2802,  332, 1710,  333
 5246, 1716, 1396, 1397, 1398
 5247, 2842, 1923, 1602, 2131
 5248, 1602, 2131, 1923, 2876
 5249, 2896, 2210, 2452, 2865
 5250, 2561, 2213, 2872, 2308
 5251, 2452, 2287, 2562, 2865
 5252, 2452, 2287, 2210, 2180
 5253, 2327,  554,  650,  549
 5254, 2601,  672,  671,  676
 5255, 2831, 2180, 2453, 2452
 5256, 2452, 1945, 2431, 2453
 5257, 1773, 1945, 2452, 2831
 5258, 1187, 1773, 2452, 2562
 5259, 1502, 1503, 1833, 1678
 5260, 2987,  562,  561,  556
 5261, 1254, 1253, 1255, 1321
 5262, 2578, 1849, 1193, 1083
 5263, 1496, 1503, 1497, 1500
 5264, 1497, 1454, 1230, 1417
 5265, 2289,  654,  653,  655
 5266, 2292,  669,  670,  664
 5267, 1497, 1716, 1499, 1500
 5268, 2762,  977, 1081,   11
 5269, 2129,  664,  653,  651
 5270, 1833, 1503, 1449, 1678
 5271, 2288,  975,  653,  654
 5272, 1502, 1835, 1678, 1833
 5273,   10,  542, 2076,   11
 5274, 2129, 2327, 1857, 2663
 5275, 1450, 1497, 1230, 1503
 5276, 1498, 1412, 1497, 1254
 5277, 1134, 2567, 1910, 1911
 5278, 1128, 1134, 1158, 1911
 5279, 1134, 1073, 1797, 1343
 5280, 2915,  647,  975,   16
 5281, 2542, 1343, 1134, 1797
 5282, 1631, 1972, 1909, 1782
 5283, 1591, 1698, 1365, 1158
 5284, 2232, 2868, 2316,  497
 5285, 2227,  652,  650,  651
 5286, 1425, 1424, 1351, 1350
 5287,   16, 1955, 2915,   15
 5288, 2561, 2982, 1274, 2211
 5289, 1590, 1801, 1391, 1114
 5290, 1370, 1363, 1387, 1368
 5291, 2303,  543,  544,  978
 5292, 2291, 2129, 2663, 2293
 5293, 2802,  332, 1711, 1710
 5294, 1370, 1363, 1386, 1387
 5295, 1082,  550,   14,   13
 5296,  550, 2712, 2330,  549
 5297, 2712,  554,  549,  548
 5298, 2227,  649,  663,  651
 5299, 2227,  649,  651,  650
 5300, 1590, 1413, 1659, 1132
 5301, 1370, 1365, 1425, 1386
 5302, 1933, 1931, 1932, 1841
 5303, 2314,  667,  660,  666
 5304, 1791, 1375, 1790, 1444
 5305, 1709, 2601, 2590, 2326
 5306, 1839, 1393, 1394, 1361
 5307, 1355, 1790, 1670, 1374
 5308, 1930, 2023, 1931, 1791
 5309, 1701, 2531, 1734, 2015
 5310, 2528, 1952, 1953, 1914
 5311, 2930,  661,  660,  662
 5312, 1952, 2810, 1979, 2908
 5313, 2245, 2241, 2984, 2302
 5314, 2968,  570, 1008,  608
 5315, 1655, 1914, 1513, 2284
 5316, 1509, 1953, 1952, 1914
 5317, 2802, 2795,  331, 1947
 5318, 1913, 2182, 2015, 2027
 5319, 1701, 1953, 2528, 2527
 5320, 2293,  659,  664,  663
 5321, 1502, 1836, 1832, 1834
 5322, 2561, 2213, 2982, 2211
 5323, 2782,  666,  665, 1009
 5324, 2088,  689,  687,  688
 5325, 1071, 1591, 1697, 1074
 5326, 1044, 1045, 1862, 1433
 5327, 2089,  687,  990, 1009
 5328, 1362, 1365, 1370, 1363
 5329, 1155, 1178, 1617, 1290
 5330, 1364, 1392, 1366, 1167
 5331, 2295,  536,  539,  545
 5332, 1134, 1797, 1073, 2567
 5333, 2600,  656,  655,  671
 5334, 1659, 1661, 1129, 1904
 5335, 2169,  538,  535,  532
 5336, 2984,  545,    9,    8
 5337, 2285,   19,  657,  658
 5338, 2302,  353, 2207,  376
 5339, 1267, 1074, 1270, 1369
 5340, 2168, 2988,  573,  533
 5341,  330, 2802,  332, 1711
 5342, 2600,  655,  656,  654
 5343, 2602,  657, 1005,  656
 5344, 2989, 2325,  697, 2976
 5345, 2832, 2107, 2108, 1270
 5346, 2358, 1693,  199,   29
 5347, 1450, 1719, 1716, 1500
 5348, 1454, 1396, 1449, 1448
 5349, 1716, 1500, 2912, 1499
 5350, 2181, 2208, 2112, 2109
 5351, 1383, 2370, 2363, 1390
 5352, 1896, 1623, 2990, 1886
 5353, 2226,  544,  543,  557
 5354, 2601,  672,  656,  671
 5355, 2602,  672,  657,  656
 5356, 1831, 2321, 1836, 1834
 5357, 1716, 1397, 1544, 2912
 5358, 2654, 2985, 2251, 2987
 5359, 1326, 1629, 1645, 1837
 5360, 1509, 1513, 1914, 2625
 5361, 2138,   22, 2121, 2253
 5362, 2220,  678,  677,  679
 5363, 2966,  743,  682,  742
 5364, 2091, 2093, 2092,  577
 5365, 1656, 1702, 1701, 1703
 5366, 2415, 2944, 2908, 2906
 5367, 1326, 1254, 1322, 1319
 5368, 1505, 1912, 1913, 1757
 5369, 2991,  536,  540,  541
 5370, 2976,  700,  674,  697
 5371, 2992,  575,  574,  538
 5372, 2869, 2866, 2871, 2880
 5373, 2383,  540,  534,  538
 5374, 1757, 1913, 2182, 1912
 5375, 1412, 1504, 1549, 1486
 5376, 2122,  682,  743,  684
 5377, 1664, 2904, 2137, 2120
 5378, 1913, 1953, 2182, 1912
 5379, 2956,  580,  581,  980
 5380, 2092,  575,  577,  576
 5381, 2261,  601,  579,  586
 5382, 1307, 1058, 1063, 1621
 5383, 1313, 1421, 1619, 1772
 5384, 1619, 1532, 2391, 1530
 5385, 2993,  747,  683,  684
 5386, 2168,  533,  573,  532
 5387, 2871,  889, 2880,  992
 5388, 2151,  532,    5,    4
 5389, 1143, 1992, 1990, 2286
 5390, 1401, 1202, 1470, 1537
 5391, 1155, 1050, 1051, 1047
 5392, 2122,  677,  682,  684
 5393, 2984, 2219, 2319,    8
 5394, 2187,  535,    6,    5
 5395, 1793, 1715, 1605, 1730
 5396, 2319,  536,  545,  537
 5397, 1063, 1560, 1382, 1213
 5398, 2121,  680,  677,  684
 5399, 1943, 1942, 1941, 2929
 5400, 1593, 2495, 1592, 2994
 5401, 2354, 2995,  578,  540
 5402, 2446, 1585, 2955, 2994
 5403, 2871, 2866,  992, 2880
 5404,  685,   24, 2958,  683
 5405, 2112, 2900, 2140, 2208
 5406, 2994, 2500, 2360, 2798
 5407, 2495, 1592, 2994, 2500
 5408, 2086, 1736, 2907, 2191
 5409, 2662, 2515,  315, 2633
 5410, 2345, 2086, 1736, 2907
 5411, 2208, 1941, 2141, 2927
 5412, 2757, 2907, 2191, 1956
 5413, 2008, 1122, 2191, 2758
 5414, 2314,  660,  667,  662
 5415, 1186, 1011, 2008, 1122
 5416, 2996,  689,  688,  693
 5417, 2254, 2996,  688, 2803
 5418, 1446, 1445, 1490, 1674
 5419, 1030, 1669, 1490, 1553
 5420, 1366, 1550, 1392, 1363
 5421, 1366, 1363, 1260, 1550
 5422, 1031, 1449, 1450, 1503
 5423, 2208, 2900, 1614, 2906
 5424, 2696, 1712, 2505, 2863
 5425, 2391, 2461, 2525, 1532
 5426, 2863, 1299, 2525, 2063
 5427, 2896, 2562, 2563, 2865
 5428, 1531, 1532, 2689, 2505
 5429, 1282, 1893, 2984, 2362
 5430,  607, 2130, 2781,  610
 5431, 1282, 1893, 1892, 2984
 5432, 1815, 2549, 1946, 2883
 5433, 1277, 1893, 1282, 1283
 5434, 2927, 1001,  732,  731
 5435, 1278, 1283, 1282, 2362
 5436, 2241, 2561, 1193, 1282
 5437, 2662, 2633,  315,  316
 5438, 2997,  626, 2998,  622
 5439, 2797, 2517, 1776, 2792
 5440, 2803,  691,  690,  694
 5441, 2805,  695,  705,  693
 5442, 2999,  699,  704,  701
 5443, 2630, 2633,  316,  310
 5444, 2411, 2630,  311, 2029
 5445, 2997,  631,  640,  622
 5446, 1779, 1782, 1128, 1909
 5447, 2899,  711,  712,  994
 5448, 1424, 1158, 1698, 1910
 5449, 2984, 2238, 2219,    8
 5450, 1129, 1164, 1413, 1903
 5451, 1039, 1046, 1054, 1225
 5452, 2486, 2727, 1324, 1829
 5453, 1602, 2486, 1829, 3000
 5454, 2915,  652,  975,  647
 5455, 2330,  549,  647,  648
 5456, 1269, 2793, 2477, 2107
 5457, 1602, 3000, 1829, 2131
 5458,  549, 2330,  647,  650
 5459, 2129,  652,  653,  975
 5460, 2227,  650,  554,  649
 5461, 1829, 2732, 2730, 2845
 5462, 1473, 1479, 1478, 2012
 5463, 1995, 1475, 1559, 1589
 5464, 2309,  567,  660,  568
 5465, 1589, 1690, 1411, 2274
 5466, 1898, 1588, 1896, 1587
 5467, 1307, 1715, 1726, 1468
 5468, 1605, 1603, 1715, 1379
 5469, 1139, 1138, 1183, 1141
 5470, 2782, 1009,  665,  993
 5471, 2781,  611,  570,  607
 5472, 1607, 2864, 1730, 2708
 5473, 2254,  611,  686,  688
 5474, 1187, 1144, 1945, 1188
 5475, 1418, 1604, 1422, 1423
 5476, 2968,  608, 2133,  570
 5477, 1715, 1537, 2320, 2934
 5478, 1568, 1715, 2341, 1807
 5479, 1715, 1730, 2934, 1603
 5480, 2084, 2563, 2947, 2201
 5481, 2680, 2911,  313,  514
 5482, 2725,  565,  569,  571
 5483, 2331,  668,  667,  990
 5484, 2089, 1009,  993,  687
 5485, 2431, 1142, 1143, 1099
 5486, 2789,  661,  662,  663
 5487, 2129, 2292,  664, 2293
 5488, 2311,  547,  551,  552
 5489, 2429, 2233, 2234, 2430
 5490, 2311,  551,  553,  552
 5491, 2916, 2224, 2884, 2890
 5492, 1100, 2760, 2892, 1984
 5493, 1100, 1101, 1102, 2898
 5494, 2947, 2800, 2201, 2796
 5495, 2680, 2662,  514,  316
 5496, 2721,  553,  568,  661
 5497, 1100, 1102, 2916, 2898
 5498, 1100, 1102, 1984, 2916
 5499, 1982, 1100, 1102, 1984
 5500, 2789,  663,  662,  659
 5501, 1194, 1192, 1193, 1199
 5502, 2721,  553,  649,  554
 5503, 1705, 1277, 1402, 1704
 5504, 2976, 2989, 2999,  697
 5505, 2309,  566,  568,  551
 5506, 2430,  370,  383,  372
 5507, 2309,  567,  568,  566
 5508, 2309,  565,  567,  566
 5509, 1198, 1892, 1707, 2578
 5510, 2718,  514,  395, 2911
 5511, 1198, 1191, 1277, 1193
 5512, 2896, 2084, 2337, 2897
 5513, 1887, 1707, 1892, 1885
 5514, 2713, 2964,  547, 2965
 5515, 2314,  571,  666,  567
 5516, 1559, 1201, 1202, 1403
 5517, 2331,  675,  668,  696
 5518, 1529,  551,  547,  566
 5519, 1205, 2064, 1743, 1747
 5520, 2314,  666, 1009,  667
 5521, 3001,  555,  565,  560
 5522, 1474, 1588, 1555, 1406
 5523, 1349, 2941,   31,  971
 5524, 2996, 2088,  688,  689
 5525, 1705, 2597, 1704, 1855
 5526, 1403, 1559, 1373, 1470
 5527, 3001,  555,  569,  565
 5528, 2133,  608, 1003,  596
 5529, 2666, 2013, 2674, 2889
 5530, 2725,  571,  567,  565
 5531, 1775, 2334, 1949, 1776
 5532, 2968, 1003, 1008,  569
 5533, 2310, 2748, 2780, 2666
 5534, 2668, 2960, 1150, 2885
 5535, 1534,  665,  571,  570
 5536, 2106, 1003,  569,  564
 5537, 2254,  610,  611, 2781
 5538, 2724, 2106, 2725, 3001
 5539, 1473, 2013, 2478, 2012
 5540, 2670, 1687, 2668, 1923
 5541, 2965,  542,  547,  977
 5542, 2666, 2930, 2314, 2665
 5543, 2713,  977,  547,  552
 5544, 1633, 2791, 1166, 1164
 5545, 1778, 1722, 2676, 1723
 5546, 1723, 1721, 2677, 2675
 5547, 1778, 1165, 1447, 1579
 5548, 2241,  978,   10,    9
 5549, 2981, 1005,   18,  654
 5550, 2600,  656, 1005,  654
 5551, 2211, 2223, 2224, 2214
 5552, 2289,  670,  655,  653
 5553, 1585, 2495, 2798, 1579
 5554, 2066, 2601, 2326,  676
 5555, 1156, 1392, 1364, 1167
 5556, 2495, 2994, 2798, 2500
 5557, 3001,  560, 2298,  555
 5558, 1400, 1386, 1429, 1350
 5559, 1270, 1804, 1234, 1385
 5560,  198, 1349, 2463, 1117
 5561, 1157, 1594, 1593, 1592
 5562, 2965,  546,  547,  542
 5563, 2964,  560,  547,  546
 5564, 1839, 1261, 1442, 1444
 5565, 3002,  606,  605, 2488
 5566, 2590,  655,  670,  671
 5567, 1838, 2844, 1931, 1841
 5568, 1553, 1789, 1790, 1441
 5569, 1838, 1444, 1839, 1375
 5570, 1356, 1930, 1791, 1789
 5571, 1489, 1262, 1441, 1261
 5572, 2915, 2129,  975,  652
 5573, 2066,  702, 2343, 3003
 5574, 2613, 1553, 1789, 1790
 5575, 1370, 1365, 1386, 1363
 5576, 2231,  558,  555,  559
 5577, 1720, 2675, 1414, 1721
 5578, 2291, 2288, 2129, 2289
 5579, 1392, 1427, 1428, 1550
 5580, 1814, 1609, 2678, 2565
 5581, 1392, 1550, 1428, 1961
 5582, 1492, 1803, 1490, 1535
 5583, 1392, 1386, 1363, 1961
 5584,  545,    9,  543, 2250
 5585, 1209, 1527, 1196, 1792
 5586, 2311, 1529,  547, 2964
 5587, 1349,   31, 1117,  198
 5588, 1631, 1909, 1972, 1634
 5589, 1328, 1331, 1333, 1729
 5590, 1331, 2956, 1729, 2648
 5591, 1910, 2490, 1117, 1115
 5592, 2888,  544,  546,  542
 5593, 2304,  544,  542,  978
 5594, 3004,  768,  775,  767
 5595, 1349, 2370, 1390,  971
 5596, 1429, 1350, 2941, 2581
 5597, 1331, 2848, 1882, 3005
 5598, 2967,  743,  747,  684
 5599, 1662, 1363, 1387, 1922
 5600, 2993,  746,  685,  683
 5601, 1195, 2775, 1469, 1141
 5602, 1331, 1243, 2649, 1729
 5603, 2991,  539,  536,  541
 5604, 1331, 1243, 2648, 2649
 5605, 2816,  801,  804,  803
 5606,  471, 1988,  466,  467
 5607, 2255,  749,  750,  758
 5608, 1332, 1244, 1243, 1245
 5609, 2966,  745,  743,  742
 5610, 1171, 1016, 1012, 1018
 5611, 1405, 1689, 1898, 1588
 5612, 2967,  743,  748,  747
 5613, 1349, 1116,   31, 2941
 5614, 2354,  540,  578,  541
 5615, 2992,  538, 2169,  575
 5616, 2539, 3006, 1690, 2492
 5617, 1517, 1516, 1521, 1457
 5618, 1422, 1605, 1379, 1603
 5619, 1136, 1336, 1335, 1433
 5620, 1336, 1807, 1438, 1436
 5621, 2321,  621,  601,  587
 5622, 1422, 1420, 1597, 1435
 5623, 1336, 1334, 1438, 1807
 5624, 1336, 1335, 1648, 1651
 5625, 1652, 1653, 2442, 1860
 5626, 2271,  756,  728,  741
 5627, 1099, 1536, 1188, 1144
 5628, 2090, 1163, 2501, 2656
 5629, 2066, 2601,  676,  672
 5630, 1737, 1736, 2123, 2921
 5631, 1566, 2009, 1094, 1635
 5632, 2298,  555,  560,  559
 5633, 1334, 2801, 1635, 1650
 5634, 1566, 2801, 1334, 1567
 5635, 3007,  732,  729,  731
 5636, 1572, 1334, 1438, 1567
 5637, 3008,  576,  579,  574
 5638, 3009,  593,  599,  600
 5639, 1336, 1334, 1335, 1651
 5640, 2161, 3010, 3011, 2531
 5641, 2997,  622,  640,  626
 5642, 1918, 1839, 1840, 1843
 5643, 1228, 1575, 1168, 1816
 5644, 1789, 1553, 2613, 1667
 5645,  587,  601, 1834,  586
 5646, 1623,  594,  531,  578
 5647, 2157,  713,  715,  718
 5648, 1900,  999,  645,  642
 5649, 1481, 1791, 1259, 1845
 5650, 1905, 1920, 1575, 1906
 5651, 2262, 3012,  583, 2092
 5652, 2321,  587,  620,  621
 5653, 1259, 1262, 1264, 1260
 5654, 1265, 1484, 1090, 1575
 5655, 1587, 1647, 1896, 1835
 5656, 2405, 2859, 3013, 2997
 5657, 2846,  619,  630,  628
 5658, 1147, 1149, 1322, 1643
 5659,  695, 2803,  694,  693
 5660, 1405, 1898, 1587, 1588
 5661, 1787,  779,  780,  627
 5662, 3012, 2092,  577,  583
 5663, 1945, 2831, 1944, 2453
 5664, 1691, 1147, 1148, 1687
 5665, 3013,  638,  640,  643
 5666, 1979,  719,  999,  644
 5667, 2140,  718,  716,  713
 5668, 1355, 1356, 1965, 1357
 5669, 1506,  788, 3014,  792
 5670, 2622, 2967, 2105, 2966
 5671, 3015,  997,  792,  794
 5672, 2680, 2699, 2081, 2083
 5673, 2020,  636,  635,  639
 5674, 1606, 1423, 1604, 1871
 5675, 2705, 1702, 2530, 2126
 5676, 2705, 2530, 2811, 2980
 5677, 1699, 2706, 2705, 2970
 5678, 2705, 2811, 3015, 2980
 5679, 3016,  806,  787,  805
 5680, 2705, 2919, 2917, 2877
 5681, 2114,  790,  641,  643
 5682, 1703, 2809, 2705, 2811
 5683, 1979,  641, 3017,  789
 5684, 2114,  790,  643,  630
 5685, 2896, 2337, 2084, 2563
 5686, 2719, 2631, 2630, 2029
 5687, 1699, 2970, 2705, 2809
 5688, 1940, 1941, 2927, 2925
 5689, 2276, 1940, 1941, 2927
 5690, 2277, 2924, 2136, 2025
 5691, 2024, 2277, 2283, 2271
 5692, 2277, 2283, 2271, 2266
 5693, 2277, 2136, 2135, 2025
 5694, 3018, 2277, 2136, 2135
 5695, 2870, 3019, 3020,  906
 5696, 2429, 1986, 2239, 1985
 5697, 2703, 1891, 1878,  892
 5698, 2240, 1986, 2429, 2222
 5699, 2429, 2233, 1983, 2297
 5700, 2973,  879,  877,  872
 5701, 2851, 1858,  883,  736
 5702, 3017,  790,  788,  641
 5703, 2430, 2240, 2222, 2644
 5704, 2699, 2082,  388,  391
 5705, 1587, 1896, 1647, 1897
 5706, 2164,  797,  791,  796
 5707, 1608, 1609, 1607, 2566
 5708, 2919, 3015, 2164,  797
 5709, 1896, 2072, 2990, 2139
 5710, 1896, 1898, 2087, 1886
 5711, 1896, 2087, 1832, 1623
 5712, 1896, 1897, 1624, 1647
 5713, 3014,  792,  788,  791
 5714, 3014,  791,  793,  785
 5715, 1896, 1832, 2087, 1835
 5716, 2902,  633,  635,  637
 5717, 2712,  554, 2327,  549
 5718, 2712, 2749,  554,  552
 5719, 3015,  792,  797,  794
 5720, 2712, 1082, 1850, 2986
 5721, 2844, 1932, 2870, 2587
 5722, 2970, 2918, 2164, 3021
 5723, 2712, 2327, 1850, 2330
 5724, 2699, 2082,  391, 2079
 5725, 1654, 3021, 3014, 3022
 5726, 2712, 1850, 2749, 2713
 5727,  549,  550,  648, 2330
 5728, 1411, 1554, 1589, 1559
 5729, 1566, 1567, 1664, 2801
 5730, 2699,  386, 2911,  398
 5731, 3023,  793,  790,  781
 5732, 2274, 1559, 1998, 1411
 5733, 1371, 1664, 1558, 2119
 5734, 2697,  864,  851,  863
 5735, 2856,  761,  782,  778
 5736, 3024, 1962, 1958,  918
 5737, 1891,  884,  888,  892
 5738, 2454, 2287,  414,  419
 5739, 1569, 1919, 1558, 1565
 5740, 2840,  929,  927,  930
 5741, 2588,  890,  887,  889
 5742, 1689, 1588, 1886, 1898
 5743, 2125,  878,  877,  889
 5744, 2210,  340, 2180,  414
 5745, 1411, 1559, 1998, 1557
 5746, 1844,  913,  915,  916
 5747, 1068, 1069, 1070, 2733
 5748, 1408,  916,  910,  907
 5749, 2933, 1110, 2775, 1070
 5750, 2933, 2302, 1110, 2207
 5751, 1067, 2933, 1070, 2207
 5752, 1039, 1047, 1041, 1040
 5753, 1313, 1420, 1421, 1772
 5754, 2940,  776,  775,  773
 5755, 1596, 1419, 1458, 1455
 5756, 1400, 1424, 1425, 1350
 5757, 1115, 1116, 1117, 1351
 5758, 2490, 1910, 1117, 1695
 5759, 1910, 1117, 1695, 1351
 5760, 2774,  991,  940,  941
 5761, 1351, 2463, 1695, 2370
 5762, 2605,  801,  807,  802
 5763, 1351, 2463, 1117, 1695
 5764, 1698, 1424, 1351, 1425
 5765, 1351, 1425, 2370, 1695
 5766, 1091,  909,  927,  922
 5767, 2865, 2200,  412,  415
 5768, 2871,  889,  897,  904
 5769, 2608,  807,  801,  803
 5770, 1099, 1945, 1944, 2453
 5771, 1982, 1100, 1992, 1143
 5772, 2564,   32, 1115, 1116
 5773, 1182, 1099, 1183, 1139
 5774, 2516,  317, 2517, 2794
 5775, 1100, 2892, 2760, 2449
 5776, 1962, 1378,  918,  950
 5777, 2949,  839,  841,  813
 5778, 1272,  953,  949,  952
 5779, 2448, 2431, 2449, 2707
 5780, 2866,  898,  897,  896
 5781, 2848, 1467, 1881,  762
 5782, 1102, 1538, 1984, 2916
 5783, 1276, 2569, 1538, 1102
 5784, 1982, 2785, 1536, 1143
 5785, 2838,  989,  831,  832
 5786,  732, 2829, 1658,  737
 5787, 1920, 2503, 2502, 3025
 5788, 1982, 1100, 1143, 1102
 5789, 2814,  810,  832,  833
 5790, 1100, 2916, 2892, 2898
 5791, 1809, 1814, 2565, 1609
 5792, 1962, 2978,  950,  953
 5793, 2685,  847,  849,  848
 5794, 1814, 2337, 2565, 2342
 5795, 2839,  832,  831,  833
 5796, 1868, 2337, 2947, 2516
 5797, 1963, 2507, 1964, 2494
 5798, 1863, 1865, 2196, 1867
 5799, 1866, 1868, 2081, 1865
 5800, 1539, 1848, 1984, 1538
 5801, 1962, 1584, 1272, 1273
 5802, 1561, 1458, 1870, 1871
 5803, 1730, 2784, 1731, 2934
 5804, 2168,  533,  532,    4
 5805, 2094,  573,  575,  532
 5806, 2416, 1312, 1597, 2612
 5807, 2416, 2524, 1772, 2691
 5808, 2959,  758,  926,  934
 5809, 2993,  747,  746,  683
 5810,  749,  934, 2255,    2
 5811, 1376, 1088, 1962, 2978
 5812, 1055,  750,  749,   25
 5813, 2416, 1434, 2524, 2691
 5814, 1336, 1335, 1432, 1648
 5815, 1596, 1419, 1598, 1310
 5816, 2416, 1601, 2264, 1597
 5817, 2995,  540,  574,  578
 5818, 2995,  579,  578,  574
 5819, 1435, 1601, 2416, 1597
 5820, 2103,  484, 2253,   22
 5821, 1306, 2461, 2459, 2465
 5822, 2525, 2391, 2615, 2054
 5823, 2461, 2626, 2459, 2465
 5824, 2989,  696, 2088,  689
 5825, 1962, 1378,  950, 1088
 5826, 2767, 2288, 2981, 2229
 5827, 2461, 2465, 2054, 2626
 5828, 2371, 2281,  204, 2183
 5829, 1215, 1562, 1214, 1622
 5830,  520, 2054, 2526, 2525
 5831,  689,  698, 2996, 2989
 5832, 1532, 2391, 2615, 2525
 5833, 2461, 1299, 2462, 2525
 5834, 1625,  531,  594,  592
 5835, 2130, 2669, 2131, 2133
 5836, 2116,  695,  694,  976
 5837, 3026,  706,  730,  709
 5838, 1306, 2461, 1532, 1299
 5839, 2411, 2029,  311,  314
 5840,    2,  268, 2281, 2256
 5841, 2961,  598,  604,  612
 5842, 1628, 2322, 2859, 2998
 5843, 2680, 2911,  386,  313
 5844, 2906, 2983, 2112, 2153
 5845, 2961,  604, 3002,  606
 5846, 2680, 2718,  514, 2662
 5847, 2680, 2411,  313,  386
 5848, 2281, 2371,   26,    2
 5849,  453, 1860, 1859, 1861
 5850, 2411, 2630,  313,  311
 5851, 2277, 2969, 1658, 2267
 5852, 2309, 2725,  565, 3001
 5853, 3027,  645,  996,  636
 5854, 2859,  631,  628,  630
 5855, 1657, 1510, 1717, 3022
 5856, 2314,  662, 2930,  660
 5857, 3028,  626,  624,  985
 5858, 2314, 2666, 2673, 2724
 5859, 2141,  731,  717,  722
 5860, 2322,  628,  622,  625
 5861, 2112,  723,  721,  716
 5862, 2859,  631,  622,  628
 5863, 3013,  640,  631,  643
 5864, 1506,  792,  789,  788
 5865, 2309, 2725,  567,  565
 5866, 2309, 2311, 1529,  551
 5867, 2314,  660, 2309,  567
 5868, 2157, 2730, 2726,  715
 5869, 1630, 1337, 1173, 1530
 5870, 2309, 2724, 2725, 3001
 5871, 2309,  551, 1529,  566
 5872, 1295, 1181, 1216, 1293
 5873, 2116,  715, 2167,  976
 5874, 1079, 1076, 1114, 1610
 5875, 1422, 1597, 1420, 1423
 5876, 2704, 2692, 2869, 2158
 5877, 1418, 1422, 1379, 1435
 5878, 1336, 1432, 1435, 2524
 5879, 2998,  622,  985,  625
 5880, 2322,  620,  625,  621
 5881, 2165, 3006, 2136,  710
 5882, 2112,  722,  717,  716
 5883, 1717,  780,  784, 1002
 5884,  453, 1860, 2256, 2206
 5885, 1310, 1314, 2419, 1595
 5886, 1422, 1607, 1605, 1603
 5887, 1420, 1435, 2416, 1597
 5888, 2110,  736,  738,  725
 5889, 1110, 2207, 2302, 2807
 5890, 2852,  882,  736,  870
 5891, 1691, 1806, 1708, 1707
 5892, 1708, 2013, 2889, 2674
 5893, 3010,  869,  870,  724
 5894, 2110,  725,  738,  722
 5895, 2018,  619, 2977,  780
 5896, 1979,  998,  644,  789
 5897, 2277, 2266, 1658, 2828
 5898, 1692, 2876, 1687, 1895
 5899, 2852,  724,  870,  725
 5900, 2667, 2331, 2672, 2989
 5901, 2013, 2578, 1708, 2889
 5902, 3022,  793,  781, 1002
 5903, 2913,  619,  628,  629
 5904, 3017,  789,  641,  788
 5905, 3014,  793,  791,  788
 5906, 2983,  723,  726,  721
 5907, 1587, 1316, 1897, 1647
 5908, 1478, 1708, 2578, 1707
 5909, 2918,  787,  987,  796
 5910, 1806, 2654, 1707, 2072
 5911, 3029,  873,  882,  870
 5912, 1099, 1188, 1139, 1944
 5913, 2672, 2989, 2089, 2088
 5914, 2089,  696, 2989, 2331
 5915, 1099, 1143, 1100, 1102
 5916, 3021,  785,  793,  783
 5917, 2867,  798,  815,  799
 5918, 2089, 2088,  687,  993
 5919, 1187, 2864, 2560, 1142
 5920, 2896, 2865, 2452, 2562
 5921, 2913, 2977, 2846,  619
 5922, 1506,  997,  795,  792
 5923, 1187, 1607, 2864, 1144
 5924, 1189, 1944, 1773, 1776
 5925, 2127, 2880, 2588, 2125
 5926, 2452, 2831, 1945, 2453
 5927, 3015, 1506, 3014,  792
 5928, 1531, 2689, 1530, 2592
 5929, 2903,  634,  632,  626
 5930, 1902,  640,  638,  634
 5931, 1901,  641,  638,  643
 5932, 1468, 1715, 1726, 1730
 5933, 2925, 3007, 3026, 1203
 5934, 2863, 1531, 1712, 2505
 5935, 2689, 2393, 2580, 2391
 5936, 2689, 2391, 2580, 2615
 5937, 2692, 2694, 2695, 2917
 5938,  715, 2730, 2726,  692
 5939, 2684,  719,  644,  998
 5940, 2689, 1530, 2592, 2598
 5941, 1934, 1933, 2931, 2174
 5942, 2852, 3029, 1858,  882
 5943, 2895, 1182, 1102, 2569
 5944, 2871,  992, 2866,  897
 5945, 2689, 2690, 2393, 2598
 5946, 1172, 1052, 1051, 1056
 5947, 1155, 1290, 1180, 1295
 5948, 2906, 2900, 2944, 2153
 5949, 1138, 1815, 1190, 1793
 5950, 2059,  726,  871,  724
 5951, 2906, 2983, 1999, 2112
 5952, 1040, 1221, 1216, 1213
 5953, 1779, 2542, 1782, 1786
 5954, 2879,  894, 2866,  992
 5955, 2015, 1858, 2852, 3029
 5956, 1909, 1129, 1128, 1779
 5957, 1979,  789,  642,  641
 5958, 2112,  722,  716,  721
 5959, 1937, 2124, 1783, 1784
 5960, 1999,  721,  724,  725
 5961, 1979,  642,  644,  999
 5962, 1902,  634,  638,  639
 5963, 1779, 1661, 1176, 1783
 5964, 1901,  642,  638,  641
 5965, 1714, 1178, 2243, 1617
 5966, 1509, 1914, 1952, 2625
 5967, 1075, 1134, 1343, 1073
 5968, 1177, 1178, 1430, 1526
 5969, 1355, 1341, 1375, 1933
 5970, 3027,  720,  645,  999
 5971, 1172, 1175, 1177, 1430
 5972, 1900,  642,  639,  638
 5973, 2043, 2403,  512, 2555
 5974, 2043,  207, 2555,  512
 5975, 1982, 1984, 1102, 1538
 5976, 1614, 1616, 2899, 1615
 5977, 1819, 1821, 1824, 1826
 5978, 2045, 1824, 2058, 1826
 5979, 1821,  135, 1820, 1824
 5980, 1645, 1647, 1837, 1646
 5981, 2043, 2045, 2403, 1826
 5982, 1661, 1784, 1129, 1904
 5983, 1039, 1043, 1041, 1047
 5984, 1178, 2243, 1617, 1290
 5985, 1259, 1260, 1090, 1842
 5986, 2899,  637,  994,  712
 5987, 2726,  617,  637,  712
 5988, 1714, 1617, 2243, 2248
 5989, 1056, 1714, 1178, 1177
 5990, 1178, 1847, 1526, 2236
 5991, 2867, 2158, 2877,  875
 5992, 2158,  894,  875,  893
 5993, 2726,  633,  617,  614
 5994, 1178, 1540, 1430, 1847
 5995, 3030,  605,  623,  624
 5996, 1447, 1723, 1161, 1778
 5997, 2903,  634,  635,  632
 5998, 1918, 1584, 1427, 1428
 5999, 1803, 1535, 2296, 2837
 6000, 2145,  624,  633,  614
 6001, 2927, 2829,  732, 1001
 6002, 1367, 1535, 1884, 1803
 6003, 1370, 1368, 1387, 1384
 6004, 2929, 2901, 2900, 2157
 6005, 1662, 1387, 1368, 1906
 6006, 1918, 1428, 1550, 1961
 6007, 2145,  624,  614,  613
 6008, 1427, 1442, 1918, 1550
 6009, 1489, 1261, 1550, 1260
 6010, 1400, 1392, 1428, 1386
 6011, 3026,  707, 3031,  706
 6012, 2859, 2322,  622, 2998
 6013, 2417, 1766, 2414, 2356
 6014, 2417, 2414, 1766, 1820
 6015, 2417, 1820, 1822, 1821
 6016, 2613, 1667, 2610, 1546
 6017, 2417, 2414,  135,  137
 6018, 2417, 2414,  137,  136
 6019, 2417,  134, 1822,  133
 6020, 1908, 2189, 1939, 2149
 6021, 2261,  586,  579,  576
 6022, 3004,  767,  762,  768
 6023, 1880, 1281, 1397, 1881
 6024, 1908, 1907, 2189, 2190
 6025, 2261,  579,  601,  599
 6026, 1908, 1784, 2476, 2376
 6027, 2092,  583,  576,  577
 6028, 1144, 1143, 2784, 1142
 6029, 1632, 1907, 1908, 2034
 6030, 1908, 2376, 2034, 2190
 6031, 2150, 2504, 2170, 2187
 6032, 2271,  919,  756,  741
 6033, 2271,  646,  919,  741
 6034, 2122, 2967,  684,  743
 6035, 1490, 1669, 1535, 2837
 6036, 2912,  590,  591,  582
 6037, 2336,  586,  590,  582
 6038, 2322,  628,  625,  620
 6039, 2913,  629,  628,  620
 6040, 2373,  194,  187,  215
 6041, 3006,  708,  710,  744
 6042, 1669, 2296, 1535, 2837
 6043, 2837, 1669, 1239, 1490
 6044, 1023, 1260, 1366, 1363
 6045, 2954,  968,  929,  930
 6046, 2852,  882, 1858,  736
 6047, 1756, 1253, 1818, 1483
 6048, 2877, 2879, 2878,  880
 6049, 2266,  741,  740,  646
 6050, 1813,  530,  765,  779
 6051, 1357, 1964, 2156, 2162
 6052, 1553, 1490, 2813, 1239
 6053, 1490, 1445, 1489, 1553
 6054, 1323,  766,  986,  769
 6055,  764,  590,  765, 1811
 6056, 1030, 1231, 1490, 1669
 6057, 1848, 1084, 1192, 2233
 6058, 1091,  922,  891,  909
 6059, 1812,  765,  761,  778
 6060, 2946,  627,  591,  530
 6061, 1848, 1084, 1274, 1192
 6062, 2501,  931,  932,  933
 6063, 1099, 1536, 1183, 1188
 6064, 2369,  891,  892,  909
 6065, 2982, 1274, 2211, 1848
 6066, 1848, 2223, 2982, 2430
 6067, 2136, 3018,  710,  709
 6068, 3008, 2992,  574, 2995
 6069, 1848, 1084, 2244, 2982
 6070, 2847,  774,  766,  775
 6071, 2429, 2430, 1848, 2233
 6072, 2829,  737, 1001,  738
 6073, 3032,  923,  932,  924
 6074, 3032,  924,  920,  923
 6075, 1881,  762,  766,  763
 6076, 1848, 2982, 2244, 2430
 6077, 2081, 1951, 2719, 1685
 6078, 1219,  759,  769,  986
 6079, 1162,  759,  801,  782
 6080, 1981, 1143, 1982, 1992
 6081, 2109, 2111, 2110, 2829
 6082, 2140,  713, 2157,  718
 6083, 1680, 1681, 1682, 1463
 6084, 1951, 2553, 1685, 2081
 6085, 1683, 1681, 1463, 2835
 6086, 2856,  759,  782,  770
 6087, 1464, 1577, 1488, 1463
 6088, 1685, 1681, 1680, 1683
 6089,  769,  759, 1219,  770
 6090, 1981, 2737, 2441, 2785
 6091, 1683, 1865, 2719, 2835
 6092, 1777, 1393, 1442, 1361
 6093, 2914,  629,  591,  627
 6094,  590,  765, 1811,  530
 6095, 2429, 1983, 1985, 2297
 6096, 1345, 2875, 1672, 1361
 6097, 3023,  781,  790,  630
 6098, 1356, 1931, 1930, 1358
 6099, 1440, 1489, 1261, 1550
 6100, 1883,  582,  629,  620
 6101, 1918, 1261, 1839, 1843
 6102, 1443, 1675, 1444, 1445
 6103, 2851,  736,  883,  727
 6104, 2977,  629,  627,  619
 6105, 1361, 2875, 1672, 1777
 6106, 2127, 2871, 2588, 2880
 6107, 1882, 1399, 2093, 2848
 6108,  737, 2851,  727,  738
 6109, 3022,  783,  793, 1002
 6110, 1447, 1777, 1491, 1778
 6111, 2275,  740,  739,  646
 6112, 2317, 1537, 1731, 2320
 6113, 1726, 1183, 1536, 1188
 6114, 1476, 1205, 1201, 1194
 6115, 1569, 1570, 1573, 1571
 6116, 2857, 2735, 2862, 2499
 6117, 2861, 2676, 2573, 2857
 6118, 1623,  578,  531,  541
 6119, 2834, 2861, 2676, 2573
 6120, 2987,  592,  561,  562
 6121, 2975,  592,  593,  597
 6122, 2857, 2676, 2573, 3033
 6123, 3033, 2857, 2574, 2163
 6124, 2857, 2862, 2735, 2697
 6125, 2857, 2676, 2735, 2499
 6126, 2429, 1984, 1848, 2222
 6127, 2991,  562,  539,  541
 6128, 2857, 2573, 2861, 2697
 6129, 2200,  511, 2796, 2201
 6130, 1722, 1161, 1778, 2834
 6131,  698, 2989,  697, 3034
 6132, 1134, 1073, 1696, 2567
 6133, 1538, 2211, 2916, 2569
 6134, 2495, 2798, 1579, 2499
 6135, 2483, 2720, 2743, 1166
 6136, 1165, 1593, 1426, 1585
 6137, 2731,  612,  615,  610
 6138, 2495, 1585, 1593, 1165
 6139, 2994, 1585, 1593, 2495
 6140, 1582, 1578, 1581, 1585
 6141, 1579, 1165, 1427, 1585
 6142, 2144,  614,  615,  612
 6143, 2994, 1585, 2495, 2798
 6144, 1579, 2499, 1582, 2735
 6145, 2167,  714,  695,  976
 6146, 3002,  603,  605,  604
 6147, 1911, 1631, 2509, 1910
 6148, 1166, 1161, 1164, 2791
 6149, 3035,  703,  705,  704
 6150, 1968, 1975, 1634, 1972
 6151, 2667, 2989, 2325, 2331
 6152, 2488,  606,  624,  613
 6153, 2482, 1552, 1975, 2743
 6154, 1968, 1969, 2743, 1970
 6155, 2145,  624,  632,  633
 6156, 1545, 1813, 1788, 1787
 6157, 1743, 2097, 2098, 2317
 6158, 1903, 1939, 1796, 1904
 6159, 1633, 1129, 1632, 1784
 6160, 2782, 2089,  993, 2088
 6161, 2968, 1008,  570,  571
 6162, 1633, 1164, 1415, 2791
 6163, 1413, 1618, 1903, 1415
 6164, 1623,  594,  578,  579
 6165, 3036,  681,  742,  682
 6166, 1776, 1453, 2797, 1947
 6167, 1074, 1385, 1369, 1694
 6168, 3003,  702,  744,  742
 6169, 1631, 2509, 1969, 1972
 6170, 2516,  317, 2662, 2515
 6171, 2975,  594,  593,  592
 6172, 1633, 1903, 1415, 1164
 6173, 1908, 1784, 2014, 1904
 6174, 3009,  602,  599,  601
 6175, 2895, 2916, 2569, 1102
 6176, 1542, 1218, 1417, 1667
 6177, 1471, 1574, 1256, 1818
 6178, 2177, 1802, 1114, 1884
 6179, 2344, 1920, 1170, 1921
 6180, 2803, 2996,  688,  693
 6181, 3037,  600,  605,  603
 6182, 3037,  603,  597,  600
 6183, 1171, 1011, 2008, 1186
 6184, 1275, 1274, 1539, 1538
 6185, 2805,  705,  695,  714
 6186, 1119, 1033, 1184, 1854
 6187, 1241, 1120, 1448, 1108
 6188, 2144,  606,  613,  612
 6189, 1230, 1229, 1254, 1412
 6190, 2902,  635, 2899,  637
 6191, 3028,  632,  624,  626
 6192, 1085, 1087, 1094, 1122
 6193, 3038,  584,  585,  589
 6194, 1951, 1683, 1462, 1865
 6195, 2431,  418, 2448, 2433
 6196, 1276, 1111, 1538, 2569
 6197, 1539, 1983, 2429, 2233
 6198, 2957,  771,  772,  760
 6199, 1685, 2070, 2558, 1686
 6200, 1680, 1685, 1577, 1686
 6201, 1681, 1684, 1685, 1679
 6202, 1956, 2972, 2757, 2907
 6203, 2920,  745,  748,  743
 6204, 2967,  746,  747,  748
 6205, 1541, 1540, 1847, 1430
 6206, 1463, 1459, 1462, 2835
 6207, 1398,  590,  588,  763
 6208, 1302, 2435, 1847, 1916
 6209, 1163,  921,  924,  925
 6210, 2266,  733,  740,  741
 6211, 2345,  982,  754,  757
 6212, 2959,  982,  925,  926
 6213, 2848,  762,  589,  981
 6214, 1577, 1685, 2553, 2558
 6215, 1314, 1576, 2788, 2465
 6216, 1680, 1686, 1576, 2458
 6217, 1306, 1298, 2459, 1299
 6218, 2672, 2665, 2782, 2089
 6219, 2113,  766,  769,  763
 6220, 1683, 1463, 1462, 2835
 6221, 2956,  581,  580,  760
 6222, 1399,  589,  763,  588
 6223, 2336,  590,  586,  583
 6224, 1982, 1100, 1984, 1992
 6225, 1464, 1462, 1683, 1463
 6226, 1723, 1161, 1778, 1722
 6227, 2345,  921,  982,  757
 6228, 3038,  589,  585,  981
 6229, 1736, 2907, 2123,  754
 6230, 2084,  412, 2200,  413
 6231, 1918, 1961, 1842, 1843
 6232, 1957, 1378, 1376, 1961
 6233, 1381, 1346, 2740, 1347
 6234, 1272, 1584, 1962, 2910
 6235, 2091,  585,  577,  573
 6236, 1962, 2910, 1428, 1376
 6237, 2649,  773,  768,  772
 6238, 2672, 2989, 2088, 2996
 6239, 1550, 1442, 1918, 1261
 6240, 2383,  540,  536,  534
 6241, 1720, 1160, 1164, 1414
 6242, 2355,  574,  540,  538
 6243, 1918, 1261, 1843, 1842
 6244, 1550, 1260, 1918, 1961
 6245, 2962,  602,  623,  605
 6246, 1270, 1385, 1369, 1074
 6247, 1044, 1862, 1270, 1269
 6248, 1079, 1155, 1610, 1290
 6249, 1017, 1113, 1024, 1097
 6250, 2896, 1776, 2517, 2334
 6251, 2998,  623,  625,  985
 6252, 2167,  717,  714,  713
 6253, 1087, 1186, 1094, 1122
 6254, 1181, 1207, 1222, 1872
 6255, 2563, 2200, 2688, 2796
 6256, 1750, 1287, 2518, 1288
 6257, 2018, 3023, 2846,  781
 6258, 3030,  623,  985,  624
 6259, 3037,  602,  605,  600
 6260, 1339, 1381, 1347, 1346
 6261, 1886, 2990, 2295, 2354
 6262, 1752, 2759, 2519, 1750
 6263, 1289, 1207, 1329, 1247
 6264, 1286, 1180, 1292, 1290
 6265, 2726,  712,  692,  617
 6266, 2111, 1001,  731,  722
 6267, 2985,  556,  561,  557
 6268, 2979,  623,  602,  621
 6269, 1883,  582,  620,  587
 6270, 2116,  976,  694,  715
 6271, 2928,  714,  717,  731
 6272, 2946,  627,  530,  779
 6273, 1097, 1024, 1884, 1114
 6274, 1286, 1181, 1289, 1180
 6275, 2829,  737,  732, 1001
 6276, 2084, 2209,  318, 2794
 6277, 2977,  627,  780,  619
 6278, 1818, 1742, 2271, 2270
 6279, 2283, 2147, 2275, 2828
 6280, 2084, 2201,  394,  413
 6281, 2856,  770,  782,  761
 6282, 1717, 1002,  784,  783
 6283, 1294, 1750, 1289, 1751
 6284, 2851, 2829,  737, 2147
 6285, 1092,  911,  909,  908
 6286, 2409, 2044, 2407, 1767
 6287, 2021,  786,  784,  782
 6288, 1381, 1380, 1666, 2682
 6289, 1751, 1289, 1874, 1750
 6290, 1877, 1750, 2518, 2759
 6291, 2552, 1949, 1948, 1815
 6292, 2851,  736,  727,  738
 6293, 2852,  736,  725,  870
 6294, 2018, 1002,  781,  780
 6295, 2839, 2838,  831,  832
 6296, 1606, 1793, 1815, 1604
 6297, 1949, 1948, 1947, 2783
 6298, 1774, 1949, 1948, 1776
 6299, 1881,  589,  762,  763
 6300, 1650, 1437, 2815, 2647
 6301, 2421, 2361, 2420,  221
 6302, 2358,   28,   29,  199
 6303, 2502,  928,  933,  932
 6304, 1189, 1946, 1140, 1948
 6305, 1189, 1947, 1948, 1140
 6306, 3004,  762,  767,  766
 6307, 2144,  612,  613,  614
 6308, 2802, 1140, 1947, 1189
 6309, 2883, 2636, 2065, 1140
 6310, 2635, 2636, 2065, 2883
 6311, 3004,  767,  775,  766
 6312, 3039,  929,  968,  970
 6313, 1948, 1815, 2883, 2552
 6314, 1949, 1948, 2783, 2552
 6315, 1949, 1947, 1776, 2792
 6316, 3005,  760,  981,  581
 6317, 1948, 2883, 2635, 2552
 6318, 2650,  934,   26,    2
 6319, 2404,  512, 2396,  528
 6320, 1103, 1179, 1247, 1359
 6321, 2648,  760,  768,  981
 6322,  935,  934, 2656,  926
 6323, 1703, 2811, 2705, 2530
 6324, 1702, 2531, 1734, 1701
 6325, 1913, 1701, 2015, 1953
 6326, 2011,  580,  980,    1
 6327, 2060, 2547, 2723,  148
 6328, 1700, 1732, 1733, 1485
 6329, 2728, 2731, 2143,  615
 6330, 2143, 2731, 2144,  615
 6331, 1700, 1702, 1733, 1732
 6332, 1381, 1380, 1340, 1666
 6333,  590, 1398,  588, 2336
 6334, 2986,   12,  977,  548
 6335, 1733, 1732, 1702, 2127
 6336, 1733, 2704, 2127, 2126
 6337, 2705, 2704, 2126, 2877
 6338, 1578, 1580, 1583, 1393
 6339, 2495, 1778, 2790, 2499
 6340, 1582, 2862, 2735, 2499
 6341, 2482, 2744, 1973, 1552
 6342, 1582, 2798, 2471, 2637
 6343, 2957,  828,  771,   48
 6344, 2731,  686,  610,  616
 6345, 2656,  972,  934,  935
 6346, 1582, 2464, 2637, 2471
 6347, 2521,   97, 2374, 2030
 6348, 2072, 2990, 2987, 2251
 6349, 2157,  712,  718,  715
 6350, 2521,   97, 2658, 2374
 6351, 2880, 2125,  889, 2588
 6352, 2521, 2659, 1935, 2248
 6353, 2828,  737,  739,  740
 6354, 2809, 1506, 3017, 3014
 6355, 2521, 3040, 2374, 2658
 6356, 2318, 2850, 2053, 2202
 6357, 1810,  922,  919,  886
 6358, 2001, 1909, 2476, 1632
 6359, 1813,  778,  779,  765
 6360, 2924, 2136, 3031, 3026
 6361, 2318, 2850, 2818, 2787
 6362, 2317, 2318, 2786, 1743
 6363, 2318, 2818, 1571, 2787
 6364, 1878,  888,  887,  890
 6365, 2018,  780,  781,  619
 6366, 1570, 1571, 2318, 1573
 6367, 2670, 2668, 1687, 2478
 6368, 1473, 2012, 2478, 1688
 6369, 2846,  619,  781,  630
 6370, 2670, 1687, 1708, 2478
 6371, 2668, 2885, 2667, 2960
 6372, 2803, 2845, 2732, 2841
 6373, 2842, 1152, 2960, 2963
 6374, 1255, 2492, 2134, 1146
 6375, 1787,  784,  780,  779
 6376, 2134, 3006, 2165, 3041
 6377, 1891,  884,  885,  883
 6378, 1146, 2539, 2134, 2095
 6379, 2134, 2025, 2136, 2492
 6380, 2140, 2167,  713,  717
 6381, 2134, 2165, 2136, 2135
 6382, 1731, 2441, 2737, 2785
 6383, 2153,  711,  996,  723
 6384, 2266,  741, 2271, 2267
 6385, 1633, 1166, 2483, 1634
 6386, 1731, 2853, 2786, 2320
 6387, 2728, 2732, 2730, 2727
 6388, 2997,  640,  634,  626
 6389, 1943, 2925, 2804, 2928
 6390, 2786, 2787, 2320, 2853
 6391, 1731, 2786, 2853, 2101
 6392, 2786, 1035, 2853, 2101
 6393, 1785, 1636, 2751, 1638
 6394, 2902,  632,  635,  633
 6395, 1785, 1823, 1638, 2752
 6396, 1819, 1636, 1826, 1823
 6397, 2983,  723,  996,  720
 6398, 1638, 2407, 1823, 2044
 6399, 1638, 2044, 1820, 1767
 6400, 2854, 2027, 2655, 2305
 6401, 2020,  639,  635,  634
 6402, 2110, 2112, 1999,  722
 6403, 1208, 1403, 1401, 1402
 6404,  718, 2157, 2153,  711
 6405, 3027, 2906, 2944, 2983
 6406, 2020,  636,  639,  645
 6407, 2157,  712,  711,  718
 6408, 1730, 2864, 1144, 2784
 6409, 1275, 1538, 1276, 1274
 6410, 1982, 1465, 1536, 2785
 6411, 1730, 1731, 1144, 1536
 6412, 2928,  717, 2167, 2141
 6413, 2944,  636,  994,  635
 6414, 1831, 1628, 1629, 2979
 6415, 1496, 1254, 1319, 1498
 6416, 1227, 1230, 1120, 1416
 6417, 1788,  784,  779,  778
 6418, 1319, 1412, 1505, 1498
 6419, 2324, 2291, 1479, 1857
 6420, 2606,  805,  786,  802
 6421, 1479, 1709, 2291, 2012
 6422, 1479, 2767, 1199, 1857
 6423,  370, 2644, 2430, 2223
 6424, 1473, 1479, 2012, 1709
 6425, 1717,  784,  786,  783
 6426, 3021,  783,  787,  785
 6427, 1474, 1198, 1200, 1705
 6428, 3016,  787,  806,  987
 6429, 2150, 2504, 1954, 2170
 6430, 2606,  807,  805,  802
 6431,  996, 2153, 2983, 2944
 6432, 2150, 1852, 2504, 2187
 6433, 2150, 2038, 1794, 2151
 6434, 2150, 2263, 2187, 2170
 6435, 2150, 2263, 1954, 2152
 6436, 2834, 2755, 2861, 2457
 6437, 2790, 2499, 2755, 2500
 6438, 2948,  805,  787,  786
 6439, 2495, 2790, 2500, 2499
 6440, 3016,  808,  806,  805
 6441, 2570,  939,  945,  946
 6442, 2929, 1942, 2900, 2901
 6443, 2834, 1722, 2676, 1778
 6444, 1785, 1638, 2751, 2752
 6445, 2644, 2224,  370,  371
 6446, 1779, 1785, 1780, 1783
 6447, 1300, 1298, 1641, 1301
 6448, 2777, 1640, 1713, 1297
 6449, 2682, 2774, 1666,  940
 6450, 2000, 2001, 1974, 1909
 6451, 3027, 1900,  645, 2020
 6452, 3015, 2919, 2877,  995
 6453, 2919,  798,  797,  796
 6454, 1964,  816,  822,  823
 6455, 1964, 2493,  822,  812
 6456, 2693,  818,  799,  815
 6457, 1878, 1890, 1889, 2125
 6458, 2972,  758, 2255, 2907
 6459, 1344, 1174, 1713, 1343
 6460, 1174, 1713, 1343, 1640
 6461, 2983, 2112,  721, 1999
 6462, 3042, 2572, 2446,  964
 6463, 1300, 1176, 1175, 1526
 6464, 1466, 1640, 1175, 1297
 6465, 1331, 1243, 1882, 2848
 6466, 1878, 1890, 2125,  887
 6467, 2880,  877,  992,  889
 6468, 2747, 2550, 1663, 2339
 6469, 2747, 2339, 1521, 2550
 6470, 2706, 2948, 2918, 3021
 6471, 1602, 1316, 1317, 2010
 6472, 1692, 1897, 2010, 2825
 6473, 2983, 1999,  726, 2059
 6474, 1152, 1154, 1153, 2893
 6475, 2842, 1152, 2963, 2841
 6476, 2670, 1687, 2674, 1708
 6477, 2344, 2345, 1163, 2959
 6478, 2866,  897,  992,  894
 6479, 1687, 1147, 1148, 1150
 6480, 2878,  880,  992,  877
 6481, 2345, 1163, 2959,  925
 6482, 2451,  914,  915,  912
 6483, 2693,  819, 2158,  799
 6484, 2695,  806,  815,  987
 6485, 2848, 1243, 2648, 1331
 6486, 2572,  960,  958,  964
 6487, 2175,  901,  895,  900
 6488, 2158,  875,  799,  819
 6489, 1147, 1691, 1587, 1687
 6490, 2019,  908,  890,  905
 6491, 2644, 2430,  461,  372
 6492, 2918,  787,  796,  785
 6493,  757,  921, 1738, 2345
 6494, 1828, 2842, 1829, 2732
 6495, 1145, 1148, 1150, 2489
 6496, 1426, 2910, 1272, 2581
 6497, 2878,  877,  879,  880
 6498, 2918,  798,  796,  987
 6499, 3043,  748,  754, 1736
 6500, 2694, 2695, 2917, 2918
 6501, 2223,  370,  383, 2430
 6502, 1376, 2910, 2978, 1962
 6503, 1584, 2910, 1272, 1426
 6504, 2345, 1736, 3043,  754
 6505, 2879,  992,  880,  894
 6506, 1584, 1962, 2910, 1428
 6507, 1273, 1957, 1962, 1584
 6508, 2276, 1320, 1321, 1757
 6509, 2919,  800,  995,  797
 6510, 1325, 1940, 1321, 1154
 6511, 2161,  879,  874,  867
 6512, 2552, 2635, 2783, 2437
 6513, 2635, 1947, 2783,  326
 6514, 1980,  817,  816,  823
 6515, 1321, 1320, 1319, 1757
 6516, 2644, 2223, 2222, 2430
 6517, 2024, 1253, 1818, 1756
 6518, 2938,  830, 3044,  989
 6519, 3020,  904,  905,  890
 6520, 1339, 1361, 1340, 1381
 6521, 2874,  930,  927,  911
 6522, 2582,  846,  845,  859
 6523, 2828, 2276, 2277, 2278
 6524, 2024, 2278, 1756, 1817
 6525, 1154, 1940, 1321, 2924
 6526, 1982, 2441, 1465, 2785
 6527, 1796, 1904, 1939, 1935
 6528, 1903, 1618, 1796, 1939
 6529, 1714, 1935, 1796, 2248
 6530, 1219,  804,  759,  986
 6531, 2635, 2636,  326,  320
 6532, 2161, 3011,  869,  872
 6533, 2608,  803,  809,  807
 6534, 1848, 1984, 1538, 2222
 6535, 2175,  901,  903,  902
 6536, 1107, 1247, 1246, 1728
 6537, 1714, 1796, 1617, 2248
 6538, 2161, 3011,  872, 2973
 6539, 1326, 1322, 1503, 1645
 6540, 1811,  761,  765,  764
 6541, 2113,  769,  761,  764
 6542, 2928,  705, 1203, 2805
 6543, 2990,  541, 1625,  562
 6544, 1405, 1678, 1586, 1898
 6545, 1251, 1255, 1146, 1643
 6546,   26, 2281,  204, 2371
 6547, 1397,  590,  763,  764
 6548, 2147,  885,  739,  727
 6549, 2652, 2827, 2655, 1891
 6550, 1827,  885,  886,  739
 6551, 1848, 2222, 2223, 2430
 6552, 1502, 1586, 1503, 1678
 6553, 3011, 2161, 2531, 2016
 6554, 2161,  867, 2980,  879
 6555, 1504, 1505, 1507, 1509
 6556, 1507, 1505, 1757, 1912
 6557, 1319, 1757, 1505, 1756
 6558, 1656, 1515, 1700, 1655
 6559, 3016, 2695, 2918,  987
 6560, 3012,  583,  577,  584
 6561, 1539, 2233, 2429, 1848
 6562, 1513, 2846, 1514, 1512
 6563, 1228, 1471, 1483, 1574
 6564, 2827,  885,  884,  881
 6565, 1707, 1885, 2072, 2654
 6566, 1901, 3013,  643,  638
 6567, 2231,  564, 2128, 2106
 6568, 1120, 1454, 1449, 1448
 6569, 3045,  755,  751,  756
 6570, 1031, 1450, 1230, 1503
 6571, 1609, 1608, 2678, 2566
 6572, 2914,  591,  629,  582
 6573, 2912,  530,  591,  590
 6574, 1099, 1944, 1139, 1101
 6575, 3012,  588,  583,  584
 6576, 1542, 1549, 1718, 1545
 6577, 1172, 1056, 1177, 1661
 6578, 2889, 1529, 2298, 3001
 6579, 1310, 2773, 2419, 2203
 6580, 2262,  576,  583,  586
 6581, 3003,  702,  742,  681
 6582, 2140,  717,  713,  716
 6583, 3045,  756,  751,  728
 6584, 1177, 1178, 1526, 1936
 6585, 1178, 1290, 1295, 2243
 6586, 2594, 2128, 2231, 2595
 6587, 3018,  709,  735,  710
 6588, 2969,  735,  709,  730
 6589, 2165,  744,  710,  751
 6590, 1832,  599,  594,  579
 6591, 1617, 1290, 2243, 2909
 6592, 1937, 1714, 1177, 1936
 6593, 1126, 1095, 1234, 1270
 6594, 1343, 1640, 1713, 1786
 6595, 1748, 2716,  107, 2591
 6596, 1553, 2613, 1667, 2610
 6597, 2165,  734,  751,  710
 6598, 1553, 2613, 2610, 2609
 6599, 1803, 1446, 1490, 2820
 6600, 3046,  701,  708,  702
 6601, 3009,  602,  600,  599
 6602, 1799, 1245, 1535, 2296
 6603, 2267,  728,  734,  735
 6604, 1030, 1669, 1553, 1667
 6605, 1441, 1444, 1790, 1445
 6606, 1494, 1495,  157, 2614
 6607, 1810,  922,  923,  919
 6608, 2355, 2995, 2354,  540
 6609, 2270,  646,  886,  919
 6610, 1888,  153, 1494,  158
 6611, 2532, 2458, 2671, 1627
 6612, 2989,  675,  696,  697
 6613,  697, 3034,  699,  698
 6614, 2728, 2731,  615,  616
 6615, 1790, 2609, 1553, 1445
 6616, 2773, 1423, 1597, 2678
 6617, 1913, 1757, 2305, 1756
 6618, 1320, 2208, 1942, 1614
 6619, 2024, 1757, 1756, 2278
 6620, 2781,  665,  570,  611
 6621, 1757, 1756, 2278, 2305
 6622, 2010, 2825, 2961, 3000
 6623, 1602, 2010, 3000, 2825
 6624, 1902, 2903, 2997,  634
 6625, 1316, 2010, 1897, 1647
 6626, 2731, 2132, 2961,  612
 6627, 2331,  696,  668,  990
 6628, 1316, 1645, 1317, 1646
 6629, 1685, 2029, 2080, 2028
 6630, 1457, 1598, 1455, 1419
 6631, 2294,  675,  669,  659
 6632, 1310, 1419, 1421, 1420
 6633, 1462, 1865, 2835, 1864
 6634, 1870, 2550, 2747, 1521
 6635, 1870, 2747, 2550, 2552
 6636, 1863, 2333, 1868, 1867
 6637, 1863, 1865, 1864, 2196
 6638, 2362, 2933, 2302, 1110
 6639, 2933, 1893, 1067, 2440
 6640, 2933, 1893, 2238, 1067
 6641, 2267,  728,  733,  741
 6642, 2987,  556, 2251,  562
 6643, 1493, 1495, 1626,  161
 6644, 1997, 2285, 2300, 2556
 6645, 1479, 2599, 2291, 1709
 6646, 1282, 1283, 1893, 2362
 6647, 1277, 1285, 2597, 1893
 6648, 1154, 2804, 2925, 2893
 6649, 2291, 2600, 1709, 2599
 6650, 2275,  739,  886,  646
 6651, 2918,  785, 3021,  787
 6652, 2045, 2585, 2058, 2394
 6653, 2440, 1283, 1893, 1285
 6654, 1934, 1358, 2692, 1932
 6655, 2655,  883,  885,  727
 6656, 1965, 1547, 1356, 2613
 6657, 2604, 1548, 2021, 2948
 6658, 1966, 1548, 2604, 2948
 6659, 1890,  888,  882,  873
 6660, 2899, 2157,  712,  711
 6661, 3010,  724,  871,  869
 6662, 2604, 2816, 2610, 2605
 6663, 1965, 2604, 2610, 2605
 6664, 2604, 1546, 2816, 1162
 6665, 1858,  882,  883,  736
 6666, 2159,  997,  868,  795
 6667, 2604, 1546, 1162, 2021
 6668, 2291, 1709, 2590, 2926
 6669, 1363, 1260, 1550, 1961
 6670, 1662, 1363, 1922, 1260
 6671, 2928, 2167,  714, 2805
 6672, 3047,  600,  597,  593
 6673, 1023, 1363, 1662, 1260
 6674, 1263, 1259, 1260, 1090
 6675, 1265, 1575, 1228, 1484
 6676, 1662, 1906, 1905, 1922
 6677, 2556,  678,  658,  673
 6678, 2999,  699,  701,  697
 6679,  129, 1824,  130,  205
 6680, 1489, 1366, 1260, 1550
 6681, 2326,  674,  676,  671
 6682, 1303, 1301, 1302, 1915
 6683, 1796, 1903, 1659, 1413
 6684, 3006,  708,  744,  702
 6685, 2730, 1830, 2167, 2929
 6686, 1303, 2115, 2049, 1915
 6687, 1175, 1302, 1301, 1526
 6688, 1182, 1536, 1276, 1183
 6689, 2667, 2989, 2960, 2885
 6690, 2345,  982,  921,  925
 6691, 1191, 1109, 1402, 1285
 6692, 1402, 1109, 1401, 1195
 6693, 1468, 1469, 1276, 1183
 6694,  581,  585, 2091,  572
 6695, 2003,  208, 2555, 2426
 6696, 2921,  754,  746,  748
 6697, 2988,  572,  573,  533
 6698, 2555,  207, 2426,  208
 6699, 1052, 1073, 1075, 1343
 6700, 1631, 1911, 2509, 1972
 6701, 2496,  119, 2746,  121
 6702, 2325,  674,  675,  697
 6703, 1134, 1158, 1910, 1698
 6704, 2511, 1159, 1424, 1910
 6705, 2560, 1142, 2643, 2078
 6706, 2539, 1690, 3003, 2105
 6707, 2641, 2560, 2077, 2687
 6708, 2343,  701,  702,  700
 6709, 3031,  704,  707,  701
 6710, 2237, 1525, 2746, 2436
 6711, 2746,  120, 2436,  121
 6712, 2560, 2708, 2218, 2642
 6713, 2961,  598, 2299,  604
 6714, 2560, 2643, 2864, 2642
 6715, 2291, 2293, 2722, 2926
 6716, 2326,  674,  700,  676
 6717, 2066,  676,  702,  681
 6718, 2300,  673,  672,  681
 6719, 2602, 2300, 2285,  657
 6720, 1566, 1334, 2801, 1635
 6721, 2590,  670,  669,  671
 6722, 2746,  119, 2806,  112
 6723, 2928, 2141,  731,  717
 6724, 1433, 1862, 1048, 1432
 6725, 2289,  670,  653,  664
 6726, 2888,  546,  544,  559
 6727, 1558, 1998, 1557, 2119
 6728, 1095, 1094, 2009, 1635
 6729, 1059, 1307, 1715, 1058
 6730, 1121, 1184, 1019, 1124
 6731, 2569, 2212, 2639, 2338
 6732, 2285,  657,   19, 1005
 6733, 1569, 1564, 1558, 1470
 6734, 1652, 1805, 1860, 2442
 6735, 2191, 2757, 2758, 2123
 6736, 1335, 1651, 1653, 1649
 6737, 2556,  678,  673,  681
 6738, 1181, 1872, 1289, 1207
 6739, 1095, 1186, 1234, 1804
 6740, 1336, 1648, 2524, 1434
 6741, 2229,  654,   18,   17
 6742, 2008, 1094, 1122, 2009
 6743, 1061, 1359, 1207, 1179
 6744, 2300,  672,  673,  657
 6745, 2235, 2219,    7,  537
 6746, 2309,  568,  660,  661
 6747, 1061, 1064, 1528, 1060
 6748, 2325,  674,  669,  675
 6749, 1721, 2675, 2491, 2677
 6750, 2291, 2599, 2288, 2600
 6751, 1720, 1161, 1723, 1722
 6752, 2596,  559,  557,  558
 6753, 2237, 2746, 2717, 2436
 6754, 2746,  112, 2806, 2522
 6755,  487, 1035, 1034, 2787
 6756, 1035, 2053,  485,  473
 6757, 1413, 1132, 1590, 1758
 6758, 1723, 2538, 2675, 2677
 6759, 2686, 2464, 2637, 2739
 6760, 2686, 2464, 2739, 2740
 6761, 3036,  678,  681,  682
 6762,  775, 2940,  773,  768
 6763, 1035, 2101,  469, 2853
 6764, 2681, 1381, 2740, 2685
 6765, 2165,  752,  745,  744
 6766, 2681, 2740, 1381, 2683
 6767, 2992,  575,  576,  574
 6768, 2686, 2464, 2740, 2683
 6769, 2686,  854,  849, 2685
 6770, 2920,  745,  752,  748
 6771, 3041,  745,  742,  744
 6772, 1777, 2537, 1491, 1778
 6773, 1777, 1491, 2537, 1672
 6774, 2790, 1778, 2834, 2499
 6775, 2153,  711,  723,  718
 6776, 1091,  909, 1092, 2874
 6777, 1580, 1393, 1381, 1583
 6778, 1582, 1585, 1581, 2446
 6779, 2958,  750,  685,  746
 6780, 1579, 1777, 1580, 1578
 6781, 2093, 3012, 2092,  577
 6782, 2950,  572,  533,  980
 6783, 2237, 2118, 2746, 1525
 6784, 2237, 2522, 1936, 3040
 6785, 2236, 1847, 2237, 2216
 6786, 2502,  932,  923,  928
 6787, 2291, 2293, 2926, 2292
 6788, 3005,  981,  585,  581
 6789, 2907,  754,  758,  750
 6790, 2237, 1525, 2436, 1847
 6791, 2237, 2216, 2717, 3040
 6792, 3043,  752,  753,  748
 6793,  553, 2311, 2309,  551
 6794, 2208, 1614, 2900, 1942
 6795, 1952, 2906, 2908, 2709
 6796, 2208, 1942, 2929, 1941
 6797, 2291, 1857, 2129, 2288
 6798, 1738,  755,  757,  752
 6799, 3043,  757,  753,  752
 6800, 2154, 2942,  835,  836
 6801, 2439,   46,   54,   45
 6802, 1912, 2181, 2208, 2906
 6803, 2415, 2208, 1614, 2906
 6804, 2959,  982,  926,  758
 6805, 3043,  753,  757,  754
 6806, 1196, 1620, 1197, 1527
 6807, 2037, 1196, 1068, 2504
 6808, 1207, 2445, 1872, 1876
 6809, 2377,  836,   44,   43
 6810, 2019,  905,  910,  908
 6811, 1215, 1223, 1620, 1214
 6812, 1222, 1210, 1221, 1211
 6813, 1604, 1419, 1213, 1561
 6814, 1294, 1872, 1754, 1875
 6815, 1095, 2009, 1805, 1635
 6816, 1035, 2101, 2098,  469
 6817,  928,  922, 2849, 1091
 6818, 1736,  754, 2345, 2907
 6819, 1215, 1063, 1527, 1223
 6820, 2174,  819,  821,  893
 6821, 1553, 1239, 2813, 1220
 6822, 1553, 2610, 1667, 1220
 6823, 1091,  927,  928,  922
 6824, 1378,  918,  866,  917
 6825, 1960,  917,  930,  911
 6826, 1272,  952,  962,  953
 6827, 1844,  916,  907,  913
 6828, 2853, 1035,  385,  469
 6829, 2292, 2291, 2590, 2926
 6830, 2493, 2609, 1965, 1374
 6831, 1965, 2613, 2609, 2610
 6832, 2109, 2182, 2305, 2829
 6833, 1553, 1445, 2609, 2813
 6834, 1147, 1587, 1586, 1149
 6835, 1203,  706,  705,  729
 6836, 1475, 1709, 1688, 1996
 6837, 2488,  624,  606,  605
 6838, 1319, 1756, 1253, 1321
 6839, 3031,  706,  707,  704
 6840, 1319, 1498, 1507, 1508
 6841, 2116,  694,  690,  692
 6842, 2135,  734,  728,  751
 6843, 2748, 2722, 2663, 2310
 6844, 1034, 2787, 1035, 2853
 6845, 3033, 2535,  860,  856
 6846, 2676, 3033, 2574, 2466
 6847, 2803,  694,  693,  691
 6848, 2145, 2144,  613,  614
 6849, 3026,  706,  709,  707
 6850, 2136,  707,  710,  708
 6851, 1496, 1501, 1831, 1500
 6852, 2013, 2889, 2310, 2323
 6853, 1930, 1733, 1668, 1358
 6854, 1481, 1930, 1259, 1791
 6855, 2018, 1002, 1717, 3022
 6856, 2969,  732,  735,  730
 6857, 3007,  732,  730,  729
 6858, 1733, 2023, 2704, 1358
 6859, 1931, 1791, 2587, 2844
 6860, 1479, 2767, 1857, 2599
 6861, 1481, 1930, 2023, 1485
 6862, 1481, 2587, 1791, 1845
 6863, 2023, 1358, 1932, 2869
 6864, 2023, 2869, 2704, 1358
 6865, 1207, 1247, 1359, 1329
 6866, 3018,  735,  734,  710
 6867, 1413, 1415, 1414, 1618
 6868, 1131, 1391, 1590, 1132
 6869, 3007,  730,  706,  729
 6870, 1178, 1540, 2243, 1295
 6871, 1290, 1295, 2243, 2936
 6872, 3046,  707,  708,  701
 6873, 2803,  693,  688,  691
 6874, 2136,  707,  709,  710
 6875, 1178, 1155, 1056, 1051
 6876, 1851, 2767, 2194, 1857
 6877, 1857, 2767, 2194, 2288
 6878, 2315, 2767, 1851, 1476
 6879, 1479, 1199, 2767, 1476
 6880, 2887, 2296, 1803, 1800
 6881, 2267,  735,  733,  728
 6882, 2767, 1199, 1857, 1851
 6883, 2676, 2573, 3033, 2535
 6884, 1658,  732,  737,  740
 6885, 1658,  732,  733,  735
 6886, 1849, 2578, 2324, 1083
 6887, 1815, 1561, 1560, 2550
 6888, 1138, 1727, 1141, 1621
 6889, 1621, 1622, 1527, 1197
 6890, 1068, 1196, 1620, 1197
 6891, 1059, 1715, 1568, 1807
 6892, 1815, 1949, 1948, 1946
 6893, 2996,  698,  689,  693
 6894, 2299,  597,  604,  598
 6895, 2360, 2468, 2474,  955
 6896, 1212, 1211, 1562, 1563
 6897, 2037, 1196, 1527, 1620
 6898, 3035,  698,  703,  704
 6899, 3034,  698,  704,  699
 6900, 1212, 1562, 1215, 1560
 6901, 2037, 1852, 2150, 1794
 6902, 3048,  703,  693,  705
 6903, 2996,  703,  698,  693
 6904, 2140, 2167, 2157,  713
 6905, 2961,  606,  612,  604
 6906, 2561, 2982, 1193, 1274
 6907, 3029,  873,  870,  869
 6908, 1849, 1479, 1478, 1199
 6909, 2015, 3029, 1890, 1858
 6910, 2500, 2360, 2468, 2474
 6911, 3011,  872,  873,  869
 6912, 2161,  874,  872,  869
 6913, 1084, 2982, 1082, 2244
 6914, 1084, 2982, 1081, 1082
 6915, 1084, 1192, 1851, 1199
 6916, 2684,  795,  868,  998
 6917, 1912, 2109, 2208, 2181
 6918, 3015,  995,  794,  797
 6919, 1613, 1614, 1320, 1327
 6920, 2291, 2012, 1709, 2926
 6921, 2684,  868,  719,  998
 6922, 2906, 2181, 2208, 2112
 6923, 2160,  874,  869,  871
 6924, 2014, 1908, 1904, 1939
 6925, 2360, 2474,   35,  955
 6926, 1324, 2901, 1614, 1942
 6927, 1507, 1644, 1320, 1508
 6928, 2869, 2879, 2866, 2880
 6929, 2811,  997,  794,  867
 6930, 2908, 1952, 2709, 1979
 6931, 2709,  999,  720, 3027
 6932, 3011,  872,  878,  873
 6933, 1613, 2997, 1616, 3028
 6934, 1952, 1953, 1912, 2181
 6935, 2906, 1614, 2415, 2944
 6936, 1994, 2064, 3049, 1997
 6937, 2948, 3021,  783,  787
 6938, 2166, 1377, 2378, 1088
 6939, 1890,  878,  887,  873
 6940, 2125,  887,  878,  889
 6941, 2854, 1827, 2147, 2655
 6942, 2811, 3015,  997, 1506
 6943, 1124, 1309, 1372, 1373
 6944, 1121, 1184, 1706, 1854
 6945, 1277, 1285, 1704, 2597
 6946, 2360, 2446,  974,   34
 6947, 2973,  878,  872,  877
 6948, 3015, 1506,  792,  997
 6949, 1566, 1334, 1564, 1567
 6950, 1198, 1193, 1277, 1892
 6951, 1641, 1770, 2776, 1767
 6952, 2877,  875,  876,  800
 6953, 1931, 2844, 2587, 1932
 6954, 2783, 1947,  324,  326
 6955, 1642, 1766, 1641, 1767
 6956, 1819, 1642, 1822, 2753
 6957, 2689, 2393, 1530, 2598
 6958, 1713, 1174, 1466, 1640
 6959, 1248,  202,  265,  204
 6960, 2863, 2776, 2742, 1712
 6961, 2863, 1297, 2776, 1712
 6962, 2965,  542, 2888,  546
 6963, 1738,  755,  921,  757
 6964, 3045,  755,  752,  751
 6965, 2353, 1874, 1877,  499
 6966, 1742,  755,  756,  919
 6967, 1741,  920,  921,  755
 6968, 2944,  996, 2153,  711
 6969,  692,  715,  712, 2726
 6970, 2899, 2157, 2901, 2726
 6971, 3032,  920,  924,  921
 6972, 2971,  920,  755,  919
 6973, 1090, 2651, 2881, 1092
 6974, 2726,  715,  712, 2157
 6975, 2727, 2145, 1615, 2726
 6976, 2253,   21,   22,  484
 6977, 2255,  749,  758,  934
 6978, 3050,  915, 1844,  913
 6979, 2726, 2902,  637,  633
 6980, 2726, 2902, 2899,  637
 6981, 2726, 2899,  712,  637
 6982, 2942,  835,  836,  857
 6983, 2352,  842,  841,  837
 6984, 2873, 2874, 2843, 1960
 6985, 2581,  962,  979,   32
 6986, 1271, 1273,  947,  952
 6987, 2843, 1090, 2881, 2874
 6988, 2538, 2467, 2951, 2952
 6989, 2843, 1843, 1844, 1845
 6990, 2471,  957,  942,  956
 6991, 2953,  813,  841,  814
 6992, 2365,  839,  844,  840
 6993, 2843, 1960, 1843, 1842
 6994, 2570,  946,  945,  958
 6995, 2367,  844,  838,  843
 6996, 2843, 1845, 1090, 1842
 6997, 3042,  961,  952,  960
 6998, 2843, 1845, 1844, 2881
 6999, 2783,  324, 2068,  305
 7000, 2393, 2312, 1530, 2598
 7001, 1539, 1848, 1538, 1274
 7002, 1538, 1111, 1274, 2211
 7003, 2916, 2222, 2884, 2224
 7004, 1967, 1006,  856,  855
 7005, 3042,  961,  960,  964
 7006, 2214, 2211, 2890, 2224
 7007, 2573,  863,  859,  973
 7008, 2211, 2890, 2224, 2916
 7009, 2916, 2569, 1102, 1538
 7010, 2916, 2569, 2890, 2895
 7011, 1580, 2464, 1583, 2683
 7012, 2697,  859,  851,  846
 7013, 2570,  944,  958,  945
 7014, 1296, 1431, 1466, 1532
 7015, 1777, 1361, 2875, 1346
 7016, 1839, 1393, 1361, 1442
 7017, 1948, 2783, 2552, 2635
 7018, 1393, 1361, 1381, 1380
 7019, 2645, 1380, 1395, 1583
 7020, 2393, 2691, 1772, 2312
 7021, 1578, 1271, 1583, 1581
 7022, 2943,  864,  863,  861
 7023, 1394, 2450, 1472, 2451
 7024, 1183, 1138, 1726, 1727
 7025, 2635,  326, 2636, 1947
 7026, 2783,  305, 2437,  321
 7027, 2693,  817,  818,  815
 7028, 1189, 1188, 1944, 1139
 7029, 2572, 2446,  964,  958
 7030, 2471, 2446,  958,  957
 7031, 2490, 1117,  177,  197
 7032, 2162,  812,  808,  807
 7033, 2730,  715, 2116,  692
 7034, 2730,  715, 2167, 2116
 7035, 2728, 2116, 2730, 2732
 7036, 2572,  960,  946,  958
 7037, 2730, 2845, 2804, 1830
 7038, 2675, 2491, 2467, 2942
 7039, 3024, 1962,  918,  949
 7040, 2949,  841,  839,  840
 7041, 2727, 1324, 1830, 2901
 7042, 1958,  915,  918,  916
 7043, 2739,  852,  853,  854
 7044, 1829, 2727, 2730, 2732
 7045, 1206, 1477, 1475, 1201
 7046, 2490, 2484, 2750,  200
 7047, 3051,  846,  852,  837
 7048, 2894,  837,  847,  842
 7049, 2490, 2475,  177, 1115
 7050,  957, 2446,  958,  974
 7051, 1964,  816,  812,  822
 7052, 1205, 1201, 2064, 1747
 7053, 1311, 2580, 2055, 2393
 7054, 1474, 1707, 1198, 1705
 7055, 3052,  962,  952,  961
 7056, 1476, 1192, 2315, 2745
 7057, 2931,  896,  893,  895
 7058, 2332, 1004, 1010,  824
 7059, 1539, 1192, 1204, 2745
 7060, 2689, 1530, 2393, 2391
 7061, 2508,  826,  820,  823
 7062, 1631, 1129, 1135, 1128
 7063, 1772, 2691, 2393, 2416
 7064, 1631, 1782, 1128, 1911
 7065, 1633, 2483, 2791, 1907
 7066, 2482, 1632, 2483, 1975
 7067, 2790, 2483, 2720, 2833
 7068, 1161, 1164, 2791, 1722
 7069, 2791, 1907, 2189, 1415
 7070, 2791, 1907, 2576, 2189
 7071, 2791, 1415, 2584, 1722
 7072, 2393, 2391, 1311, 2580
 7073, 2607,  811,  807,  809
 7074, 1688, 2012, 2885, 1709
 7075, 2478, 2012, 2926, 2885
 7076, 2174,  818,  821,  819
 7077, 2857, 2735, 2582, 2697
 7078, 2324, 2310, 2748, 2663
 7079, 2780, 2310, 2930, 2722
 7080, 2689, 2580, 2393, 2690
 7081, 2324, 2663, 2748, 2291
 7082, 2324, 2748, 2012, 2291
 7083, 2494,  814,  824,  822
 7084, 2748, 2291, 2926, 2012
 7085, 1980,  823,  820,  817
 7086, 2748, 2291, 2663, 2722
 7087, 2478, 2748, 2666, 2780
 7088, 1785, 1640, 2751, 1636
 7089, 2156,  806,  808,  816
 7090, 2666, 2013, 2889, 2310
 7091, 2666, 2674, 2673, 2724
 7092, 2666, 2889, 2674, 2724
 7093, 1100, 2707, 2898, 2449
 7094, 2449, 2898,  367, 2707
 7095, 2004, 1636, 1823, 1826
 7096, 3050, 3019,  906,  913
 7097,  891, 1089, 2827,  922
 7098, 1977, 1975, 1972, 1909
 7099, 1512, 1510, 1513, 2846
 7100, 3020,  906,  905,  904
 7101, 2707, 2453, 2448, 2431
 7102, 2707,  523, 2179, 2700
 7103, 2681, 2855,  850, 2357
 7104, 1660, 1937, 1714, 1177
 7105, 2493,  811,  814,  812
 7106, 2682,  938,  937,  939
 7107, 1780, 1784, 1783, 2476
 7108, 1966, 3016, 2606, 2162
 7109, 1780, 1909, 2007, 1782
 7110, 2004, 1783, 1636, 2585
 7111, 1785, 2004, 1783, 1636
 7112, 1783, 2585, 2476, 2376
 7113, 1637, 1301, 2710, 1526
 7114, 1637, 1639, 1825, 1636
 7115, 2493,  812,  814,  822
 7116, 2951, 2366,  833,  843
 7117, 2751, 1297, 2777, 2776
 7118, 1637, 2118, 1639, 1526
 7119, 1302, 1526, 1430, 1847
 7120, 1342,  825,  899,  826
 7121, 1300, 1641, 2751, 1638
 7122, 2357,  899,  850,  938
 7123, 2479,  180,   87, 2400
 7124, 1585, 2798, 1582, 1579
 7125, 1172, 1431, 1175, 1430
 7126, 2479,  169, 2744,   73
 7127, 1973, 1551, 2479, 2540
 7128, 2697,  859, 2573,  863
 7129, 2583,  840,  837,  841
 7130, 2471, 2570,  958, 2572
 7131, 2446, 2468,  957, 2471
 7132, 2894,  847,  837,  852
 7133, 1552, 1551,  182, 2479
 7134, 1296, 1532, 2863, 1299
 7135, 1267, 1126, 1234, 1270
 7136, 1779, 1640, 1176, 1343
 7137, 1155, 1610, 1290, 1617
 7138, 2358, 1249,  199, 1693
 7139, 1630, 1173, 1431, 1530
 7140, 1466, 1173, 1431, 1174
 7141, 1552,  171, 2472,  169
 7142, 2583,  840,  846,  837
 7143, 2751, 1640, 2777, 1297
 7144, 2435, 1915, 2052, 2069
 7145, 2444,  176, 2475, 1115
 7146, 1918, 1840, 1839, 1395
 7147, 2175,  902,  898,  896
 7148, 2932,  903,  900,  899
 7149, 2686,  849,  943,  937
 7150, 2435, 1916, 2216, 1847
 7151, 2435, 2799, 2052, 1915
 7152, 2507,  824,  823,  822
 7153, 2435, 1525, 2436, 2611
 7154, 1907, 2381, 2576, 2189
 7155, 1302, 2435, 1525, 1847
 7156, 1937, 1784, 1904, 2014
 7157, 1466, 1173, 1344, 1530
 7158, 1666, 1007,  903,  899
 7159, 2508,  821,  820,  826
 7160, 1783, 1636, 2585, 1825
 7161, 1783, 2376, 1784, 2124
 7162, 1819, 1637, 1642, 2753
 7163, 2494,  814, 1004,  824
 7164, 1639, 1783, 1825, 1636
 7165, 1418, 1226, 1421, 1435
 7166, 1176, 1639, 1636, 1783
 7167, 1785, 2004, 1636, 1823
 7168, 2357,  938, 1007,  899
 7169, 1347,  842,  848, 1004
 7170, 2681,  937,  850,  849
 7171, 1172, 1176, 1661, 1177
 7172, 2485, 2457,   38, 2943
 7173, 2500, 2485, 2359, 2474
 7174, 2463,   29,   30,  196
 7175, 2940,  827,  776,  773
 7176, 2755, 2485, 2359, 2500
 7177, 2359, 2155,   68,   73
 7178, 3044,  831,  989,  830
 7179, 2474, 2155,  166, 2359
 7180, 1219,  986,  984,  804
 7181,   37, 2474, 2359, 2485
 7182, 1053, 1630, 1173, 1431
 7183, 1296, 1175, 1302, 1301
 7184, 2503,  928,  929,  933
 7185, 2359,   68, 2155,  166
 7186, 2675, 1759, 2154, 2952
 7187, 2084, 2209, 2794, 2897
 7188, 2838,  984,  989,  832
 7189, 2491, 2675, 2836, 2942
 7190, 1238,  774,  984,  986
 7191, 2847,  774,  775,  776
 7192, 1799, 1667, 1416, 1280
 7193, 1323,  766,  774,  986
 7194, 1799, 1669, 1667, 1239
 7195, 3025,  929,  928,  927
 7196, 3039,  933,  929,  970
 7197, 1667, 1239, 1280, 1799
 7198, 2429, 2234, 2239, 2430
 7199, 2938,  989,  776,  830
 7200, 2240, 2239, 2429, 1986
 7201, 1539, 1984, 2429, 1983
 7202, 2429, 1985, 1983, 1986
 7203, 1850, 2986, 2965, 2713
 7204, 2311,  547, 1529,  551
 7205, 2240, 2239,  462,  461
 7206, 2239, 1993, 1985, 1986
 7207,  462, 2239, 2240, 1993
 7208, 2817,  809,  803,  777
 7209, 2817,  777,  810,  809
 7210, 2225,   14,   13, 1082
 7211,  395, 2947, 2201, 2794
 7212, 2225,   12, 2217, 1082
 7213, 2919, 3015,  797,  995
 7214, 2244,  478, 2099,  381
 7215, 2980,  794,  995,  867
 7216,  380,   12, 2217, 2225
 7217, 2871, 2866, 2870,  897
 7218, 2217, 2225,  381,  380
 7219, 2244, 2225,  381, 2217
 7220, 1376, 1961, 1378, 1377
 7221, 1025, 1024, 1231, 1029
 7222, 2877, 2879,  880,  875
 7223, 1918, 1840, 1957, 1843
 7224, 1777, 1361, 1443, 1672
 7225, 2695,  815,  798,  987
 7226, 2867,  875,  800,  799
 7227, 1468, 1195, 1727, 1792
 7228, 2794, 2662, 2718, 2516
 7229, 2663, 2327, 2324, 2749
 7230, 1278, 2362, 1282, 1284
 7231, 1278, 2362, 1109, 1283
 7232, 3010, 2160, 2161,  869
 7233, 2159,  867,  874,  868
 7234, 1727, 1141, 1469, 1183
 7235, 2980,  867,  876,  879
 7236, 1469, 1183, 1141, 1112
 7237, 2084, 2897, 2794, 2947
 7238, 1963, 1980, 2507, 2508
 7239, 2809, 2159, 2810, 1506
 7240, 1276, 1469, 1112, 1183
 7241, 1109, 1276, 1112, 1111
 7242, 2871,  992,  897,  889
 7243, 1195, 1285, 1109, 2440
 7244, 2721, 2310, 2311, 2749
 7245, 2881,  916,  911,  910
 7246, 1830, 2929, 2901, 1942
 7247, 1325, 1318, 1322, 1320
 7248, 1324, 2486, 1317, 2487
 7249, 2670, 2669, 2674, 2876
 7250, 2352,  842, 1004,  814
 7251, 1248, 1249,  203,  202
 7252, 1271,  952,  947,  951
 7253, 2487, 2727, 1324, 2486
 7254, 3019,  906,  907,  905
 7255, 1673,  813,  811,  810
 7256, 2493,  814,  811,  813
 7257, 1830, 2727, 2730, 1829
 7258, 2531, 3011, 3029, 3010
 7259, 1151, 1828, 1830, 1154
 7260, 1986, 2760, 2222, 2240
 7261, 2760, 2268, 1993, 1992
 7262, 2760, 1993, 2268,  456
 7263, 2240,  462, 1993,  456
 7264, 1577, 1686, 2558, 1576
 7265, 2706, 2948, 3016, 2918
 7266, 1951, 2719, 1685, 1683
 7267, 2115, 1680, 1682, 1463
 7268, 1456, 1864, 1462, 1459
 7269, 1871, 1863, 1808, 1866
 7270, 2652, 1732, 2651, 2703
 7271, 1863, 1808, 1949, 1871
 7272, 2160, 3010, 2527, 2059
 7273, 2680, 2719, 1868, 1867
 7274, 2794, 2718, 2947, 2516
 7275, 1863, 1462, 1458, 1864
 7276, 1683, 2719, 1685, 1684
 7277, 1593, 1594, 2581, 2564
 7278, 2507, 1980,  823, 2508
 7279, 2994, 1592, 2564, 2469
 7280, 2683,  937,  945,  939
 7281, 2794, 2718,  395, 2947
 7282, 2500, 2360, 2743, 1592
 7283, 1593, 1585, 2955, 3052
 7284, 2290, 2819,  482, 2097
 7285, 1157, 1426, 1593, 1594
 7286, 1898, 1678, 1835, 2087
 7287, 2932, 2175,  900,  903
 7288,  817, 2174,  818,  820
 7289, 2464,  945, 2683,  943
 7290, 2844, 3050, 1844, 3019
 7291, 1687, 2668, 1923, 1150
 7292, 2866,  893,  896,  894
 7293, 2668, 2666, 2667, 2478
 7294, 3050,  915,  913,  912
 7295, 1316, 2010, 1647, 1646
 7296, 1631, 1909, 1128, 1782
 7297, 1964,  812,  816,  808
 7298, 2682,  939,  940,  938
 7299, 1587, 1895, 1896, 1897
 7300, 2607,  811,  809,  810
 7301, 1890,  882, 1858, 3029
 7302, 1743, 2290, 2053, 2097
 7303, 1405, 1689, 1677, 1898
 7304, 2879,  894,  880,  875
 7305, 1473, 1708, 1478, 1707
 7306, 1119, 1677, 1854, 1676
 7307, 2236, 1714, 2248, 1936
 7308, 3019,  913,  907,  906
 7309, 2871,  906,  904,  897
 7310, 1662, 1026, 1169, 1016
 7311, 1574, 1817, 1816, 2270
 7312, 1574, 2971, 1816, 1740
 7313, 2874,  909,  911,  927
 7314, 2816,  777,  803,  804
 7315, 2881,  910,  911,  908
 7316,  912, 3050, 2176,  906
 7317, 1574, 1742, 1818, 2270
 7318, 1483, 1818, 1817, 1574
 7319, 2814,  810,  777,  832
 7320, 1232,  832,  777,  984
 7321, 1232,  777,  804,  984
 7322, 1028, 1412, 1486, 1265
 7323, 3016,  806, 2156, 2695
 7324, 1905, 1920, 1816, 1575
 7325, 2290,  482, 2053, 2097
 7326, 1740, 1168, 1905, 1816
 7327, 2090, 1956, 2972, 2939
 7328, 1673,  839,  813,  810
 7329, 1666, 1342, 2357,  899
 7330, 2160, 3010,  871,  869
 7331, 2870,  898,  906,  897
 7332, 1890,  888,  873,  887
 7333, 2778, 1599,  411, 2770
 7334, 2870,  902,  906,  898
 7335, 2778, 2329,  407,  402
 7336, 1170, 1921, 2090, 2344
 7337,  947, 1472, 1273, 2645
 7338, 1959,  918,  917,  916
 7339, 2355, 2995,  540,  574
 7340, 2512, 2061,  262,  201
 7341, 1959,  917,  911,  916
 7342, 2347, 2329, 1595, 2778
 7343, 2365,  839,  810,  838
 7344, 2778, 1599, 2612,  403
 7345, 2090, 2959, 2344, 1163
 7346, 2191, 2090, 2907, 2086
 7347, 2090, 1956, 2907, 2972
 7348, 1145, 2924, 1153, 1154
 7349, 1673, 2607,  810,  811
 7350, 1828, 2841, 2804, 2893
 7351, 1154, 1643, 1145, 2924
 7352, 1940, 1154, 2925, 2924
 7353, 1318, 1317, 1645, 1327
 7354, 2467,  834,  857,  855
 7355, 2770, 2778, 2772,  411
 7356, 2366,  833,  838,  810
 7357, 1154, 1943, 2925, 2804
 7358, 1828, 1154, 2893, 2804
 7359, 1733, 1358, 2704, 2694
 7360, 1733, 2704, 2023, 2127
 7361, 1292, 2519, 1752, 2822
 7362, 2954,  866,  930,  917
 7363, 2704, 2126, 2880, 2127
 7364, 1413, 1132, 1164, 1129
 7365, 2878, 2880, 2973,  877
 7366, 2938,  776,  989,  774
 7367, 1961, 1387, 1922, 1377
 7368, 1015, 1013, 1027, 1026
 7369, 2954, 1960, 1378,  917
 7370, 1957, 1958, 1962, 1378
 7371, 1611, 1760, 2425, 1618
 7372, 1728, 2402, 1729, 2945
 7373, 2894, 2875, 2736, 2583
 7374, 2932, 1341, 1342, 2332
 7375, 1921, 1906, 2503, 1920
 7376, 2610, 2816, 2608, 2605
 7377, 2741, 1610, 2177, 1611
 7378, 1802, 1114, 1884, 1801
 7379, 2175,  901,  902,  896
 7380, 1400, 1427, 1165, 1426
 7381, 2932,  826,  900,  895
 7382, 1072, 1270, 1074, 2108
 7383, 1286, 1180, 1290, 1295
 7384, 1225, 1421, 1226, 1630
 7385, 1581, 1578, 1580, 1583
 7386, 3038,  589, 1399,  584
 7387, 1796, 1612, 1617, 2248
 7388, 1215, 1211, 1214, 1562
 7389, 1222, 2259, 1214, 1211
 7390, 1601, 2258, 2264, 2634
 7391, 1601, 2771, 1608, 1603
 7392, 3050,  912,  913,  906
 7393, 2778, 2770, 2772, 2773
 7394, 3024,  948,  915,  914
 7395, 1270, 1805, 2715, 1652
 7396, 1601, 1603, 2634, 2771
 7397, 2466,  855,  856,  844
 7398, 1422, 1603, 1601, 1608
 7399, 2951,  843,  833,  834
 7400, 1116,   32,   31,  963
 7401, 1418, 1420, 1422, 1435
 7402, 1967,  855,   42, 1006
 7403, 1106, 1107, 1329, 1359
 7404, 1020, 1121, 1124, 1123
 7405, 1677, 1833, 1449, 1678
 7406, 1330, 2093, 2660, 2988
 7407, 2951,  855,  843,  834
 7408, 1330, 2988, 2660, 2661
 7409, 2952,  835,  857,  834
 7410, 2952,  834,  833,  835
 7411, 2166,  966,  965,  968
 7412, 1330, 1798, 2093, 1882
 7413, 1829, 2131, 3000, 2732
 7414, 1645, 1327, 1317, 1646
 7415, 3024,  948,  949,  915
 7416, 1317, 1327, 2487, 1646
 7417, 1318, 1645, 1326, 1327
 7418, 1941, 2276, 2208, 1320
 7419, 3033,  856,  860,  858
 7420, 2955,  961,  964,  979
 7421, 3033,  858,  844,  856
 7422, 2685,  850,  848,  849
 7423, 2739,  853,  852,  851
 7424, 2686,  854,  942,  943
 7425, 1829, 2727, 2143, 2486
 7426, 1208, 1309, 1353, 1528
 7427, 1251, 1410, 1146, 1255
 7428, 1352, 1360, 1354, 1359
 7429, 2471,  944,  957,  958
 7430, 2697,  853,  851,  864
 7431, 2460,  862,  956,  864
 7432, 2778,  407, 2329, 2204
 7433, 1908, 2149, 2188, 2189
 7434, 2037, 1223, 1620, 1527
 7435, 1556, 1200, 1402, 1705
 7436, 2037, 2038, 1353, 1794
 7437, 2685,  854,  849,  847
 7438, 1178, 1540, 1847, 2236
 7439, 2894,  854,  847,  852
 7440,  126, 2058, 2394, 2045
 7441, 2468,  956,  862,  955
 7442, 1208, 1196, 1704, 1285
 7443,  956, 2460,  864,  853
 7444, 1706, 1704, 1353, 1852
 7445, 2464,  944,  945,  943
 7446, 3051,  851,  852,  846
 7447, 2385,   73, 2479, 2744
 7448, 2637,  956,  942,  853
 7449, 2471,  957,  944,  942
 7450, 1353, 1794, 1352, 1706
 7451, 1196, 1704, 1285, 2440
 7452, 1528, 1704, 1196, 2504
 7453, 1541, 1461, 1302, 1916
 7454, 1482, 2022, 2854, 2652
 7455, 2022, 2827, 2652, 1089
 7456, 2022, 2652, 2827, 2655
 7457, 1228, 1816, 1484, 1575
 7458, 1482, 2022, 2652, 1480
 7459, 1212, 1561, 1517, 1521
 7460, 1089, 1575, 1091, 1090
 7461, 1347,  848, 1010, 1004
 7462, 2686,  943,  849,  854
 7463, 1575, 1484, 1089, 1816
 7464, 2394, 2058,  128,  115
 7465, 1816, 1575, 1091, 1089
 7466, 2005, 2394, 2395, 2172
 7467, 1265, 1090, 1484, 1480
 7468, 2359, 2720, 2551, 2455
 7469,  866, 1088,  950, 1378
 7470, 3052,  979,  962,  961
 7471, 2367,  855,  844,  843
 7472, 3033, 2466,  856,  844
 7473, 2681,  850,  937,  938
 7474, 2450, 2175,  903, 2176
 7475, 2359, 2720, 2455, 2755
 7476, 2720, 2473, 2455, 2833
 7477, 2720, 2455, 2473, 2551
 7478, 3024,  949,  918,  915
 7479, 2790, 2720, 2755, 2833
 7480, 2581,  962,  963,  953
 7481, 1088,  988,  954,  967
 7482, 1129, 1903, 1904, 1784
 7483, 2940, 1467,  768, 2847
 7484, 2366,  843,  838,  833
 7485, 2954,  866,  967,  968
 7486, 2477, 2107, 2062, 2769
 7487, 1378,  950,  866,  918
 7488, 2481, 2576, 2833, 2791
 7489, 1156, 1166, 1135, 1159
 7490, 2483, 2791, 1907, 2481
 7491, 1088,  954,  966,  967
 7492, 2394, 2395,  522,  127
 7493, 2500, 2360, 2474, 2472
 7494, 2720, 2743, 2500, 2155
 7495, 1195, 1196, 1285, 2440
 7496, 1242, 1238, 2847, 2938
 7497, 1195, 1196, 2440, 1068
 7498, 2378,  966,  954,  963
 7499, 2178,  835,  831,  829
 7500, 2313, 2477, 1269, 2793
 7501, 1372, 1706, 1184, 1555
 7502, 1342,  825,  850,  899
 7503, 1064, 1209, 1063, 1527
 7504, 1472,  991,  941,  914
 7505, 1059, 1568, 1572, 1807
 7506, 1195, 1727, 1792, 1141
 7507, 1792, 1209, 1468, 1195
 7508, 2176,  914,  902,  903
 7509, 2775, 1195, 1197, 1141
 7510, 1528, 1353, 1704, 2504
 7511, 1824, 2058,  128,  126
 7512, 1047, 1178, 1295, 1540
 7513, 1719, 1833, 1503, 1449
 7514, 1449, 1798, 1448, 1396
 7515, 1962,  949,  953,  950
 7516, 2645,  936,  947,  941
 7517, 1146, 2095, 2134, 1255
 7518, 1105, 1179, 1079, 1247
 7519, 2774,  936,  941,  940
 7520, 2156, 1357, 1934, 1964
 7521, 1019, 1036, 1038, 1037
 7522, 1105, 1247, 1103, 1179
 7523, 1237, 1241, 1448, 1330
 7524, 1007,  938, 1666,  940
 7525, 2541, 2045, 2404,  184
 7526, 1964, 2507, 1980,  823
 7527, 1347,  842,  847,  848
 7528, 1507, 1509, 1505, 1912
 7529, 1610, 2741, 1290, 2909
 7530, 1246, 1290, 1610, 2741
 7531, 2387,  936,  940,  939
 7532, 2457,   38, 2943,   39
 7533, 1604, 1815, 1561, 1560
 7534, 2461, 1306, 2391, 2465
 7535, 2855,  850, 1010,  848
 7536, 2968, 2133,  608, 1003
 7537, 2645,  951,  947,  936
 7538, 1340,  903, 2450, 2175
 7539, 1095, 1270, 1804, 1234
 7540, 1609, 1814, 2678, 1423
 7541, 2571,  960,  951,  946
 7542, 2574,  840,  844,  845
 7543, 2582,  846,  840,  845
 7544, 2571,  951,  936,  946
 7545, 1273,  952,  948,  947
 7546, 1540, 2243, 2236, 1178
 7547,  824, 2508, 2332, 2507
 7548, 1962,  949,  950,  918
 7549, 1221, 1950, 1749, 1563
 7550, 1950, 1540, 1295, 2221
 7551, 2968,  569, 2106, 1003
 7552, 2007, 1977, 1978, 2056
 7553, 1271,  960,  952,  951
 7554, 2978,  954,  950,  953
 7555, 2007, 1978, 1977, 1974
 7556, 2000, 2003, 2007, 2002
 7557, 2978,  954,  953,  963
 7558, 2670, 2013, 1708, 2674
 7559, 1472,  947,  948,  941
 7560, 1534, 2782,  666,  665
 7561, 1909, 1977, 2007, 1782
 7562, 1189, 1946, 1138, 1140
 7563, 1754, 2102,  500, 1875
 7564, 1653, 1860, 1859, 2040
 7565, 2280, 1520, 2701,  283
 7566, 1572, 1571, 1567, 1438
 7567, 2104, 1724, 1875,  279
 7568, 1182, 2895, 1102, 1101
 7569, 2533, 1954, 2186,  295
 7570, 1649, 1648, 2418, 2349
 7571, 2151, 2152,    4,    5
 7572, 2111, 1001,  722,  738
 7573, 2094, 2992,  575, 2092
 7574, 1724, 1875,  279,  287
 7575, 2590,  655, 2600, 2289
 7576, 3038, 2848, 1399,  589
 7577, 1758, 2887, 1803, 1800
 7578, 2991, 2251, 2295,  539
 7579, 1947, 1189, 1944, 2802
 7580,  577, 2091,  575, 2092
 7581, 2414, 2356,  211,  136
 7582, 2263, 2151, 2187,    5
 7583, 2648,  760, 2957, 2649
 7584, 2938, 1238,  989, 2838
 7585, 1102, 2895, 2916, 2898
 7586, 2883, 2065, 2635, 1663
 7587, 1874, 2104, 1875,  279
 7588, 2619, 2257, 2439,   46
 7589, 2021, 1788,  782,  784
 7590, 2656,  926, 2959,  925
 7591, 3025, 1575, 2873, 1091
 7592, 2957, 2649,  760,  772
 7593, 2957, 2649,  772,  828
 7594, 2621, 2921, 2958, 2120
 7595, 1751, 1875, 1754,  500
 7596, 2445, 2533, 1724, 2152
 7597, 1099, 1100, 1143, 2431
 7598, 2689, 2616, 2598, 2592
 7599, 1100, 2453, 2707, 2431
 7600, 2336, 1834, 2262,  586
 7601, 2345, 1163,  925,  921
 7602, 2261, 3008, 1834, 2262
 7603, 2983,  721, 2112,  723
 7604, 2827, 2369,  891,  884
 7605, 2738, 2598, 2691,  438
 7606, 2518,   52, 2759,   92
 7607, 2909, 2741, 2523, 1612
 7608, 1289, 1751, 1874, 1875
 7609, 2661, 2094, 2168, 2988
 7610, 2353,    1, 2754,    3
 7611, 1752,  103, 2716,   96
 7612, 2607,  811, 2493,  812
 7613, 2822, 1752, 2716,   96
 7614, 1143, 2431, 2286, 1142
 7615, 2725, 2968,  569, 2106
 7616, 2107, 2062, 2769, 2534
 7617, 2756, 2716, 1752,  103
 7618, 2756, 1752, 1751,  104
 7619, 2421, 2061,  261, 2032
 7620, 2345, 1738, 3043, 1533
 7621, 2414,  211, 1771,  213
 7622, 2417, 2414, 1820,  135
 7623, 1082,  648, 1955,   14
 7624, 2769, 2513, 2629,  273
 7625, 2414, 1820,  135,  209
 7626, 2904,   25,   24, 1055
 7627, 2860, 1787, 2018, 2977
 7628, 2261,  586, 2262, 1834
 7629, 1099, 1944, 1945, 1188
 7630, 2824, 3012, 2262, 2092
 7631, 1110, 2577, 2808, 2807
 7632, 1747, 2064, 1743, 2819
 7633, 2566, 2632, 2273, 2641
 7634, 1749, 1748, 2701, 2591
 7635, 2701, 1211, 2260, 1748
 7636, 2514,   92, 2519, 2759
 7637, 2042, 2643,  431,  434
 7638, 1677, 1833, 2823, 2824
 7639, 2102, 1724,  292,  287
 7640, 1715, 1603, 2934, 2341
 7641, 2067, 2040,  444,  450
 7642, 2812,  285, 2734,  293
 7643, 2754, 2152,    4, 2151
 7644,  385, 1035, 2853, 1034
 7645, 2187,    5, 2151,  532
 7646, 1240, 1333, 1330, 2661
 7647, 2358,  199, 1249,   28
 7648, 2534, 2629,  265,  273
 7649, 2650, 2972, 2256, 2371
 7650, 1248, 2534,  265, 1250
 7651, 2183,  265, 2629,  269
 7652, 1652, 2513, 1859, 1860
 7653, 2206, 2215, 1860, 2974
 7654, 2040,  445,  453, 1859
 7655, 1861, 2629, 2513,  269
 7656, 1859, 1860,  453, 2040
 7657, 1861,  453, 1860, 2256
 7658, 2629,  265, 2183, 2534
 7659, 2850, 2202, 2103,  484
 7660, 1611, 2439, 2438, 2379
 7661, 2619, 2146, 2945,  827
 7662, 2011, 2193, 1873, 2957
 7663, 2177, 2257, 2282, 2439
 7664, 2702, 2822, 2716,  102
 7665, 1331, 1333, 2956, 3005
 7666, 2442, 1860, 2974, 2256
 7667, 2673, 2968, 2725, 2106
 7668, 2702, 2716,  107,  102
 7669, 2017, 2658, 2523,   93
 7670, 2514,   94, 2822, 2519
 7671, 1243, 2940, 1467, 2649
 7672, 2982, 1081, 2217, 2308
 7673, 2090, 1921, 2026, 2501
 7674, 2477, 2769, 2062, 2350
 7675, 1194, 1191, 1200, 1198
 7676, 2754, 2104,  347, 2152
 7677, 3047, 3009,  593, 1624
 7678, 1396, 1397, 1399, 1881
 7679, 2620, 2402, 2945, 2146
 7680, 2031,   49, 1520, 2544
 7681, 2383, 2991, 2354, 2295
 7682, 2195, 2316, 2768,  483
 7683, 2905, 2815, 2765,  448
 7684, 1987,  455, 1991,  465
 7685, 2928, 1203,  705,  729
 7686, 1975, 1972, 1909, 1634
 7687, 1055, 2974, 2904,   25
 7688, 2652, 2369, 2827, 1891
 7689, 2621, 2958, 2904, 2120
 7690, 2778,  411, 1599,  403
 7691, 2137, 2120,   23,  680
 7692, 1384, 1906, 1388, 1389
 7693, 1288, 2282, 2177, 2257
 7694, 2364, 2358, 2363, 1389
 7695, 2026, 2371, 1804, 1956
 7696,  589, 1881, 2848, 1399
 7697, 2094, 2169,  532,  575
 7698, 2951,  833, 2366, 2952
 7699, 2832, 2183, 1249, 2534
 7700, 2011, 2956, 2957, 1873
 7701, 1729, 2957, 2956, 1873
 7702, 2011, 2956, 2950,  980
 7703, 2026, 1389, 1385, 2388
 7704, 3005, 2988, 2950,  581
 7705, 1721, 2584, 2491, 2368
 7706, 2587, 2588, 2871, 3020
 7707, 2606,  802, 2605,  807
 7708, 1376, 1390, 1377, 2378
 7709, 2811, 2980, 2530, 2161
 7710, 2027, 2655, 1858, 1891
 7711, 3016, 2606, 2162,  805
 7712, 2919,  798,  800,  797
 7713, 3014, 3021,  793, 3022
 7714, 3021, 3022,  783,  793
 7715, 1818, 2135, 2271, 1742
 7716, 2701, 2591,  282,  109
 7717,  607, 2133, 2781, 2130
 7718, 2339, 1663, 1600, 2246
 7719, 2184,  503, 2185,  508
 7720, 2264, 1599,  428,  410
 7721, 1748,  282, 2701, 2591
 7722, 2192, 2260, 2102,  281
 7723, 1748, 2260,  282,  108
 7724, 2734, 2192,  294,  285
 7725, 2560, 2687, 2562, 2077
 7726, 2000, 2005, 2476, 2585
 7727, 2948, 1717, 2021,  786
 7728, 1788,  779, 1813,  778
 7729, 2090, 2344, 2501, 1163
 7730, 2208, 1942, 2900, 2929
 7731, 1398, 3012, 1399,  588
 7732, 3005,  585, 2091,  581
 7733, 3038, 1399, 3012,  584
 7734,  762,  589, 1881, 2848
 7735, 2847,  776, 2938,  774
 7736, 2848, 1467,  762,  981
 7737, 1235, 1385, 2026, 1384
 7738, 2508,  826,  895,  821
 7739,  906, 3050, 2176, 2870
 7740, 1374, 1964, 2493, 2494
 7741, 2174,  821,  818,  820
 7742, 2332, 1010,  826,  824
 7743, 2000, 2002, 2007, 1974
 7744, 2985, 2251, 2987,  556
 7745, 2992, 2092,  576,  575
 7746, 2018, 3023,  781, 3022
 7747, 2969, 3026,  730,  709
 7748, 3038,  981, 3005, 2848
 7749, 2841, 2845, 2732, 1828
 7750, 1717, 2021,  784, 1788
 7751, 2282,   51, 2519,   94
 7752, 2256, 1861, 2281, 1805
 7753, 1288, 2257, 2518, 2282
 7754, 1248, 1249, 2534, 1250
 7755, 1749, 2591, 2702, 2716
 7756, 1651, 1649, 1648, 2418
 7757, 2513, 1861,  277, 1859
 7758, 2183, 2629, 2832, 2371
 7759, 2534,  265, 1250,  267
 7760, 2650, 2656, 2939,  972
 7761, 1861, 2513,  277,  269
 7762, 2629, 2513,  269,  273
 7763, 2873, 3025, 2874, 2840
 7764, 1594, 2564, 1116, 2581
 7765, 1280, 1281, 1279, 1397
 7766, 3020, 3019, 2587, 1408
 7767, 2501, 2502, 2503,  933
 7768, 2026, 2939, 2501, 1389
 7769, 2741, 2282, 2017, 2523
 7770, 2503, 1388, 3039, 2840
 7771, 1242, 2938, 2296, 1238
 7772, 1613, 2487, 1629, 3028
 7773, 2581, 1426, 3052, 1272
 7774, 2589, 1408, 2019, 3020
 7775, 1844, 1958, 1959,  916
 7776, 2871, 3020,  904,  906
 7777, 2587, 2870, 3019, 3020
 7778, 3050, 1844, 3019,  913
 7779, 1506,  795,  789,  792
 7780, 2160,  871,  868,  874
 7781,  790, 3023,  788,  793
 7782, 3015,  791,  797,  792
 7783, 3014, 3021,  785,  793
 7784,  785, 3014, 2164, 3021
 7785, 2161,  879,  872,  874
 7786, 2094,  532, 2168,  573
 7787, 2193,   52, 2518,   47
 7788, 2191, 2123, 1736, 2907
 7789, 1893, 2362, 2302, 2984
 7790, 1211, 2260, 2937, 2701
 7791, 2184, 1070,  351,  350
 7792, 2819, 2285,   20,   19
 7793, 2533, 2102, 1724,  292
 7794, 1189, 1138, 1188, 1139
 7795, 2593, 2349,  271,  274
 7796, 1459, 2057, 2546, 2779
 7797, 1750, 1292, 2519, 1752
 7798, 2376, 2124, 2447, 2014
 7799, 2769,  273, 2586, 2513
 7800,  136, 2356,  152, 1929
 7801, 2778, 2347,  402,  404
 7802, 2951, 2952,  834,  833
 7803, 2512, 1250, 1249,  203
 7804, 1387, 1390, 1388, 1377
 7805, 2951, 2367, 2366,  843
 7806, 2951, 2466, 2367,  855
 7807, 2471, 2572,  958, 2446
 7808, 1755,   56, 2375, 2377
 7809,  273, 2350,  267, 2769
 7810, 1437, 2073, 2074, 2647
 7811, 1872, 2102, 1875, 1724
 7812, 1735, 2622, 2095, 1739
 7813, 2206, 1860, 2215, 2040
 7814, 2206, 2256,   25, 2974
 7815,  454, 2040,  445,  453
 7816, 1652, 2513, 1861, 2629
 7817, 1294, 1750, 1752, 1291
 7818, 1166, 2483, 1634, 2743
 7819, 2514, 1752, 1751, 2759
 7820, 1330, 2093, 2988, 3005
 7821, 2151,    4, 2168,  532
 7822, 1111, 1284, 1274, 2211
 7823, 2621, 2974, 2904, 2958
 7824, 1893, 1067, 2440, 2597
 7825, 1736, 2921,  754, 2123
 7826, 2921, 2123,  746,  754
 7827, 2660, 2169, 2094, 2992
 7828, 2123, 2958,  746,  750
 7829, 1277, 1705, 1855, 2597
 7830, 1034, 2764, 2853,  436
 7831, 2622, 1739, 2920, 3041
 7832, 2832, 2183, 2534, 2629
 7833, 1271, 2572, 3042,  960
 7834, 1794, 2169, 2187, 2151
 7835, 1653, 2346, 2215, 2040
 7836, 2186, 1954,  349,  295
 7837, 1055, 2958, 2904, 2974
 7838, 1565, 2253, 2137, 2103
 7839, 1924, 2356, 1766, 1929
 7840, 1894, 2597, 1855, 2307
 7841, 2830, 1694, 2108, 1693
 7842, 2346, 2100,  488,  452
 7843, 2250, 2984, 1893, 1894
 7844, 2346, 2067,  451,  450
 7845, 1331, 1330, 3005, 1882
 7846, 2215, 2346, 2100,  488
 7847, 2647, 2763, 2815,  447
 7848, 1608, 2771, 1599, 2770
 7849, 2691, 2690, 2579,  165
 7850, 1599, 2771,  411, 2770
 7851, 2928, 3007, 1203,  729
 7852, 2136,  708, 3046,  707
 7853, 1902,  640, 2997, 3013
 7854, 2157, 2730,  715, 2167
 7855, 2165,  710, 2136, 3018
 7856, 2322, 2979,  621,  625
 7857, 3027,  720,  996,  645
 7858, 2116,  976, 2167,  695
 7859, 2167, 2805,  695,  714
 7860, 2015, 1858, 2027, 2851
 7861, 2929, 2167, 2140, 2141
 7862, 2961, 3002, 2488,  606
 7863, 2913,  619, 2846,  628
 7864, 2167, 2157,  713,  715
 7865,  156, 2356, 1924,  152
 7866, 1324, 1317, 1327, 2487
 7867, 2532, 2458, 1627, 1679
 7868, 2799, 2618, 2611, 2052
 7869, 1846, 2221, 2269, 2216
 7870, 2420,  220,  227,  221
 7871, 2115, 2049, 1915, 1917
 7872, 1310, 2773, 1312, 1595
 7873, 2103, 2100, 2818,  489
 7874, 2276, 1321, 2024, 1757
 7875, 2864, 2042, 2642, 2643
 7876, 2085, 2632, 2218,  429
 7877, 2765, 2763,  446,  448
 7878, 2821, 2075, 2691,  438
 7879, 2524, 2738, 1648, 2312
 7880, 1603, 2634, 2771, 2085
 7881, 2632,  427, 2771,  411
 7882, 1090, 2651, 1092, 1089
 7883, 1673,  810, 2365,  839
 7884, 1765, 1768, 1770, 1762
 7885, 2145,  632, 3028, 2903
 7886, 2345, 1741, 1163,  921
 7887, 1243, 1729, 1245, 2649
 7888, 2266,  733, 1658,  740
 7889, 2110, 2851, 2829,  738
 7890, 3045, 2135, 1742, 2271
 7891, 1811, 1279, 1812,  761
 7892, 1811,  590, 1397,  764
 7893, 2091,  581, 2988, 3005
 7894, 2136, 3026,  707, 3031
 7895, 2345, 2907,  754,  982
 7896, 1941, 1154, 1943, 2925
 7897, 1833, 1832, 3008, 1834
 7898, 1741, 1738,  755,  921
 7899, 2971,  923, 3032,  920
 7900, 1545, 1788, 1813, 1812
 7901, 2616,  247, 2592,  253
 7902, 2586, 2418, 2067,  440
 7903, 1651, 2067, 2586, 2418
 7904, 2313, 2657, 2738, 2349
 7905, 2402, 1245, 1729, 2945
 7906, 2691,  165, 2598, 2690
 7907, 2062, 2534, 1250,  267
 7908, 2580, 2391, 2054, 2615
 7909, 1679, 1626, 1493, 1495
 7910, 2061,  262, 2062, 1250
 7911, 1303, 1298, 1301, 1641
 7912, 2586, 2513,  273,  501
 7913, 1669, 2837, 1239, 2296
 7914, 1803, 2837, 2887, 2820
 7915, 2022, 1827, 2655, 2827
 7916, 2912, 1397, 1811,  590
 7917, 2281, 2371, 2629, 2183
 7918, 2604, 2606, 2021, 2605
 7919, 1979, 1506,  789, 3017
 7920, 1510, 3022, 2018, 1717
 7921, 2113, 1811, 1397,  764
 7922, 1965, 2606, 2605, 2162
 7923, 1548, 2948, 1717, 2021
 7924, 2827,  885, 2655, 1891
 7925, 1409,   20, 2557,  679
 7926,  679, 1409, 2220, 2557
 7927, 2137, 2103,   22,  519
 7928, 2850,  484, 2103,  489
 7929, 2103, 2202, 2253,  484
 7930, 2138, 3036,  678, 2556
 7931, 2819, 2285, 2557,   20
 7932, 1567, 1565, 1664, 2100
 7933, 2191, 1122, 1737, 2758
 7934, 1303, 1641, 1927, 1928
 7935, 2850, 1035, 2053,  485
 7936, 2315, 2229, 2195, 2194
 7937, 2069,  141, 2617, 2052
 7938, 2052,  145,  141, 2050
 7939, 1893, 1892, 2984, 2250
 7940, 2711, 2618, 1929,  143
 7941, 2617, 2050,  141,  150
 7942, 2242,   95, 2702,  105
 7943, 2413, 2051,  145,  151
 7944, 2069, 2611, 2603,  140
 7945, 2034, 2035, 2381, 2190
 7946, 1109, 2362, 1111, 1110
 7947, 2549, 2247, 2065, 2246
 7948, 1140, 1711, 2795, 2891
 7949, 2821, 2074, 2075,  442
 7950, 2416, 2612, 2821, 2698
 7951, 1282, 2241, 2362, 2984
 7952, 2619, 2146,  983, 2443
 7953, 2938,  776, 2146,  830
 7954, 1556, 1475, 1559, 1201
 7955, 1797, 1344, 1713, 1343
 7956, 2154,  829, 2379,   44
 7957, 2839, 3044,  831, 2838
 7958, 2356, 2417, 1929,  136
 7959, 1962,  949, 1272,  953
 7960, 1802, 2439, 2379, 2443
 7961, 2503, 3025,  929,  928
 7962, 1755,   56, 2377,   44
 7963, 2945, 2957,  828, 2649
 7964, 3024, 1273, 1962,  949
 7965, 2507,  823,  824, 2508
 7966, 3039, 2954, 2840, 1377
 7967, 2508,  823,  824,  826
 7968, 3033,  860, 2573, 2163
 7969, 2493, 2494,  822,  814
 7970, 1932, 2176, 2870, 2175
 7971, 2414,  213, 1771, 2044
 7972, 2821, 2691, 2698,  405
 7973, 1312, 2612, 2698, 2347
 7974, 2347, 2329,  402, 2272
 7975, 1949, 2334, 2333, 2792
 7976, 2579,  258, 2580, 2055
 7977, 1393, 1380, 1583, 1395
 7978, 2821, 2264,  400, 2612
 7979, 2505, 1532, 2863, 1531
 7980, 1604, 1423, 1596, 1871
 7981, 2264, 2612, 1599,  410
 7982, 1595, 2329, 2347, 2272
 7983, 2579,  259, 2690, 2580
 7984, 2875, 2949, 2352, 2953
 7985, 2466,  844, 2367,  855
 7986, 2154, 2379,  829, 2443
 7987, 1552, 2397,  170, 1551
 7988, 1781, 2752, 2543, 2392
 7989, 2398, 2404,  185,  184
 7990, 3024, 1273, 1840, 1958
 7991, 1243, 2940, 2847, 1467
 7992, 2366, 2367,  838,  843
 7993, 2368,   64, 2149,   62
 7994, 2994, 2469, 2955, 2446
 7995, 2375, 2491,   43,   64
 7996,  967, 1088,  968,  966
 7997, 2356, 1771,  234, 1763
 7998, 1395, 1271, 1273, 2645
 7999, 1651, 2418, 2073, 2067
 8000, 2738,  274, 2418, 2349
 8001, 2414,  211, 2356, 1771
 8002,  440, 2349, 2586, 2418
 8003, 1194, 1201, 1202, 1205
 8004, 2073, 2418, 2075,  439
 8005, 1432, 2524, 1648, 2312
 8006, 2418,  274, 2075,  439
 8007, 2756,  500, 1751, 1754
 8008, 2736, 2537, 2582, 2583
 8009, 1859,  444, 2067, 2040
 8010, 2586,  444, 1859,  501
 8011, 2524, 2075, 1648, 2738
 8012, 2346, 1653, 1651, 2040
 8013, 1859,  277, 2513,  501
 8014, 1804, 2715, 2371, 2832
 8015, 2586, 2067,  444,  440
 8016,  697,  698,  696, 2989
 8017, 2889, 2231, 3001, 2298
 8018, 2539, 2105, 3003, 3041
 8019, 2480, 2001, 2033, 2034
 8020, 1645, 1837, 1647, 1835
 8021, 3048, 2996, 2803,  693
 8022, 2088, 2254, 2996,  688
 8023, 2842, 2841, 2963, 2996
 8024, 1894, 2597, 2307, 2235
 8025, 2674, 2231, 2106, 3001
 8026, 2010, 2486, 2961, 2488
 8027, 2672, 2782, 2665, 2669
 8028, 2231, 2596, 2595,  558
 8029, 2356, 1763,  234,  231
 8030, 2736, 2735, 3051, 2582
 8031, 2393, 2579, 2690, 2580
 8032, 1520,  109, 2701,  283
 8033, 1650, 2647, 2815, 2346
 8034, 2216, 2603,  120,  106
 8035, 2835, 2627, 2631, 2029
 8036, 2812, 2937, 2339, 2246
 8037, 1418, 1225, 1226, 1382
 8038, 2469, 1746, 2564,   33
 8039, 3052, 2955,  961, 3042
 8040, 2360, 2469, 2446,   34
 8041, 2017, 2822,   95,   94
 8042, 2439, 2379, 2443,   45
 8043, 1294, 1293, 1291, 1749
 8044, 2822, 2716,  102,   96
 8045, 2875, 1346, 1347, 2894
 8046, 1339, 1381, 1340, 2855
 8047, 2604, 2605, 1162, 2816
 8048, 1953, 2182, 1912, 2181
 8049, 1339, 1341, 1361, 1345
 8050, 2859, 2114, 3013,  631
 8051, 1790, 1553, 2609, 2613
 8052, 2859, 2846,  630,  628
 8053, 1544, 1811, 2912, 1397
 8054, 1811, 1813,  530,  765
 8055,  626, 2998,  622,  985
 8056, 2977, 1787,  780,  627
 8057, 2946, 1787, 2977,  627
 8058, 2305, 2147, 2851, 2655
 8059, 2283, 2278, 2305, 2828
 8060, 1716, 1719, 1396, 1398
 8061, 1740, 1741, 1742, 2971
 8062, 2583, 2352, 2894, 2875
 8063, 1920, 2502, 2849, 3025
 8064, 2840, 1906, 2503, 1388
 8065, 2913, 2846, 2859,  628
 8066, 2208, 2141, 2929, 2140
 8067, 1398, 1399,  763,  588
 8068, 2940, 2146, 2938,  776
 8069,  768, 2940,  773, 2649
 8070, 2178, 2839,  831,  835
 8071,  836, 2377, 2154, 2942
 8072, 2178, 2839, 3044,  831
 8073, 2951, 2467,  855,  834
 8074, 2466, 2535,  856, 1967
 8075, 2951, 2367, 2538, 2366
 8076, 2954, 1088, 1378, 1377
 8077, 1960, 1378,  917, 1959
 8078, 1962, 2978, 1088,  950
 8079, 1415, 2368, 1939, 2189
 8080, 2840, 2503, 3025,  929
 8081, 2933, 1067, 1070, 1068
 8082, 2263, 2170, 1954,  502
 8083, 1651, 2067, 2073, 2647
 8084, 2104, 2152, 1724,  347
 8085, 2950, 2168,  533, 2988
 8086, 2094,  573, 2168, 2988
 8087, 1243, 2648, 2649, 1467
 8088, 1877, 2518,   52, 2759
 8089, 2353, 2104, 1874,  290
 8090, 2065,  278, 2246,  323
 8091, 2246, 2247,  323,  503
 8092, 1223, 1214, 2259, 2506
 8093, 2185, 2246,  503, 2247
 8094, 1600, 2339, 2246,  289
 8095,  288,  289,  278, 2246
 8096, 2738, 2657, 2312, 2592
 8097, 2747, 1600, 2339, 1663
 8098, 2812, 2734, 2937, 2185
 8099, 2192, 2937, 2260,  285
 8100, 3041, 2920,  745,  752
 8101, 2355,  538, 2142, 2169
 8102, 3008, 2995,  574,  579
 8103, 1719, 1834, 3008, 2262
 8104, 3043, 2345,  757, 1738
 8105, 2925, 1940, 1941, 1154
 8106, 2940, 2146,  827, 2945
 8107, 2113, 1397, 1881,  763
 8108, 1800, 3044, 2938, 2146
 8109, 2113, 1811,  761, 1279
 8110, 1533, 1252, 2095, 1257
 8111, 3004, 1467,  762, 1881
 8112, 3004, 1281, 1881,  766
 8113, 2847, 1467,  768, 3004
 8114, 2492, 3046, 2136, 3006
 8115, 2999, 2343, 2976,  701
 8116, 2736, 2739, 2740, 2894
 8117, 3048, 2805,  705,  693
 8118, 2129,  651, 2293,  664
 8119, 2590, 2292, 2294,  669
 8120,  693, 2805,  695, 2803
 8121, 2841, 3035, 3048, 2805
 8122, 1602, 2010, 1317, 2486
 8123, 3008, 2262,  576, 2092
 8124, 2727, 2145, 2486, 2487
 8125, 2993, 2967,  746,  747
 8126, 2298,  546, 2888,  559
 8127, 2306, 2383, 2295, 2307
 8128, 2295, 2307,  536, 2319
 8129, 2767, 2288, 2599, 2981
 8130, 2241, 2250,  978,    9
 8131, 1153, 3046, 2999, 3031
 8132, 2736, 3051, 2894, 2583
 8133, 2683,  943,  945,  937
 8134, 2774, 2645, 1472,  941
 8135, 3052,  961, 2955,  979
 8136, 2798, 2471, 2468, 2446
 8137, 2735, 2537, 2582, 2736
 8138, 1350, 2581, 1116, 2941
 8139, 1695, 2490, 2750,  197
 8140, 1245, 2940, 2945, 2146
 8141, 2378, 1088,  954,  966
 8142, 1351, 1698, 1425, 1695
 8143, 1800, 3044, 2146, 2443
 8144, 1349,   31, 1116, 1117
 8145, 2024, 1321, 1940, 2025
 8146, 2033, 2005, 2173, 2172
 8147, 2024, 2025, 2277, 2135
 8148, 1565, 2137, 2253, 2121
 8149, 2481, 2473, 2576, 2381
 8150, 2619,   47, 2257,   46
 8151, 2945, 2649,  828,  773
 8152, 3019,  905, 3020,  906
 8153, 2993, 2958, 2921, 2120
 8154, 3050, 1844,  915, 2451
 8155, 1408, 2019,  905,  910
 8156, 2176, 2451, 3050,  912
 8157, 2958, 2921,  746, 2993
 8158, 1665, 2623, 2119, 2105
 8159, 1846, 1847, 1540, 2221
 8160, 1750, 1877, 1751, 2759
 8161, 2830, 2183, 2388, 1249
 8162, 2933, 2207, 2238, 2302
 8163, 2891, 2636,  322,  328
 8164, 2533, 1954,  295,  346
 8165, 1571, 2787, 2818, 2765
 8166, 2661, 2151, 2168, 2169
 8167, 1617, 2248, 2909, 2243
 8168, 1790, 1374, 1965, 2609
 8169, 2174,  820, 2508,  821
 8170, 2693,  819,  799,  818
 8171, 1980, 2508,  820,  823
 8172, 1934, 2156, 1980, 2695
 8173, 3045, 2271, 1742,  756
 8174, 2135, 3018, 2267,  734
 8175, 1811, 1812,  765,  761
 8176, 3045, 1738,  752,  755
 8177, 2266, 2267, 1658,  733
 8178, 1504, 1508, 1507, 1498
 8179, 2283, 2828, 2277, 2278
 8180, 1813, 2912,  530, 2946
 8181, 2024, 2277, 2278, 2283
 8182, 1523, 2547, 2060, 2546
 8183, 2054, 2526, 2525, 2461
 8184, 2426, 2047,  208,  217
 8185,  164, 2671,  515,  239
 8186, 2993, 2958,  685,  746
 8187, 2071, 2603,  106,  139
 8188, 2802, 1710, 2700,  333
 8189,  343, 2180,  342,  345
 8190, 2287,  420,  414,  419
 8191, 2210,  340,  337,  339
 8192, 2287, 2454, 2180, 2452
 8193, 2431,  422,  418, 2433
 8194, 2454, 2287,  419,  422
 8195, 2430, 2223, 2217,  383
 8196, 2591, 2031, 1950, 2269
 8197, 2993, 2958,  683,  685
 8198, 2242, 2702,   95, 2822
 8199, 2702, 2822,  102,   95
 8200, 2269, 2031,  101,  109
 8201, 2822, 1752, 2936, 2716
 8202, 2089, 2088, 2989,  696
 8203, 1836, 1502, 1831, 1834
 8204, 2969, 3018,  735, 2267
 8205, 2165, 3006,  710,  744
 8206, 3018, 2267,  734,  735
 8207, 1654, 1510, 3022, 3023
 8208, 2417, 1929, 1822, 1766
 8209, 2717, 2746, 2522,  118
 8210, 2496, 2806,  119,  116
 8211, 2436, 2603,  140,  120
 8212, 2069, 2071,  139, 2603
 8213, 2216, 2603, 2436,  120
 8214, 3040, 2522, 2717, 2237
 8215, 2611,  121, 2497, 2436
 8216, 2002,  509, 2373,  186
 8217, 2434, 2401,  131,  125
 8218, 2269, 2216, 2702,  105
 8219, 1314, 2788, 1595, 1311
 8220, 1949, 2552, 2783, 2335
 8221, 2525,  520, 2054,  251
 8222, 2054, 2055, 2580,  256
 8223, 2580,  256, 2055,  258
 8224, 2567, 1696, 2750, 1795
 8225, 2615,  256, 2054, 2580
 8226, 2054, 2272,  257, 2626
 8227, 1294, 1748, 1291, 1752
 8228, 1929, 2051,  151,  143
 8229, 2040, 1653, 1651, 1859
 8230, 1520, 2544, 1516, 2031
 8231, 2339, 1520,  280, 2729
 8232, 1595, 2347, 2055, 2272
 8233, 1532, 2391, 2689, 2615
 8234, 1524, 2544, 1522,  298
 8235, 2329, 2204,  407,  401
 8236, 2024, 2271, 2283, 1818
 8237, 2197, 2199, 2631,  312
 8238, 2283, 1818, 2270, 1817
 8239, 2887, 2839, 2838, 3044
 8240, 2493,  813, 1673, 2953
 8241, 2609, 2608, 2817, 2607
 8242,  930, 2874, 2840, 1960
 8243, 1374, 2493, 1964, 2162
 8244, 2839, 2952, 2366,  833
 8245,  968, 1088, 2954, 1377
 8246, 1345, 2493, 2953, 2494
 8247, 1963, 1964, 2507, 1980
 8248, 1378, 1959, 1958,  918
 8249, 2479, 2744, 2400, 2385
 8250, 1795, 2421, 2032, 2061
 8251, 2830, 1249, 2358, 1693
 8252, 2717, 2242, 3040, 2216
 8253, 1563, 2031, 2701, 1520
 8254, 2350, 2657, 2349,  271
 8255, 2350, 2657,  271, 2062
 8256, 2221, 2216, 2242, 2702
 8257, 2062, 1250,  262,  267
 8258, 2420,  227, 2422, 2421
 8259, 2751, 1767, 1641, 2776
 8260, 2421, 2750,  261, 2061
 8261, 2216,  105, 2242, 2702
 8262, 2063,  236, 1764, 2462
 8263, 2107, 1250, 2062, 2534
 8264, 2361, 2543,  219, 2427
 8265, 2061, 2032, 2062,  264
 8266, 1292, 2017, 2282, 2519
 8267, 2133,  607,  609, 2130
 8268, 2277, 2135, 2267, 2271
 8269, 2022, 1484, 1089, 1480
 8270, 1812, 1788, 2856, 1545
 8271, 2147, 2851,  727,  737
 8272, 2135, 2271,  728, 2267
 8273, 2271, 1742,  756,  919
 8274, 1162,  802, 2605, 2021
 8275, 2829, 1658,  737, 2828
 8276, 2851, 2852, 1858,  736
 8277, 3023,  788,  793, 3014
 8278, 2140,  716, 2112,  717
 8279, 1513, 3023, 2114, 2846
 8280, 1900,  639,  642,  645
 8281, 1506, 3017,  788,  789
 8282, 1979,  642,  789,  644
 8283, 2437, 2279, 1600,  301
 8284, 1522,  298, 2544,   49
 8285, 1522, 1520, 2729,  284
 8286, 2437,  303, 2198, 2279
 8287, 2348, 2198, 2197, 2520
 8288, 1521, 2279, 1522, 2729
 8289, 2560, 2218, 2708, 2566
 8290, 2783, 2068, 2437,  305
 8291, 2635,  321, 1663,  320
 8292, 1711,  329, 2891, 2646
 8293, 1560, 2549, 1562, 1622
 8294,  358,  332, 2639, 1711
 8295, 2318, 2202, 1571, 2818
 8296, 2552, 1663, 2635, 2437
 8297, 1840, 1958, 1844, 2451
 8298, 1583, 1380, 2683, 2387
 8299, 1361, 1345, 1341, 1375
 8300, 1788, 1813,  779, 1787
 8301, 1657, 3022, 1717, 3021
 8302, 2587, 2871, 2870, 3020
 8303, 2816, 1219,  804,  759
 8304, 1248, 1249, 2183, 2534
 8305, 2108, 2512, 1249, 1693
 8306, 2017, 2282,   57, 2523
 8307, 3000, 2132, 2731, 2131
 8308, 2438,   54, 2282,   57
 8309, 2374,  118,   98, 2717
 8310, 2793, 2061, 2032, 2062
 8311, 2686,  854, 2739, 2637
 8312,  950, 1088,  954, 2978
 8313, 1248,  203, 1250,  266
 8314, 1580, 2739, 2464, 2740
 8315, 2121,  684, 2120,  680
 8316, 3036, 2556,  681,  678
 8317, 1914, 2809, 2284, 1655
 8318, 1736, 2921, 2920,  748
 8319, 2119, 2120, 2122, 2967
 8320, 2138, 3036, 2122,  682
 8321, 2993, 2967,  684, 2120
 8322, 2904, 2120, 2958,  683
 8323, 1588, 1886, 1896, 2072
 8324, 2769, 2534,  267,  273
 8325, 2936, 2242, 2017, 2822
 8326, 2477, 2350, 2062, 2657
 8327, 1214, 1562, 1211, 2937
 8328, 2130, 2731,  609, 2132
 8329, 2017, 2242,   95, 2822
 8330, 2512, 1250,  203,  262
 8331, 2657, 2062, 2032,  271
 8332, 2031, 2723,  101,  110
 8333, 1739, 3041,  752, 2920
 8334, 2277, 2266, 2267, 1658
 8335, 3043, 1533, 1736, 2345
 8336, 2165, 2135,  734, 3018
 8337, 2824, 3008, 2092, 2262
 8338, 2108, 2512, 1250, 1249
 8339, 1024, 1367, 1884, 1114
 8340, 2510, 2039, 2659, 2424
 8341, 2361,  221, 2484,  195
 8342, 1797, 2361, 2420, 2421
 8343, 2512, 2750, 2061,  201
 8344, 1938, 2424, 2423, 2425
 8345, 1583, 2683, 2570, 2387
 8346, 2017, 2242,   93,   95
 8347, 1796, 2248, 1935, 1612
 8348,  610, 2130, 2781, 2254
 8349, 2361,  219, 2543,  220
 8350, 1580, 2740, 2464, 2683
 8351, 2909, 2017, 2242, 2658
 8352, 1073, 1696, 2567, 1795
 8353, 2017, 2519, 2822,   94
 8354, 2094, 2992, 2169,  575
 8355, 3008,  576, 2992, 2092
 8356, 2355, 2169, 2992,  538
 8357, 3008,  574, 2992,  576
 8358, 2355,  538, 2992,  574
 8359, 2991, 2251,  539,  562
 8360, 2464, 2570, 2471, 1582
 8361, 1664, 2137, 2904, 2100
 8362, 2824, 3008, 2992, 2092
 8363, 2915, 1955, 1851, 2330
 8364, 1985, 1991,  458,  465
 8365, 1988, 2737,  467,  471
 8366, 2638, 1989, 2737,  467
 8367, 2868, 2097, 2096,  481
 8368, 1985,  463,  477,  464
 8369, 2344, 1163, 2502, 2501
 8370, 1880, 3004, 1281, 1881
 8371, 3038, 2093, 1399, 2848
 8372, 2972,  758, 2959,  934
 8373, 2873, 1091, 2874, 3025
 8374, 2642, 2643, 2042,  434
 8375, 2768, 2316, 2868,  480
 8376, 2195, 2768, 2297,  483
 8377, 2297, 1987,  465,  479
 8378, 2297,  465, 1985,  477
 8379, 2223, 2213,  378, 2214
 8380, 1100, 2449, 2760, 1992
 8381, 1985, 1987, 1991,  465
 8382, 2194, 2288, 2229,   17
 8383, 1993, 1985, 1991,  458
 8384,  969, 2363,  970, 1389
 8385, 1817, 1482, 1756, 1483
 8386, 2364, 2388, 2358, 1389
 8387, 2166,  965, 2363,  970
 8388, 2166, 1377, 1088,  968
 8389, 3039, 1388, 1389,  970
 8390, 2358, 2370, 1693,   29
 8391, 2675, 2677, 2467, 2491
 8392, 3052,  979, 2581,  962
 8393, 2361,  220, 2046, 2420
 8394, 2839, 2952,  833,  835
 8395, 1217, 1323, 2847, 1238
 8396, 2940, 2146,  776,  827
 8397, 3052, 3042,  961,  952
 8398, 2570,  958, 2572,  946
 8399, 1671, 2365, 1673, 2366
 8400, 1271, 3042,  952,  960
 8401, 2236, 2221, 1847, 2216
 8402, 2057, 2627,  160,  309
 8403, 2546, 2779,  149,  300
 8404, 1595, 2328, 2329, 2272
 8405, 1928, 1925, 1929, 2413
 8406, 2211, 2890, 2212, 2214
 8407, 2561, 2211, 2212, 2213
 8408, 2577,  357, 2808,  362
 8409, 2891, 2646,  329,  296
 8410, 2577, 2212, 2338,  363
 8411, 2639, 2890, 2882,  360
 8412, 2297, 2234,  477, 1985
 8413, 2254, 2130, 2731,  610
 8414, 2929, 2157, 2140, 2167
 8415, 1952, 1912, 2906, 2181
 8416, 2134, 2492, 2136, 3006
 8417, 2277, 2135, 3018, 2267
 8418, 2810, 1506, 1979, 3017
 8419, 2208, 2109, 2111, 2112
 8420, 2803, 2805,  695, 2116
 8421, 2116, 2803,  694,  695
 8422, 1224, 2609, 1674, 2813
 8423, 2187, 2169,  535,  532
 8424,  488, 2252,  519, 2100
 8425, 2533, 2734,  294,  295
 8426, 2191, 2758, 1737, 2123
 8427, 2184, 2646, 2247,  351
 8428, 1876, 1875, 1724, 1872
 8429, 2207,  352, 1070,  354
 8430, 2733, 2186, 1954,  349
 8431, 2733, 1954, 2170,  349
 8432, 1110, 2207, 2808, 1070
 8433, 2274, 3003, 2105, 3036
 8434, 2562, 2077, 2287, 2078
 8435, 1988, 2297,  479, 1987
 8436, 1220, 1218, 1219, 1162
 8437, 1673, 2814, 2366,  810
 8438, 2953, 2493,  814, 2494
 8439, 1289, 1207, 1876, 1329
 8440, 2536, 2466, 2574, 2367
 8441, 1961, 1377, 1960, 1378
 8442, 2873, 1960, 1842, 1922
 8443, 2739, 2637,  853, 2862
 8444, 2607, 2162,  807,  812
 8445, 2905,  489, 2100,  452
 8446, 1468, 1726, 1183, 1536
 8447, 1650, 2346, 2815, 2100
 8448, 2905,  489, 2818, 2100
 8449, 2647, 2346,  451,  452
 8450, 2533,  346, 2152, 1954
 8451, 2642, 2640,  432,  426
 8452, 2760, 1984, 1992, 1986
 8453, 2135, 2267,  728,  734
 8454, 1514, 2859, 1628, 2322
 8455, 1741, 1742,  755, 1738
 8456, 1498, 1508, 1499, 1512
 8457, 1092,  911, 2874,  909
 8458, 2022, 1089, 1810, 2827
 8459, 1496, 1508, 1501, 1499
 8460, 1741, 3032,  921,  920
 8461, 1163, 2501,  931,  932
 8462, 2266, 2271,  741,  646
 8463, 1816, 1920, 1740, 2849
 8464, 1091, 2849,  928, 3025
 8465, 2940, 2945,  773, 2649
 8466, 1478, 1198, 1707, 2578
 8467, 1500, 2912, 1499, 1501
 8468, 2518, 2282,   51, 2519
 8469, 2017,   94, 2282, 2519
 8470, 1386, 1349, 1425, 1390
 8471, 2660, 2093, 2092, 2094
 8472, 2629, 2832, 2371, 2715
 8473, 2379, 2443,   45,  829
 8474, 2510, 2438, 2425, 2523
 8475, 1611, 2425, 2438, 2523
 8476, 1116, 1350, 1351, 1115
 8477, 2073, 2067,  443,  451
 8478, 2074, 2821, 2075, 1434
 8479, 1268, 1338, 1337, 2793
 8480, 1607, 2708, 2560, 2864
 8481, 1294, 1754, 1748, 1752
 8482, 2280, 2339, 1520,  280
 8483, 1622, 2185, 2247, 2246
 8484, 2122, 2967, 2120,  684
 8485, 2966, 2920, 2967,  743
 8486, 2993,  684, 2967,  747
 8487, 1735, 1739, 3043, 2920
 8488, 2967, 2920,  748,  743
 8489, 3036, 3003,  742,  681
 8490, 2105, 3036, 3003, 2966
 8491, 2623, 2967, 2921, 2120
 8492, 2921, 2967,  748,  746
 8493, 2993, 2967, 2921,  746
 8494, 2993, 2120,  684,  683
 8495, 1972, 2384, 1971, 2427
 8496, 1908, 2382, 2188, 2149
 8497, 2380, 2036,   66,   79
 8498, 2386, 2380,   66, 2473
 8499, 2470, 2002,  528, 2404
 8500, 1636, 1826, 2585, 1825
 8501, 2437,  305, 2198,  303
 8502, 2630,  311, 2631,  310
 8503, 1846, 1916, 2216, 2071
 8504, 2800, 2796, 2079,  396
 8505,  310,  304, 2631, 2633
 8506, 2905, 2815,  452, 2100
 8507, 2452, 2431, 2287, 2454
 8508, 2698, 2393, 1312, 2055
 8509, 1291, 2221, 1749, 1295
 8510, 1223, 1214, 2506, 1620
 8511, 1608, 2085, 2771, 2632
 8512, 2258,  447, 2647,  442
 8513, 1648, 2075, 2073, 2418
 8514, 1109, 2440, 1283, 1110
 8515, 2258, 2647, 2763, 2074
 8516, 1970, 2469,  173, 1746
 8517, 1386, 1387, 1377, 1390
 8518, 1383, 1388, 1390, 2363
 8519, 2535, 2584, 2575,   41
 8520, 2857, 2697, 2163, 2573
 8521, 3033, 2163, 2574,  858
 8522, 2834, 2535, 2584, 2575
 8523, 2575,  498, 2584, 2576
 8524, 1760, 2377, 2154, 2379
 8525, 1728, 1288, 2177, 2257
 8526, 2677, 2584, 2467, 2491
 8527, 1884, 2402, 2177, 1802
 8528, 1967, 2584, 1006,   42
 8529, 2691,  438, 2598,  165
 8530, 1530, 2312, 2592, 2598
 8531, 2616,  247, 2598, 2592
 8532, 2579, 2580,  258,  259
 8533, 2615,  259, 2690,  252
 8534, 2326, 2601,  671,  676
 8535, 1153, 2999, 3035, 3031
 8536, 2119, 2120, 2137, 2121
 8537, 1185, 1665, 1557, 1411
 8538, 2989,  697, 2325,  675
 8539, 2539, 3041, 3003, 3006
 8540, 2860, 1787, 2946, 1813
 8541, 2912, 1883,  582, 2914
 8542, 1512, 1499, 1549, 1718
 8543, 2912,  590, 1811,  530
 8544, 2946, 2977, 2914,  627
 8545, 2946,  779, 1787,  627
 8546, 2914,  627, 2977,  629
 8547, 2927,  731, 2111, 1001
 8548, 2018,  780, 2977, 1787
 8549, 1894, 2295, 2319, 2307
 8550, 2128, 2249,  596,  595
 8551, 2782,  993, 2089, 1009
 8552, 2181, 2059, 2709, 2528
 8553, 2133, 2106, 2673, 2674
 8554, 2674, 2106, 2231, 2128
 8555, 2317, 2745, 2097, 2096
 8556, 2229,   17, 2288,  654
 8557, 2987, 2251, 2990,  562
 8558, 1623, 1625,  531,  594
 8559, 2590, 2325,  671,  669
 8560, 3003, 2966,  742, 3041
 8561, 2302, 2807,  353,  374
 8562, 1716, 1500, 1719, 2912
 8563, 2309, 1529, 3001,  565
 8564, 1623, 1625, 2990,  541
 8565, 2259, 2102, 2533, 2734
 8566, 2245, 2228,  375,  525
 8567, 2773, 2678, 2770, 2772
 8568, 2808,  352, 2207, 2807
 8569, 2265, 2138, 1919, 2253
 8570, 2184, 2186, 2733,  508
 8571, 2315, 2229, 2232, 2316
 8572, 2694, 3016, 2156, 2695
 8573, 2867,  798,  799,  800
 8574, 1357, 3016, 2162, 2156
 8575, 3050, 2176, 2844, 2451
 8576, 1339, 1010, 2332, 1004
 8577, 2877,  876, 2878, 2980
 8578, 2704, 2877, 2917, 2158
 8579, 2164,  785, 2918,  796
 8580, 2752, 2003, 1785, 1823
 8581, 2074, 1434, 1601, 2264
 8582, 2936, 2702, 2242, 2822
 8583, 2680, 2411, 2630,  313
 8584, 1651, 1437, 1650, 2647
 8585, 2769, 2586,  276, 2349
 8586, 2769,  276, 2350, 2349
 8587, 2593,  274, 2738, 2349
 8588, 1337, 2657, 2568, 2592
 8589, 1322, 1643, 1321, 1255
 8590, 1712, 2826, 2624, 2428
 8591, 2428, 2624, 2505,  228
 8592, 2646, 2247,  351,  296
 8593, 2646, 1070,  352,  351
 8594, 1336, 1379, 1807, 1436
 8595, 2184, 1070, 2646,  351
 8596, 2569, 2338, 2639, 1711
 8597, 1197, 2184, 2646, 2247
 8598, 2773, 2204, 2678, 2772
 8599, 2891, 2247, 2646,  296
 8600, 1600, 1663,  301,  278
 8601, 1521, 2339, 2729, 1520
 8602, 1600, 2246, 1663,  278
 8603, 2279,  297, 1600,  301
 8604, 1600,  297, 2729,  280
 8605, 2339, 1600, 2729,  280
 8606, 2246,  289,  278, 1600
 8607, 2747, 1600, 2437, 2729
 8608, 1813,  765, 1812,  778
 8609, 1788, 1813, 1812,  778
 8610, 2460, 2468,  956,  862
 8611, 1351, 1116, 1117, 1349
 8612, 2564,  979, 3052, 2955
 8613, 1386, 1961, 1377, 1387
 8614, 3024,  948, 1273,  949
 8615, 2955, 3042, 2446,  964
 8616, 3042, 2572,  964,  960
 8617, 2370,   29, 2363,  965
 8618, 1717, 3021, 3022,  783
 8619, 2948,  783, 1717,  786
 8620, 1788, 1787,  779,  784
 8621, 2856,  782, 1788,  778
 8622, 2856, 2021, 1788,  782
 8623, 2738,  438, 2075,  274
 8624, 1523, 1916, 1518, 2071
 8625, 2509, 2444, 2384, 2475
 8626, 2593, 2592,  247,  270
 8627, 2616,  260, 2598,  247
 8628, 2312, 2598, 2738, 2592
 8629, 2593, 2598,  247, 2592
 8630, 2598,  260, 2690,  165
 8631, 1861, 2256,  268,  453
 8632, 2215, 2346,  450, 2040
 8633, 2801, 2215, 2346, 2100
 8634, 2206,   25,   24, 2904
 8635, 2252, 2215, 2100,  488
 8636, 2801, 2904, 2215, 2100
 8637, 2206, 2904,  491, 2215
 8638, 1720, 1723, 2675, 1721
 8639, 2439, 2282,   54,   51
 8640, 1011, 1533, 1256, 1170
 8641, 1425, 2358, 2370, 1693
 8642, 1692, 2825, 1895, 1897
 8643, 2501, 1389,  933, 2503
 8644, 2193, 2957,   48,  828
 8645, 3003,  744, 3041,  742
 8646, 2966, 2920,  743,  745
 8647, 1707, 1885, 1886, 2072
 8648, 3036, 2966, 2122,  682
 8649, 2966,  745, 3041, 2920
 8650, 2622, 2966, 3041, 2920
 8651, 2165, 2135, 3018, 2136
 8652, 1619, 1772, 1630, 1530
 8653, 1696, 2512, 2750, 2061
 8654, 2491, 2836, 2423, 2377
 8655, 2581, 2978,  953,  963
 8656, 1937, 1936, 2117, 2014
 8657, 2750, 2061,  201,  261
 8658, 2512, 1693,  196,  203
 8659, 1351, 2370, 1425, 1349
 8660, 1290, 2909, 1292, 2936
 8661, 2142,  535, 2169,  538
 8662, 1814, 2678, 2773, 2203
 8663, 1620, 2733, 2184, 2186
 8664, 2274, 1998, 1997, 2556
 8665, 1533, 1818, 1740, 1742
 8666, 2263, 1954, 2152,  346
 8667, 2238,  355, 2219,    8
 8668,    7,  355, 2219, 1067
 8669, 2556, 2138, 2557,  678
 8670, 2226, 2888, 2303,  544
 8671, 2556, 2557,  658,  678
 8672, 2557, 2285,  658,   20
 8673, 2300,  673, 2556,  658
 8674, 1409, 2253,  490,   21
 8675, 1997, 2602, 2300, 2285
 8676, 2793, 2477, 2062, 2657
 8677, 2375, 2491, 2377,   43
 8678, 2424, 2375, 2425,   55
 8679, 2423, 2377, 1755, 2375
 8680, 2677, 2535, 2466, 1967
 8681, 1979, 1952, 2709, 2528
 8682, 2378, 2978, 2581,  963
 8683, 2490, 1695, 1117,  197
 8684, 1722, 2676, 2584, 2834
 8685, 2861, 2697, 2573, 2943
 8686, 3044, 2146, 2443,  830
 8687, 2839, 2952, 2820, 2366
 8688, 2296, 2938, 3044, 2838
 8689, 2940,  773, 2945,  827
 8690, 2443, 2619, 2620, 2439
 8691, 2146,  983, 2443,  830
 8692, 1330, 3005, 1882, 2093
 8693, 2281,  269, 2183, 2629
 8694, 1906, 2840, 2503, 3025
 8695, 2442, 1860, 2215, 2974
 8696, 2152, 1724,  347,  292
 8697, 3044, 2838,  989,  831
 8698, 2178, 2443,  829,  830
 8699, 2938, 3044, 2838,  989
 8700, 2178, 3044, 2154, 2443
 8701, 2938, 3044,  830, 2146
 8702, 2773, 2770, 2678, 1597
 8703,   44,  836, 2377, 2154
 8704, 2820, 2814, 2839, 2366
 8705, 1969, 1970, 1745, 1746
 8706, 2545, 2806, 1348,  116
 8707, 2521, 3040, 1936, 2522
 8708, 2004, 2403, 2045, 1826
 8709, 2496, 1825, 2118, 1348
 8710, 1782, 2056, 2543, 2427
 8711, 2711, 1929, 2401,  132
 8712, 1821, 2434, 2401,  131
 8713, 1325, 1942, 1320, 1941
 8714, 2114, 2846, 3023,  630
 8715, 2997, 3013,  640,  631
 8716, 1514, 2859, 2913, 2846
 8717, 1513, 2859, 2846, 2114
 8718, 1901, 2114, 3017,  641
 8719, 2145, 3030, 3028,  624
 8720, 1232,  984, 2838,  832
 8721, 2607,  812, 2493, 2162
 8722, 2365, 2366,  838,  810
 8723, 1547, 1966, 1668, 1548
 8724, 2881,  916, 1844, 1959
 8725, 2814,  833, 2366,  810
 8726, 2839, 2814,  833, 2366
 8727, 2620, 2443, 1800, 2146
 8728, 1232, 2814,  832, 2838
 8729, 2620, 2257, 2619, 2945
 8730, 2257,   51, 2439,   46
 8731, 2257, 2439,   51, 2282
 8732, 2439,   45, 2443,  983
 8733, 2619,   46, 2439,  983
 8734, 2438,   45, 2439,   54
 8735, 1557, 2858, 2119, 1998
 8736, 2142, 2187, 2169,  535
 8737, 1611, 2741, 1612, 2523
 8738,    7, 2219, 2235, 2230
 8739, 2230, 2187, 2142,    6
 8740, 2187,  532, 2151, 2169
 8741, 2252, 2137, 2904,   23
 8742, 2252, 2137,  519, 2103
 8743, 2137,  680, 2121, 2120
 8744, 2120,   23, 2904, 2137
 8745,   24, 2958,  683, 2904
 8746, 2773, 2678, 2204, 2203
 8747,   25, 2974, 2904, 2206
 8748, 2252, 2215,  488,  491
 8749,  683, 2120,   23, 2904
 8750, 2437, 2279,  301,  303
 8751, 2279, 1600,  297, 2729
 8752, 1524,  299, 2198, 2520
 8753, 1868, 1865, 1867, 2719
 8754, 2083,  387, 2028, 2029
 8755, 1869, 2437, 2198, 2279
 8756, 2196, 2068, 2199, 2198
 8757, 2197, 2198,  521, 2520
 8758, 2197,  521, 2198,  302
 8759, 2794,  317,  318,  319
 8760,  319, 2718,  514,  395
 8761, 2081, 2699, 2079, 2082
 8762, 2515,  315, 2633,  304
 8763, 1360, 1873, 1333, 2754
 8764, 1858, 2655,  883, 1891
 8765, 2091, 2094, 2988,  573
 8766, 2271, 2270,  919,  646
 8767, 3009, 1624, 1832,  599
 8768, 2066, 3003,  681,  702
 8769, 2964,  547, 2965,  546
 8770, 2999,  704, 3034, 3035
 8771, 2138,  682, 2122,  677
 8772, 2689, 2616, 2351, 2505
 8773, 1466, 1531, 1344, 1713
 8774, 2689, 2598, 2616, 2690
 8775, 2351,  254, 2616,  253
 8776, 2615,  252, 2616,  254
 8777, 2616, 2690,  260,  252
 8778, 2616, 2598,  260, 2690
 8779, 1055, 2256, 2974,   25
 8780, 2255, 2123, 2757, 2907
 8781, 1055, 2256,   25,    2
 8782, 2255, 2907,  758,  750
 8783, 2123, 2255,  750, 2907
 8784, 1055, 2974, 2123, 2958
 8785, 2972,    2, 2255,  934
 8786, 1055, 2255,    2,  749
 8787, 2972,  934, 2255,  758
 8788,  934, 2650, 2972,    2
 8789, 2773, 2329, 2419, 2204
 8790, 1180, 1246, 1292, 1290
 8791, 2419, 2329, 2205, 2204
 8792, 1870, 2437, 2552, 2335
 8793, 1524, 2279, 2198,  303
 8794, 1522,  297, 2279,  298
 8795, 1522,  284, 2729,  297
 8796, 2068,  302, 2198,  305
 8797, 2280, 2339, 2937, 2701
 8798, 2198, 2520,  299,  521
 8799, 3011, 1890, 3029,  873
 8800, 1890, 1891, 1858,  888
 8801, 2159, 2160, 2161, 2530
 8802, 2878,  876,  880,  879
 8803, 2506, 2533, 2152, 1954
 8804, 1566, 2009, 2801, 1664
 8805, 2150, 1794, 2187, 2151
 8806, 2860, 2913, 1501, 2914
 8807, 2533, 2152,  292, 1724
 8808, 2104, 1724,  279,  291
 8809, 1872, 1754, 1875, 2102
 8810, 2754, 2168,    4,  533
 8811, 2150, 2263, 2152, 2151
 8812, 1981, 1991, 1985, 1987
 8813, 2195, 2099,  493,  477
 8814, 2076, 2304,  542,  978
 8815, 2224, 2884,  356,  371
 8816, 2223,  382, 2308, 2217
 8817, 2739, 2697,  851, 3051
 8818, 1376, 2378, 1088, 2978
 8819, 1349,   30, 2370,  971
 8820, 2166,  965, 1390, 2363
 8821, 1938, 1612, 2659, 2523
 8822, 1696, 1695, 2750, 2512
 8823, 1665, 1257, 1122, 2623
 8824, 2675, 2942, 2467, 2952
 8825, 2467, 2952, 2942,  857
 8826, 2467,  857, 2942,   43
 8827, 2942, 2491,   43, 2377
 8828, 2942,  857, 2952,  835
 8829, 2154, 2942, 2952,  835
 8830, 2684,  868,  871,  719
 8831, 1506, 3017, 3014,  788
 8832, 1513, 2114, 2405, 2859
 8833, 1445, 2609, 2813, 1674
 8834, 2562, 2287, 2077,  415
 8835, 2515, 2068,  306, 2199
 8836, 1867, 2631, 2199, 2633
 8837, 2800,  395,  399,  398
 8838, 2201,  413,  399,  394
 8839, 1218, 1219, 1162, 1279
 8840, 1232,  984, 1238, 2838
 8841, 2856,  761, 1279,  770
 8842,  769, 2113, 1279, 1219
 8843, 1238, 2838,  984,  989
 8844, 1232, 2814,  777,  832
 8845, 2739, 3051,  851,  852
 8846, 1768, 1682, 2458, 2532
 8847, 2190,   76, 2447,   77
 8848, 1755, 2375,   56,   55
 8849, 2834, 2575, 2573, 2535
 8850, 2424,   58, 2149,   64
 8851, 2117, 2030, 2545, 1899
 8852, 2735, 2739, 2697, 2862
 8853, 2172, 2390,   83,   74
 8854, 1514, 2322, 1501, 2913
 8855, 1497, 1549, 1498, 1499
 8856, 2095, 2135, 1742, 1739
 8857, 1398,  588, 2262, 3012
 8858, 2912, 2914,  582,  591
 8859, 1716, 2912, 1398, 1397
 8860, 2262, 2092,  583,  576
 8861, 2262,  583, 3012,  588
 8862, 2336, 2912,  582,  590
 8863, 1976, 1974, 1978, 1551
 8864, 2041, 2447, 1899,  114
 8865, 1525, 2611, 2497, 2436
 8866, 2392, 2047, 2543,  216
 8867, 2510, 2039, 2424,   55
 8868, 2447, 2389, 2390,   82
 8869, 2041, 1348,  117,  114
 8870, 2171, 2173, 2395, 2172
 8871, 2389, 2390,   82,   83
 8872, 2047, 2543, 2752, 2392
 8873, 2417, 1821, 1822,  134
 8874, 1481, 1090, 1480, 2651
 8875, 1239, 1232, 1238, 2838
 8876, 1219, 1238,  984,  986
 8877, 2817, 2607, 2608,  809
 8878, 1224, 2816, 1219, 1232
 8879, 2607, 2609, 1965, 2493
 8880, 2954, 1378, 1088,  866
 8881, 2464, 2683,  945, 2570
 8882, 1974, 2372, 2373, 1978
 8883, 2399, 2035, 2390,   74
 8884, 2470, 2372,  181,  186
 8885, 2007, 2373, 2056, 1978
 8886, 2172,   74, 2399, 2390
 8887, 2543, 2427, 2056,  193
 8888, 2392, 2543, 2056,  216
 8889, 2392, 2056, 2373,  194
 8890, 1582, 2798, 2446, 2471
 8891, 2535, 2584,   41, 1006
 8892, 2739, 3051,  852, 2894
 8893, 1972, 1971, 2384, 1745
 8894, 1831, 1501, 1628, 2322
 8895, 1755, 2438, 2425,   53
 8896, 1755, 2379,   44, 2377
 8897, 2015, 2527, 2852, 2182
 8898, 2913, 2859, 2322,  628
 8899, 2114, 3013,  631,  643
 8900, 2859, 2846, 2114,  630
 8901, 1913, 2027, 2305, 2182
 8902, 2015, 2851, 2852, 1858
 8903, 2114,  630, 3023,  790
 8904, 2487, 2145, 3030, 3028
 8905, 2913, 2322, 1883,  620
 8906, 2145, 2488,  613, 2144
 8907, 2728, 2732,  616,  690
 8908, 2804, 2928, 2805, 2167
 8909, 2728,  615,  617,  618
 8910, 2143,  615, 2144,  614
 8911, 2116,  695, 2167, 2805
 8912, 2241, 2250,    9, 2984
 8913, 2762, 1083, 2076, 1081
 8914, 2736, 2739, 2894, 3051
 8915, 2302, 2207,  353, 2807
 8916, 1111, 2569, 2212, 2211
 8917, 2306, 1856, 2355, 2307
 8918, 2986,  548,  550,   13
 8919, 2963, 3035, 2999, 3034
 8920, 2989,  675, 2325, 2331
 8921, 1688, 1996, 1709, 2885
 8922, 2314, 2309,  660, 2930
 8923, 1473, 1688, 1709, 2012
 8924, 2731, 2254, 2732, 2131
 8925, 2130, 2133, 2132,  609
 8926, 2968, 2106, 2133, 1003
 8927, 2314,  567, 2725,  571
 8928, 2133, 2132,  609,  596
 8929, 2128,  596, 2133, 1003
 8930, 2360, 2472,  492,   35
 8931, 2455,  496, 2456, 2473
 8932, 2857, 2537, 2582, 2735
 8933, 2574, 2466,  844, 2367
 8934, 2456, 2833, 2473, 2576
 8935, 2791, 2575, 2576, 2833
 8936, 2637, 2471,  956, 2468
 8937, 1049, 1048, 1269, 1268
 8938, 1967, 2584, 2677, 2535
 8939, 2576,   61, 2575,  498
 8940, 2485, 2943,   38,  865
 8941, 2834, 2499, 2676, 2861
 8942, 2196, 2631, 2197, 2199
 8943, 1182, 2569, 1711, 1112
 8944, 2680, 1867, 1868, 2718
 8945, 2772, 2204,  406,  407
 8946, 2679,  406, 2204,  397
 8947, 1462, 1864, 2835, 1459
 8948, 1203, 3026, 3031,  706
 8949, 2999, 3031,  701,  704
 8950, 1861, 2629, 1805, 1652
 8951, 2994, 1593, 2955, 2564
 8952, 3048,  705, 3035,  703
 8953, 2999, 3034,  704,  699
 8954, 3037, 3047, 3009,  600
 8955, 2343, 2326,  700,  676
 8956, 2859, 2998,  622, 2997
 8957, 3017, 3014, 1654, 2809
 8958, 2233, 1851, 2195, 2099
 8959, 1981, 1987, 2886, 1991
 8960, 2245, 2241,  525,    9
 8961, 2982, 2217, 2223, 2308
 8962, 2721, 2311, 2309,  553
 8963, 1242, 1245, 2938, 2940
 8964, 1545, 1162, 1546, 2021
 8965, 1544, 1279, 1811, 1397
 8966, 1816, 1089, 1091, 2849
 8967, 1323,  986, 1219,  769
 8968, 1545, 1279, 2856, 1812
 8969, 2816, 2605,  801, 2608
 8970, 1668, 1657, 1699, 1543
 8971, 2843, 1960, 2874, 2881
 8972, 2827, 1891, 2369,  884
 8973, 2856, 1162,  759, 1219
 8974, 2634, 2085, 2764,  430
 8975,  441, 2821, 2074, 2264
 8976, 1144, 1945, 1099, 1142
 8977, 2688,  425, 2077, 2641
 8978, 2339, 1600,  280,  289
 8979, 1289, 1329, 1876, 1873
 8980, 2634, 2085,  430, 2771
 8981, 2765, 2815, 2763,  448
 8982, 2258, 2634,  428, 2264
 8983, 2763, 2815,  447,  448
 8984, 1818, 2095, 1253, 2024
 8985, 2962, 2488, 3002,  605
 8986, 2469, 1592, 1970, 2360
 8987, 2322, 2998, 2979,  625
 8988, 3030, 2962, 2979,  623
 8989, 1615, 2902, 2145, 2903
 8990, 1616, 3028, 2997, 2903
 8991, 2859, 3013, 2997,  631
 8992, 2913,  629, 2914, 2977
 8993, 2321, 1834,  587,  601
 8994, 3037, 2962,  605,  602
 8995, 2261, 3008, 2262,  576
 8996, 2059,  726,  720,  719
 8997, 2321, 1834, 1883,  587
 8998, 2912, 2946,  591,  530
 8999, 2713, 2965, 2323, 2964
 9000, 1795, 2750, 2421, 2061
 9001, 2657, 2312, 2592, 1337
 9002, 1968, 1975, 1973, 1552
 9003, 2480, 2036, 2400, 2385
 9004, 2358, 1000, 2363,   29
 9005, 1383, 1387, 1386, 1390
 9006, 2757, 2974, 2255, 2256
 9007, 2830, 2358, 1249, 2388
 9008, 2316,  483, 2229,   18
 9009, 2235, 2319, 2219,  537
 9010, 1712, 2863, 2696, 2742
 9011, 2220, 1409,   21, 2253
 9012, 2265, 1409, 2064, 2557
 9013, 2138, 3036,  682,  678
 9014, 1336, 1434, 1437, 1648
 9015, 2801, 1650, 2100, 2346
 9016, 2933, 2440, 1283, 1893
 9017, 1851, 2194, 2195, 2099
 9018, 2202, 2253,  484,  490
 9019, 2655, 1891,  885,  883
 9020, 2147, 2275, 2828,  739
 9021, 2018, 3022,  781, 1002
 9022, 2914, 1883, 1501, 2912
 9023, 2015, 3010, 3029, 2852
 9024, 1089, 2827, 2369,  891
 9025, 2827, 1891,  884,  885
 9026, 1092,  908, 2881,  911
 9027, 1703, 2160, 2530, 2531
 9028, 1654, 3023, 3022, 3014
 9029, 1511, 1717, 2018, 1787
 9030, 2027, 2655, 2851, 1858
 9031, 2431, 1142, 2287, 2286
 9032, 2638, 2101,  437,  468
 9033,  526, 2432,  422,  510
 9034, 2562, 2865,  415, 2200
 9035, 2317, 2098, 2096, 2097
 9036, 2431, 2286,  422, 2432
 9037, 2219, 1067, 2230,    7
 9038, 3009, 1835, 1624, 1647
 9039, 3002, 2010, 1646, 3037
 9040, 2966, 2122,  682,  743
 9041, 2966,  742, 3041,  745
 9042, 2345,  925, 2959,  982
 9043, 1805, 2256, 1861, 1860
 9044, 2502, 3025, 2503,  928
 9045, 1533, 1742, 1741, 1738
 9046, 1163, 3032,  924,  921
 9047, 2502, 2849, 3025,  928
 9048, 2971, 1742,  919,  755
 9049,  768, 2847,  775, 2940
 9050, 1281, 1217, 1323, 2847
 9051, 2847, 2938, 1238,  774
 9052, 1387, 1922, 1377, 2840
 9053, 2938, 1238,  774,  989
 9054, 1333, 1873, 2956, 2950
 9055, 2185,  293, 2186,  508
 9056, 2506, 2734, 2533, 2186
 9057, 1608, 2770, 2632, 2771
 9058, 1562, 2937, 2185, 2246
 9059, 2533, 2102,  292,  294
 9060,  698, 2996, 2989, 3034
 9061, 2809, 2810, 2284, 3017
 9062, 2876, 2133, 2249, 2132
 9063, 3046, 3006,  702,  708
 9064, 2343, 3003,  702, 3006
 9065, 2343, 2976,  700, 2326
 9066, 2976, 2326,  674,  700
 9067, 2325, 2976, 2326,  674
 9068, 2885, 2326, 2325, 2976
 9069, 1832, 1624,  594,  599
 9070,  603, 3002,  597,  604
 9071, 2089, 2331,  990,  696
 9072,  653, 2289,  664, 2129
 9073, 1292, 2822, 2017, 2519
 9074, 1099, 2431, 1945, 2453
 9075, 2734,  294, 2192, 2102
 9076, 2184, 2185, 2186,  508
 9077, 2734, 2186, 2185,  293
 9078, 2280, 2812, 2339,  288
 9079, 2569, 2212, 2211, 2890
 9080, 2632, 2218,  424, 2641
 9081, 2085, 2771,  427,  430
 9082, 2640,  426, 2218,  424
 9083, 2640, 2641, 2560, 2077
 9084, 2642, 2218,  426,  435
 9085, 2640, 2643,  432,  425
 9086, 2642, 2640, 2643,  432
 9087, 2500, 2798, 2468, 2360
 9088, 2065,  323, 2247,  296
 9089, 2635, 2437, 1663,  321
 9090, 2891, 2795, 2636,  328
 9091, 2795, 2636,  326, 1947
 9092, 2635, 2783,  321,  326
 9093, 2705, 2704, 2877, 2917
 9094, 2415, 1613, 1320, 1644
 9095, 1091, 1092,  909, 2369
 9096, 1960, 2881, 1959,  911
 9097, 2024, 2135, 2095, 2025
 9098, 2948, 1717,  783, 3021
 9099, 2369, 1891,  892,  884
 9100, 2605, 2608, 2162,  807
 9101, 2816, 1219, 1232,  804
 9102, 1162, 2605,  802,  801
 9103, 2816,  804, 1232,  777
 9104, 2816, 2817,  803,  777
 9105, 2607, 2608,  807, 2162
 9106, 2817, 1232, 2814,  777
 9107, 2607, 2608,  809,  807
 9108, 2677, 2951, 2467, 2466
 9109, 2954,  917, 1378,  866
 9110, 1869, 2198, 2437, 2068
 9111, 2230, 2219, 2235, 2597
 9112, 2905, 1034, 2765, 2787
 9113, 1034,  436, 2853,  385
 9114, 2504, 2170, 2733, 1954
 9115, 3039, 2954,  929, 2840
 9116, 2837, 1232, 2838, 2814
 9117, 2844, 1844, 1408, 3019
 9118, 1957, 1378, 1959, 1958
 9119, 3039, 2166,  968, 1377
 9120, 2840, 3025,  927,  929
 9121, 2343,  700, 2976,  701
 9122, 2924, 1940, 1321, 2025
 9123, 2105, 3003, 3041, 2966
 9124, 3003, 3006,  744,  702
 9125, 2066, 2326, 2343,  676
 9126, 2254,  686, 2732, 2803
 9127, 2220,  679, 2557,  678
 9128, 3003, 3041,  744, 3006
 9129, 3036, 2966,  682,  742
 9130, 2113, 1811, 1279, 1397
 9131, 1227, 1230, 1412, 1229
 9132, 2860, 2946, 2977, 2914
 9133, 2809, 2811, 1506, 3015
 9134, 2827,  922,  881,  891
 9135, 1339, 1361, 1346, 1345
 9136, 2276, 1941, 1940, 1320
 9137, 1966, 2694, 3016, 1357
 9138, 2113, 1279,  761,  769
 9139, 1811, 1813, 2912,  530
 9140, 1545, 2856, 1162, 2021
 9141, 1522,   49, 1520,  284
 9142, 1520, 2729,  284,  280
 9143, 2031,  109, 1520,   49
 9144, 2031, 2701,  109, 2591
 9145, 1521, 2729, 1522, 1520
 9146, 2280, 2339,  280,  288
 9147, 2437,  301, 1600, 1663
 9148, 2877,  876,  875,  880
 9149, 2705, 2919, 2877, 3015
 9150, 2705, 2970, 2917, 2919
 9151, 3015,  792, 3014,  791
 9152, 2867,  800, 2919,  798
 9153, 2016, 2125, 3011, 2973
 9154, 2161, 2531, 2016, 2530
 9155, 1915, 2617, 2050, 2052
 9156, 1336, 1807, 1066, 1334
 9157, 2203, 2205, 2553, 2082
 9158, 2835, 2197, 2631, 2779
 9159, 1681, 2057, 2779, 2627
 9160, 2671,  245,  242,  239
 9161, 2414, 1771, 2356, 1766
 9162, 1646, 3002, 2962, 2488
 9163, 2556,  658, 2557, 2285
 9164, 1996, 2066, 2601, 2326
 9165, 2066, 3036,  681, 3003
 9166, 2286, 2078,  433, 2042
 9167, 2636, 1948, 2883, 2635
 9168, 1187, 1144, 2864, 1142
 9169, 2561, 2872, 2213, 2212
 9170,  457, 2432,  459, 2268
 9171, 2449, 2268,  457,  456
 9172, 2170, 1954,  502,  349
 9173, 2263, 2187, 2170,    6
 9174, 2150, 2263, 2170, 1954
 9175, 2152, 2263,    5, 2151
 9176, 1919, 2253, 2202, 1409
 9177, 2230, 2170, 2187,    6
 9178, 2037, 1954, 2733, 2186
 9179, 1069, 1070, 2733,  350
 9180, 2500, 2472, 2743, 2360
 9181, 3037, 3047,  600,  597
 9182, 2969, 3018,  709,  735
 9183, 2928,  731, 3007,  729
 9184, 1629, 3030, 2979, 2998
 9185, 2136,  709, 2969, 3018
 9186, 1719, 1833, 3008, 1834
 9187, 1819, 1825, 2753, 2406
 9188, 2041,  115, 2389,  114
 9189, 2496, 2746,  119, 2806
 9190,  122, 2498,  116,  123
 9191, 1348, 2434,  117,  123
 9192, 1166, 1969, 1159, 1592
 9193, 3037,  602, 3009, 2962
 9194, 2457, 2573,  973, 2943
 9195, 2305, 2828, 2147, 2283
 9196, 2275, 2270,  646,  886
 9197, 1810,  922,  881, 2827
 9198, 1827, 2827,  885, 2655
 9199, 2386, 2385,   71,   66
 9200, 2034, 2035, 2190, 2390
 9201, 2380,   66, 2036, 2385
 9202, 2386,   73,   71, 2385
 9203, 2373, 2056, 1978,  194
 9204, 2359, 2551,   73,   67
 9205, 2509, 1910, 2475, 2484
 9206, 1968, 1745, 2410, 1971
 9207, 1978, 2056, 1971,  188
 9208, 2590,  671, 2600,  655
 9209, 2096, 2097,  472,  481
 9210, 2602, 2300,  657,  672
 9211, 2590, 2289,  670,  655
 9212, 2965, 2304, 2888,  542
 9213, 1082, 2712, 2330,  550
 9214, 1955,   15,  478,   14
 9215, 2915, 2327,  650, 2330
 9216, 2291, 2289, 2129, 2292
 9217, 2289,  664, 2129, 2292
 9218, 2292, 2289,  664,  670
 9219, 2590, 2289, 2292,  670
 9220, 2590, 2601, 2600,  671
 9221, 2227, 2663, 2129, 2293
 9222, 2467,   43, 2942, 2491
 9223, 1967, 2491,   42,   43
 9224, 2276, 1912, 2109, 2208
 9225, 2467, 2952,  857,  834
 9226, 1034, 2787, 2853, 2764
 9227, 1304, 1917, 2115, 1915
 9228, 1988,  471, 2868, 2096
 9229, 2318, 1743, 1573, 2202
 9230, 2053, 2097,  482, 2098
 9231, 2290,  482, 2819,   20
 9232, 2850, 1035, 2787, 2053
 9233, 2905, 2787, 2850,  487
 9234, 3000, 2961, 2731, 2132
 9235, 2726, 2730, 2901, 2727
 9236, 2803,  690,  691,  686
 9237, 3037, 2299, 1897, 3047
 9238, 2667, 2294, 2331, 2325
 9239, 2291, 2289, 2600, 2288
 9240, 1082,   13, 2986,  550
 9241, 2745, 2868, 2232, 2097
 9242, 2981, 2229, 2288,  654
 9243, 2489, 1690, 2343, 2492
 9244, 2383, 2355, 2354,  540
 9245, 1832, 2995, 3008,  579
 9246, 2289, 2292, 2291, 2590
 9247, 2665, 2666, 2673, 2314
 9248, 2066, 3036, 2556,  681
 9249, 2147, 2283, 2854, 2305
 9250, 2781, 2254,  993,  611
 9251, 2496, 2497,  124,  121
 9252, 1910, 2475, 2490, 1115
 9253, 2536, 2537, 1491, 1672
 9254, 1967, 2467, 2584, 2491
 9255, 2581,   32, 1116,  963
 9256, 1584, 1271, 1272, 1273
 9257, 2564, 1746, 2444,  524
 9258, 2444,  176, 1115,  524
 9259, 2490,  177, 2475,  192
 9260, 2469, 2564, 2955,   33
 9261, 2861, 2457, 2943, 2573
 9262, 1115, 1117,   31,  177
 9263, 1116, 2941,  963,   31
 9264, 2950, 2988,  533,  572
 9265, 2754, 2950, 2168,  533
 9266, 2011,    1, 2754, 1873
 9267, 2754, 2152,  347,    4
 9268, 2754, 2950,  533,  980
 9269, 2011, 2956, 1873, 2950
 9270, 1333, 2754, 2950, 2168
 9271, 2950, 2988,  572,  581
 9272, 1490, 1553, 2813, 1445
 9273, 1729, 2945, 2649, 2957
 9274, 3037, 1647, 1646, 2962
 9275, 1882, 2848, 1881, 1399
 9276, 2757, 2972, 2256, 2255
 9277, 1370, 1697, 1369, 1694
 9278, 2847,  775, 2940,  776
 9279, 1323,  766, 2847,  774
 9280, 2656,  934, 2972, 2959
 9281, 2139, 1625,  592, 2987
 9282, 2249, 2133,  596, 2132
 9283, 2231,  559, 2596,  558
 9284, 2961,  604, 2299, 3002
 9285, 2249, 2132,  596,  598
 9286, 1735, 1736, 2920, 3043
 9287, 3002,  597,  604, 2299
 9288,  227,  221, 2421, 2420
 9289, 2422, 2428,  229,  227
 9290, 2529, 2659, 2030,   60
 9291, 2793, 2657, 2062, 2032
 9292, 1939, 2368, 2149, 2189
 9293, 2592, 1531, 2568, 1337
 9294, 2047, 2426, 2752, 2048
 9295, 1819, 2406, 1822, 1821
 9296, 1768, 2412, 1682, 1926
 9297, 1056, 1714, 1617, 1178
 9298, 2711,  124, 2618,  143
 9299,  123, 2498,  125,  124
 9300, 2428, 1712, 1713, 1531
 9301, 2611, 2618,  142, 2052
 9302, 1924, 1928, 1925, 1929
 9303, 1927, 1929, 2618, 2051
 9304, 2618, 2052,  504,  142
 9305, 1846, 2221, 2216, 1847
 9306, 2611, 2436, 2603,  140
 9307, 2823, 3008, 2995, 2992
 9308, 1719, 2262, 1396, 1398
 9309, 1085, 1665, 1257, 1122
 9310, 2921, 1737, 1735, 2623
 9311, 2134, 2165, 1739, 3041
 9312, 3043,  752, 1738,  757
 9313, 3043,  748, 2920,  752
 9314,  754, 2345,  757, 3043
 9315, 1736, 3043,  748, 2920
 9316, 1739, 3043,  752, 1738
 9317, 2134, 2622, 2095, 2539
 9318, 1719, 3008, 1833, 2824
 9319, 1741, 1163,  921, 3032
 9320, 2480, 2481, 1907, 2034
 9321, 1163, 3032, 2502,  932
 9322, 2586, 2513, 1649, 2769
 9323, 1376, 1386, 1961, 1377
 9324, 1383, 2363, 1389, 1388
 9325, 1800, 2296, 2938, 3044
 9326, 2010, 3037, 1897, 1647
 9327, 2905, 1034,  448, 2765
 9328, 1214, 2185, 2734, 2186
 9329, 2850, 1035,  487, 2787
 9330, 1034, 2764,  449, 2765
 9331, 2634, 2765, 2763,  446
 9332, 2085, 2632,  427, 2771
 9333, 1825, 1348, 2498, 2434
 9334, 2497, 2618,  124,  142
 9335, 2746, 2118, 2117, 2496
 9336, 1637, 2710, 2753, 1825
 9337, 1685, 2070, 1686, 1627
 9338, 2361, 2420, 1786, 1797
 9339, 2746, 2436, 2497,  121
 9340, 1677, 1678, 1898, 2087
 9341, 2924, 2969, 2136, 3026
 9342, 1719, 2262, 2336, 1834
 9343, 2145, 3028,  632,  624
 9344, 2405, 1902, 2997, 3013
 9345, 2730, 2157, 2929, 2167
 9346,  604, 3002,  606,  605
 9347, 1902,  634, 2997,  640
 9348, 1195, 2775, 1197, 1068
 9349, 2238, 2207, 1067,  354
 9350, 2191, 1737, 2086, 1736
 9351, 2230,  348, 2170,    6
 9352, 1069, 1070,  350,  354
 9353, 1069,  349, 2733, 2170
 9354, 1069, 2170,  348,  349
 9355,  966,  971, 2378, 1390
 9356, 2652, 1891, 2703, 2369
 9357, 1333, 2956, 3005, 2950
 9358, 2942, 2675, 2836, 2154
 9359,  835, 2154,  829, 2178
 9360, 1532, 2615, 2505, 2525
 9361, 1088,  866,  967, 2954
 9362, 2954, 2840, 1960,  930
 9363, 2881, 1959,  911,  916
 9364, 2910, 1272, 2581, 2978
 9365, 2166, 1088, 2378,  966
 9366, 1217, 1239, 1242, 1280
 9367, 1976, 1971,  189,  188
 9368, 1745,  190, 2384,  175
 9369, 1968, 2397, 1976, 2410
 9370, 1695, 2512,  201, 2750
 9371, 1803, 2820, 1490, 2837
 9372, 1287, 2193, 1873, 1877
 9373, 1874, 1750, 1877, 1751
 9374, 2193,   47, 2945,  828
 9375, 1355, 1931, 1356, 1358
 9376, 2518, 2257,   51, 2282
 9377, 2193, 2257, 2945,   47
 9378, 2353, 2193, 1877, 1873
 9379, 2011, 1873, 2754, 2950
 9380, 1729, 1873, 2193, 2957
 9381, 1852, 1853, 2142, 2169
 9382, 2321, 2322,  621,  620
 9383, 2962, 2979,  602, 1836
 9384, 2208, 2111, 2927, 2141
 9385, 2321, 2322, 2979,  621
 9386, 2010, 2488, 2961, 3002
 9387, 2925, 1203, 3026, 3031
 9388, 3009, 1836, 2962,  602
 9389, 2145,  613, 2488,  624
 9390, 2488,  613, 2144,  606
 9391, 2101, 2737, 2096,  468
 9392, 2101,  472, 2096, 2098
 9393, 2786, 1035, 2098, 2053
 9394, 2548, 2891, 2065, 2247
 9395, 1141, 1711, 2646, 2808
 9396,  446,  449, 2634, 2765
 9397, 2085,  429, 2218,  435
 9398, 2362, 2301, 2807, 2302
 9399,  469, 1035,  473, 2098
 9400, 2824, 1396, 1449, 1719
 9401, 2226,  544, 2303,  543
 9402,  978, 2076, 2241,   10
 9403, 2241, 2076, 2228,   10
 9404, 2226, 2596,  557, 2985
 9405, 2308, 2076,  379, 2228
 9406, 2670, 2478, 2013, 2666
 9407, 2926, 2325, 2590, 2294
 9408,  689, 2088,  687,  696
 9409, 2789, 2331,  659,  668
 9410, 2294,  659, 2789, 2331
 9411, 2314, 2724, 2309, 2930
 9412, 2989, 2331,  696,  675
 9413, 1887, 1894, 1885, 1892
 9414, 1924, 1925,  152, 1929
 9415, 2057,  150, 2617,  149
 9416, 1531, 1532, 2863, 1466
 9417, 1682, 1493, 1494, 1495
 9418, 1524, 1521, 2279, 1522
 9419, 1494,  153, 2050,  159
 9420, 2069,  147, 2617,  141
 9421, 2069, 2547, 2617,  147
 9422, 1183, 1139, 1141, 1112
 9423, 2891,  296, 2065, 2247
 9424, 2065, 2246,  278, 1663
 9425, 1831, 1837, 1836, 2979
 9426, 2065,  320, 1663,  278
 9427, 2065,  322, 2636,  320
 9428, 2635,  321, 2783, 2437
 9429, 2635, 2065,  320, 1663
 9430, 2891,  322, 2065,  296
 9431, 2453, 2179, 1451, 2700
 9432, 1142, 2042, 2864, 2643
 9433, 2718,  395, 2800, 2911
 9434, 2449, 2268, 2433,  457
 9435,  418, 2448,  344, 2454
 9436, 2453, 2831, 1451, 2180
 9437, 1982, 1536, 1465, 1538
 9438, 2200, 2077,  416,  417
 9439, 2563, 2200, 2077, 2688
 9440, 1326, 1629, 1831, 1628
 9441, 2562, 2077, 2563, 2200
 9442,  335, 2797,  334, 1452
 9443, 2200, 2688,  511,  416
 9444, 2680, 2411, 2719, 2630
 9445, 2201,  395,  394,  399
 9446, 1868, 2337, 2516, 2333
 9447, 2084,  413,  394,  412
 9448, 2209, 2210, 2865,  338
 9449, 1717,  783, 3022, 1002
 9450, 1717, 2021,  786,  784
 9451, 2816, 1220, 1162, 1546
 9452, 2018, 1787, 1717,  780
 9453, 1717, 1787,  784,  780
 9454, 1890, 1858,  882,  888
 9455, 2703, 2588, 2019,  890
 9456, 1510, 2018, 3023, 2846
 9457, 1718, 1813, 2912, 1811
 9458, 2647,  452, 2815, 2346
 9459, 1437, 2763, 2647, 2074
 9460, 2647, 2815,  452,  447
 9461, 1828, 2732, 1829, 2845
 9462, 1715, 1436, 1603, 2341
 9463, 2073, 2074, 2647,  442
 9464, 2112, 2111, 2141,  722
 9465, 2852,  870, 3029,  882
 9466, 2110, 2111,  738, 2829
 9467, 2111,  738, 2829, 1001
 9468, 2927, 1658,  732, 2829
 9469, 2111, 2141,  722,  731
 9470, 2153, 2900, 2140, 2112
 9471,  726, 2983, 2059,  720
 9472, 2927, 3007,  731,  732
 9473, 2039, 2149, 2424,   58
 9474, 2744,   73, 2155, 2551
 9475, 1938, 2659, 2510, 2523
 9476, 2424, 2375,   55,   64
 9477, 2368, 2424,   64, 2375
 9478, 2490,  200, 2750,  197
 9479, 2484, 2384, 2509, 2427
 9480, 2421, 2750,  200,  261
 9481, 2830, 1385, 2388, 2832
 9482, 2511, 1351, 1115, 1910
 9483, 2490, 1115,  177, 1117
 9484, 2484, 2384, 2427,  195
 9485, 2155, 1552, 2472,  169
 9486, 2475, 1115,  176,  177
 9487, 2314, 2665, 1534, 2673
 9488, 2231, 2128,  564,  563
 9489, 2227, 2722, 2663, 2293
 9490, 2888,  542, 2304,  544
 9491, 2578, 1708, 2889, 2653
 9492, 1529,  560,  566,  547
 9493, 1895, 2249, 2595, 2139
 9494, 2300,  658, 2556, 2285
 9495, 2300, 2285,  657,  658
 9496, 2300,  681, 2556,  673
 9497, 2602,  656, 2601,  672
 9498,   19, 2285, 1005, 2232
 9499, 2518, 2519,   92, 2759
 9500, 2518, 2257,   47,   51
 9501, 2518, 2519,   51,   92
 9502, 2193, 2518, 2257,   47
 9503, 2234,  477, 1985,  463
 9504, 1983, 2297, 1987, 1985
 9505, 2232, 2316, 2229,   18
 9506, 2982, 1081, 1082, 2217
 9507, 2766, 2768, 2316, 2868
 9508, 2239, 2234, 1985,  463
 9509, 2561, 2301, 2228, 2872
 9510, 2808,  357, 2338,  329
 9511, 1711, 2808,  329, 2646
 9512, 2577, 2338, 2808,  357
 9513, 2301,  363, 2577,  374
 9514, 2212, 2890,  359, 2214
 9515, 2639,  359, 2890,  360
 9516, 2301, 2577, 2807,  374
 9517, 2134, 2622, 3041, 1739
 9518, 1690, 3003, 2343, 3006
 9519, 1587, 1835, 1896, 1898
 9520, 2139, 2987,  592,  561
 9521, 1647, 2962, 3009, 1836
 9522, 2999, 3034,  699,  697
 9523, 2383, 2991, 2295,  536
 9524, 1153, 2492, 2343, 3046
 9525, 2808, 2207,  352, 1070
 9526, 2808,  352, 2807,  362
 9527, 2577,  362, 2808, 2807
 9528, 2301, 2228,  375, 2245
 9529, 2318, 2053, 2786, 1743
 9530, 2808,  329, 2646,  352
 9531, 2915, 2194,   16,  975
 9532, 2982, 2223, 2213, 2308
 9533, 2712,  550, 2986,  548
 9534, 2227,  650, 2327,  554
 9535, 2762, 2076, 2304,  542
 9536, 2233, 2234, 2430, 2099
 9537, 1529, 3001,  565,  560
 9538, 1645, 1837, 1629, 1646
 9539, 2653, 1708, 2889, 2594
 9540, 2236, 3040, 2242, 2216
 9541, 2014, 1899, 2447, 2382
 9542, 2435, 2436, 2216, 2603
 9543, 1679, 1495, 1681, 1626
 9544, 1347, 2352, 2894,  842
 9545, 1721, 1414, 1415, 2836
 9546, 2574, 2163,  845,  858
 9547, 1673, 2817, 2814,  810
 9548, 1584, 1583, 1395, 1393
 9549, 2855, 1342, 2357, 1666
 9550, 1356, 1790, 1965, 2613
 9551, 2857, 2697, 2582, 2163
 9552, 2457,   39, 2943,  973
 9553, 2536, 2676, 2574, 2466
 9554, 2368, 2584, 2576, 1415
 9555, 1629, 1628, 2998, 2979
 9556, 2575, 1722, 2791, 2584
 9557, 2469, 2446,   34,  964
 9558, 2955, 3042,  964,  961
 9559, 2622, 2623, 2105, 2967
 9560, 2138, 2121,  677, 2122
 9561, 2823, 2995, 2355, 2992
 9562, 1853, 2169, 2823, 2355
 9563, 3036,  742, 3003, 2966
 9564, 1690, 2343, 2066, 2326
 9565, 2306, 1886, 2295, 2354
 9566, 2235, 2319,  537,  536
 9567, 1387, 2840, 1377, 1388
 9568, 2979, 1646, 3030, 1629
 9569, 1429, 2378, 2581, 2941
 9570, 2887, 2839, 3044, 2154
 9571, 2839,  833, 2814,  832
 9572, 1239, 2296, 2838, 1238
 9573, 2564,   32, 2581,  979
 9574,  927,  930, 2874, 2840
 9575, 3039, 2166, 1377, 1388
 9576, 2611, 2497,  142, 2618
 9577, 2435, 2603, 2069, 2611
 9578, 1532, 1530, 2689, 2391
 9579, 2069, 2611,  144, 2052
 9580, 2611,  144, 2052,  142
 9581, 2854, 2275, 2270, 2283
 9582, 2270, 2971, 1810, 1816
 9583, 2971, 1742, 2270,  919
 9584, 2854, 2275, 2147, 1827
 9585, 1266, 1486, 1543, 1485
 9586, 2022, 1484, 1816, 1089
 9587, 2622, 2623, 2967, 2920
 9588, 2073, 2418,  440, 2067
 9589, 2073,  451, 2647, 2067
 9590, 2073, 2647,  451,  442
 9591, 2073, 2075,  442,  439
 9592, 2073,  440, 2418,  439
 9593, 2795, 1947,  326,  331
 9594, 2795, 2636,  328,  326
 9595, 2802, 1453, 1947,  331
 9596, 1711, 2795,  329,  330
 9597, 1224, 2817, 2816, 1232
 9598, 2817, 2814,  810,  777
 9599, 1374, 1670, 1375, 1345
 9600, 2562, 2687, 2563, 2077
 9601, 2268, 1991, 1990,  459
 9602, 1140, 2891, 2636, 2065
 9603, 1143, 2784, 1142, 2042
 9604, 2286, 1989, 2042,  433
 9605, 2286, 2078,  422,  433
 9606, 2250, 2303,  978,  543
 9607, 1747, 2819, 2232, 2285
 9608, 2858, 2138, 3036, 2122
 9609, 2241, 2250, 2304,  978
 9610, 2245, 2302, 2984,    8
 9611, 2142,    6, 2187,  535
 9612, 2622, 2105, 3041, 2966
 9613, 1220, 1162, 1546, 1218
 9614, 2219, 2319,    8,  537
 9615,   21,  679, 1409, 2220
 9616, 2654, 2595, 2985, 2987
 9617, 1287, 1288, 1246, 1728
 9618, 2022, 2854, 1827, 2270
 9619, 1389, 1388, 2363,  970
 9620, 1966, 2948, 2604, 2606
 9621, 3039,  970, 1389,  933
 9622, 1245, 2938, 2940, 2146
 9623, 1906, 1922, 1387, 2840
 9624, 2583, 2949, 2574,  840
 9625, 2574,  840, 2365,  844
 9626, 2352, 2953, 2949,  841
 9627, 2365, 2367,  844,  838
 9628, 1628, 2322, 2998, 2979
 9629, 1831, 2321, 2322, 2979
 9630, 2336, 1883,  587,  582
 9631, 1883, 2914,  629,  582
 9632, 2321, 2979, 1836,  621
 9633, 1613, 1327, 1629, 2487
 9634, 2336, 2912, 1883,  582
 9635, 2447, 2382, 1899,   80
 9636, 2447, 2389,   82,  114
 9637, 2659, 2030,   60,   97
 9638, 2117, 2522, 2521, 1936
 9639, 1590, 1760, 1611, 1618
 9640, 1338, 2421, 2422, 2032
 9641, 3039,  933, 1389, 2503
 9642, 2542, 2543, 2361, 2427
 9643, 2545,  116, 1348,  114
 9644, 2521, 1935, 2529, 2014
 9645, 2248, 3040, 2658, 2242
 9646, 2545, 2806,  116,  112
 9647, 2077, 2640,  425, 2643
 9648, 2688, 2641,  423,  425
 9649, 2640,  424, 2641,  425
 9650, 2640,  424, 2218, 2641
 9651, 2855, 1347,  848, 1010
 9652, 3039,  970, 2166, 1388
 9653, 2932, 2332,  826, 2508
 9654, 2685, 1381, 2740, 1347
 9655,  938, 1666,  940, 2682
 9656, 2450, 2451, 2176,  914
 9657, 2450, 1666, 2774,  991
 9658, 2736, 2875, 2537, 2583
 9659, 1627, 2070, 2671,  245
 9660, 1925,  152, 1929,  151
 9661, 2419, 2328, 2205, 2329
 9662, 2054, 2055,  256,  246
 9663, 2718, 2800, 2699, 2911
 9664, 2777, 2048, 2742, 2826
 9665, 2614, 2617,  150, 2050
 9666, 2617,  141, 2050, 2052
 9667, 2546,  147, 2547,  138
 9668, 2546, 2057, 2617,  149
 9669, 1494, 2413, 2050,  153
 9670, 2614, 2050,  150,  159
 9671, 2698, 2055, 2347,  404
 9672, 2698,  258, 2055,  404
 9673, 2393, 2691, 2598, 2690
 9674, 2691, 2579,  405,  165
 9675, 2412, 1494, 2413, 2050
 9676, 2412, 1888, 2413, 1494
 9677, 2051, 2618,  504,  143
 9678, 2051, 2618, 2052,  504
 9679, 2776, 2063, 2409, 1764
 9680, 2413,  145, 2050,  153
 9681, 1762, 1761, 1763, 2628
 9682, 1929, 2401,  132,  133
 9683, 1927, 2710, 2799, 2618
 9684, 1494, 2614,  157,  159
 9685, 1484, 1480, 1090, 1089
 9686, 1844, 1958,  916,  915
 9687, 2019, 2881, 1092,  908
 9688, 1408,  907, 1844,  916
 9689, 2874,  927, 2840, 3025
 9690, 2019, 2881,  908,  910
 9691, 1408, 1844, 2881,  916
 9692, 1674, 1673, 2817, 2814
 9693, 2891, 2795,  328,  329
 9694, 1182, 1276, 1536, 1102
 9695, 1711, 2891,  329, 2795
 9696, 2560, 2641, 2566, 2687
 9697, 2802, 1711,  330, 2795
 9698, 2886, 1987,  455, 1991
 9699, 2441, 2096, 1988, 2868
 9700, 2638,  433, 1989,  467
 9701, 1389, 1388, 3039, 2503
 9702, 1220, 1224, 2816, 1219
 9703, 2886, 1989, 1990,  460
 9704, 3039, 2840,  929, 2503
 9705, 1112, 1711, 2808, 2338
 9706, 2294, 2789,  659, 2293
 9707, 2294, 2293,  659,  664
 9708, 2885, 2590, 2325, 2326
 9709, 2674, 2106, 2128, 2133
 9710, 2665, 1534, 2669, 2782
 9711, 3039, 2503,  929,  933
 9712, 2039, 2149,   58,   81
 9713, 2521, 2659, 2030, 2529
 9714, 2374, 2658, 2242,   93
 9715, 2658, 2523,   93,   59
 9716, 2017, 2658,   93, 2242
 9717, 2653, 1707, 2654, 1885
 9718, 2030, 2382,   81,  111
 9719, 1907, 2189, 2190, 2381
 9720, 2994, 2446, 2360, 2469
 9721, 2148, 2381, 2189,   63
 9722, 2398,   89,   90, 2395
 9723, 2381, 2473,   61,   65
 9724, 2498, 1348,  123, 2434
 9725, 2496, 2498, 1348,  116
 9726, 2498,  116,  123, 1348
 9727, 2496,  121, 2746, 2497
 9728, 1525, 2497, 2496, 2746
 9729, 2498, 2434,  123,  125
 9730, 2711, 2497, 2618,  124
 9731, 1762, 1764, 1761, 2462
 9732, 2498,  125,  124, 2711
 9733, 2664, 2462,  236,  241
 9734, 2054,  246, 2272, 2055
 9735, 2742, 2063,  224, 2409
 9736, 1761,  236, 1764,  232
 9737, 1761,  236, 2664, 2462
 9738, 2435, 2611, 2069, 2052
 9739, 2409, 2776, 1764, 1771
 9740, 1771,  495, 1764,  214
 9741,  214, 2063,  233, 1764
 9742, 1761, 1763,  237,  232
 9743, 1219, 1232,  984, 1238
 9744, 1219, 1232,  804,  984
 9745, 1281, 1323, 1219, 2113
 9746, 1217, 1232, 1219, 1238
 9747, 1219,  770, 1279,  769
 9748, 1908, 2447, 2188, 2382
 9749, 2382,   75, 2149,   81
 9750, 2382, 1899,   80,  111
 9751, 2188, 2149, 2382,   75
 9752, 2148, 2189,   62,   63
 9753, 2368, 2375,   64, 2491
 9754, 2030, 2382,  111, 1899
 9755, 2529, 2382, 2030, 2014
 9756, 2487, 2145, 2488, 3030
 9757, 2928, 2141, 2927,  731
 9758, 2979, 1836,  621,  602
 9759, 3030,  605, 2962,  623
 9760, 2962, 2979,  623,  602
 9761, 2924, 3031, 2136, 3046
 9762, 3037, 3047,  597, 2299
 9763, 3037, 3009, 1647, 2962
 9764, 2903,  626, 2997,  634
 9765, 2962, 2979, 1646, 3030
 9766, 1646, 3030, 2488, 2962
 9767, 1656, 1703, 1914, 2809
 9768, 3037, 3002,  603,  605
 9769, 1764, 2409,  214, 2063
 9770, 2742,  248, 2696,  225
 9771, 2742, 2696, 2624,  225
 9772,  233, 2063,  236, 1764
 9773, 2696, 2505,  249,  251
 9774, 2624, 2505,  228,  249
 9775, 2777, 2826, 2046, 2048
 9776, 2408, 2048,  224, 2409
 9777, 2935, 2922, 2642, 2042
 9778, 2453, 2180, 1451, 2179
 9779, 1131, 1076, 1391, 1104
 9780, 2085, 2642,  435, 2218
 9781, 2320, 2341, 2787, 1571
 9782, 2923, 2853,  436,  437
 9783, 2548, 2646, 2891, 2247
 9784, 1973, 2540, 2479, 2400
 9785, 2360, 1970, 2469,   34
 9786, 2474,  167,  166,   36
 9787, 2359,   69, 2455,   67
 9788, 2360, 2472, 1970,  492
 9789, 2455, 2386, 2473, 2551
 9790, 2485,   37, 2474,  959
 9791, 1580, 2739, 1582, 2464
 9792, 1869, 2348, 2198, 2196
 9793, 2197, 2520,  521,  300
 9794, 2779, 2627,  309,  307
 9795, 2631, 2029,  307,  311
 9796, 2631, 2199,  304,  312
 9797,  304, 2631, 2633, 2199
 9798, 2639,  359, 2212, 2890
 9799, 1983, 2766, 1988, 2297
 9800, 2265, 1743, 1409, 1919
 9801, 1709, 2926, 2885, 2590
 9802, 1885, 2990, 1886, 2072
 9803, 1110, 2807, 2808, 2207
 9804, 2895, 2639, 2890, 2882
 9805, 1769, 2532, 2628,  230
 9806, 1769, 2628,  237,  230
 9807, 1761, 1763,  232, 1764
 9808, 1771,  214, 1764, 2409
 9809, 2356,  152, 1929, 1924
 9810, 2413, 1929, 2051,  151
 9811, 2711, 1929,  132,  143
 9812, 1763, 1764,  234,  232
 9813, 2711,  132, 2401,  125
 9814, 1885, 2990, 2072, 2251
 9815, 1754, 2260,  281, 2102
 9816, 1748, 2701,  282, 2260
 9817,  108, 2260, 1754, 1748
 9818, 1538, 2569, 1111, 2211
 9819, 1287, 1877, 1750, 2518
 9820, 2756,  104, 1751,  500
 9821, 2987, 2072, 2251, 2654
 9822, 1224, 2813, 1232, 1239
 9823, 2320, 2853, 2787, 2764
 9824, 1988,  479, 2768,  471
 9825, 2290, 1409,  490,   20
 9826,  485,  490, 2053, 2202
 9827, 1988, 2768,  479, 2297
 9828, 2233, 2234, 2195, 2297
 9829, 1988, 1987,  479,  470
 9830, 2569, 2338, 2577, 2212
 9831, 2087, 1623, 2995, 1832
 9832, 1083, 2965, 2762, 2304
 9833, 2285, 1005, 2232, 2602
 9834, 2935, 2085, 2923, 2764
 9835, 2923, 2764,  430,  436
 9836, 2560, 2641, 2640, 2218
 9837, 2642, 2640,  426, 2218
 9838, 2642, 2643,  434,  432
 9839, 2922, 2642, 2042,  434
 9840, 1562, 2246, 2339, 2937
 9841,  449, 2634, 2765, 2764
 9842, 1217, 1280, 1220, 1239
 9843, 1583, 1380, 2387, 2645
 9844, 1408, 1844,  907, 3019
 9845, 1491, 2538, 1671, 2820
 9846, 2536, 2676, 2537, 2574
 9847, 1844, 1958,  915, 2451
 9848, 1960,  911, 1959,  917
 9849, 1843, 1844, 1958, 1959
 9850, 1844, 3019,  913,  907
 9851, 2161, 2973,  872,  879
 9852, 2159, 2160, 2684,  868
 9853, 2809, 3014, 3015, 1506
 9854, 2159, 2161,  874,  867
 9855, 2160, 2161,  869,  874
 9856, 1654, 1656, 1655, 2809
 9857, 2016, 3011, 2125, 1890
 9858, 3027, 2944, 2908, 2020
 9859, 2704, 2869, 2127, 2880
 9860, 2249, 2139, 2299,  595
 9861, 1623, 1625,  541,  531
 9862,  597, 2299, 3047, 2975
 9863, 2975, 2139, 1625,  592
 9864, 2975, 2299, 3047, 2139
 9865, 1623, 2354, 2995,  578
 9866, 1623, 2995,  579,  578
 9867, 1625, 2987,  562,  592
 9868, 2829, 1658, 2276, 2927
 9869, 1658, 2267,  735,  733
 9870, 2804, 2805, 2928, 1203
 9871, 3007, 2969, 3026,  730
 9872, 2283, 2854, 2305, 1817
 9873, 2893, 3035, 2805, 1203
 9874, 1473, 1691, 1688, 1687
 9875, 2925, 3007, 2969, 3026
 9876, 2328, 2272, 2626,  255
 9877, 1671, 1672, 1673, 2365
 9878, 2347,  246, 2272,  402
 9879, 2328, 2205, 2329,  401
 9880, 2329, 2272,  255,  402
 9881, 1864, 2197, 2779, 2520
 9882, 2272,  257, 2626,  255
 9883, 2689, 2615, 2580, 2690
 9884, 2328,  401, 2329,  255
 9885, 2863, 1770, 1299, 2063
 9886, 2536, 1671, 2538, 2367
 9887, 2772, 2778, 2204,  407
 9888, 2204, 2205,  392,  401
 9889, 2536, 2365, 1671, 2367
 9890, 1808, 2337, 1868, 2333
 9891, 2197, 2199,  312,  302
 9892, 2747, 2437, 1600, 1663
 9893, 2329, 2205, 2204,  401
 9894,  517, 2029,  387,  314
 9895, 2516, 2515, 2334, 2517
 9896, 2037, 2150, 1852, 2504
 9897, 1690, 2066, 2343, 3003
 9898, 2066, 2343,  702,  676
 9899, 2858, 2138, 2122, 2121
 9900, 2383, 2295, 2307,  536
 9901, 2225, 2244, 1082, 2217
 9902, 1981, 2886, 2737, 1989
 9903, 2561, 1284, 2362, 2301
 9904, 2745, 1743, 1747, 1205
 9905, 2290, 2202,  490, 1409
 9906, 1035, 2098, 2053,  473
 9907, 2097, 2098,  472,  482
 9908, 2232, 2316,   18,  497
 9909, 1110, 2775, 2808, 1112
 9910, 1271, 1273, 2645,  947
 9911, 3042, 2446, 1585, 2955
 9912,  948,  947, 1472, 1273
 9913, 1585, 3052, 3042, 2955
 9914, 2564, 2581,   32, 1116
 9915, 1594, 2564, 1115, 1116
 9916,  215, 2555,  206, 2396
 9917, 2417, 1821,  135, 1820
 9918, 1825, 2434, 2058, 1348
 9919, 2396,  215, 2003, 2373
 9920, 2046, 2826,  220,  223
 9921, 1611, 2425, 1938, 1618
 9922,  212, 2409, 1771, 2044
 9923, 2426, 2043, 2044,  207
 9924, 2046,  220, 2826, 2420
 9925, 1786, 2361, 2046, 2420
 9926, 2910, 1962, 1272, 2978
 9927, 2378, 2978,  954, 1088
 9928, 2378,  963, 2581, 2941
 9929, 2166, 1390, 2378, 1377
 9930, 2378, 2978,  963,  954
 9931, 2378, 2941,  971,  963
 9932,  971, 2378, 1390, 2941
 9933,  202, 1249,   28, 2388
 9934, 3046, 2343,  702, 3006
 9935, 2136, 3006,  708,  710
 9936, 3046,  701, 3031,  707
 9937, 1614, 2901, 2899, 2900
 9938, 3046,  702, 2343,  701
 9939, 2136, 3046, 3031,  707
 9940, 3037, 2299,  597, 3002
 9941, 2889, 2323, 1529, 2310
 9942, 1153, 2999, 3046, 2343
 9943, 2963, 3034, 2996, 3035
 9944, 2010, 3037, 1647, 1646
 9945, 2621, 2958, 2921, 2123
 9946, 2139, 2072, 2990, 2987
 9947, 2975,  592, 1625,  594
 9948, 3037, 3002,  597,  603
 9949, 2492, 3046, 3006, 2343
 9950, 2817, 2607,  809,  810
 9951, 1673, 2817,  810, 2607
 9952,  588, 2336,  583,  590
 9953, 1965, 2607, 2162, 2608
 9954, 2814, 1224, 1232, 2817
 9955, 2676, 3033, 2857, 2574
 9956, 2816, 2817, 2608,  803
 9957, 2817, 2608,  803,  809
 9958, 3035, 1203, 3031,  704
 9959, 2893, 3035, 1203, 3031
 9960, 2825, 2249, 2299, 2132
 9961, 2928, 2805,  714,  705
 9962, 3007, 3026, 1203,  706
 9963, 1203, 3031,  704,  706
 9964, 1405, 1587, 1898, 1586
 9965, 2911,  395,  386,  514
 9966, 2630, 2633, 2662,  316
 9967, 2342, 2796, 2679, 2079
 9968, 2800, 2201,  399,  395
 9969,  886,  881, 1827, 1810
 9970, 2336, 2262,  583,  586
 9971, 2022, 1816, 1817, 2270
 9972, 1960, 2874,  911,  930
 9973, 2843, 1843, 1845, 1842
 9974, 1858, 1891,  883,  888
 9975, 2588, 2019,  890, 3020
 9976, 2871,  904, 2588,  889
 9977, 1890, 3029,  873,  882
 9978, 2528, 2684, 2810, 2159
 9979, 2851, 2655,  727,  883
 9980, 2018,  780, 1717, 1002
 9981, 2284, 1513, 1510, 3023
 9982, 1545, 2856, 1279, 1162
 9983, 2347, 2272,  246, 2055
 9984, 1523, 2060, 2547, 2723
 9985, 2678, 1608, 1597, 2770
 9986, 2778, 2347, 2329,  402
 9987, 1893, 2238, 2984, 2302
 9988, 1398, 2336, 1719, 2262
 9989,  355, 2219, 1067, 2238
 9990, 2238,  354, 1067,  355
 9991, 2238, 2302,  376,    8
 9992, 2238, 2207,  354,  376
 9993, 2524, 2312, 2691, 2738
 9994,  405,  400, 2698, 2821
 9995, 2264, 2612,  410,  400
 9996, 2456, 2457, 2575,   40
 9997, 2606, 2021, 2605,  802
 9998, 2606, 2162,  805,  807
 9999, 2605, 2608,  807,  801
10000, 1162, 2021,  782,  802
10001, 2604, 2021, 1162, 2605
10002, 2608, 2816, 2610, 2817
10003, 1091, 2369,  909,  891
10004, 3016, 2948, 2606,  805
10005, 2651, 2019, 2881, 1092
10006, 2336, 1883, 1834,  587
10007, 1092, 2874,  911, 2881
10008, 1542, 1511, 1545, 1548
10009, 2620, 1802, 1800, 2443
10010, 1217, 1281, 1219, 1279
10011, 1091, 2874, 3025,  927
10012, 2336, 1834,  586,  587
10013, 2929, 2141, 2928, 2167
10014, 1827, 2854, 2275, 2270
10015, 2728, 2116,  690,  692
10016, 3030, 2962,  605, 2488
10017, 2274, 3036, 2066, 3003
10018, 2361,  195, 2484, 2427
10019, 2361, 2420,  221,  220
10020, 2046, 2047, 2543, 2752
10021, 2543, 2427,  193,  219
10022, 2543,  193, 2056,  216
10023, 2046,  216, 2047,  218
10024, 2989, 2960, 2976, 2999
10025, 2145, 2728,  614, 2726
10026, 2087, 1832, 2995, 3008
10027, 2261, 1836,  601, 1834
10028, 2261, 1832, 3008,  579
10029, 2261, 3008, 1832, 1834
10030, 1832, 3009, 1835, 1624
10031, 2595, 2139,  561, 2987
10032, 2261, 3009,  599,  601
10033, 1525, 2746, 2436, 2497
10034, 2407, 2776, 2048, 2409
10035, 1936, 2118, 2117, 2237
10036, 2117, 1936, 2521, 2014
10037, 1649, 2769, 2349, 2586
10038, 2374,  118, 2717, 2522
10039, 2374, 2522,  113,  118
10040, 2717, 2746,  118,  120
10041, 2717,  120, 2216, 2436
10042, 3040, 2717, 2374, 2242
10043, 2717, 2216,  105, 2242
10044, 2542, 2361, 2484, 2427
10045,  467, 1988,  466, 2886
10046, 1715, 1730, 1537, 2934
10047, 2101,  468, 2096,  472
10048, 2766, 2745, 2868, 2316
10049,  467, 2886,  460, 1989
10050, 1988, 2768, 2868,  471
10051, 2737, 2096,  468,  471
10052, 2768, 2297,  483,  479
10053, 2766, 1988, 2768, 2868
10054, 2195, 2229, 2316,  483
10055, 2784, 1989, 2737, 2042
10056, 2745, 2096, 2868, 2097
10057, 1997, 2066, 2556, 2300
10058, 2232,   19, 2097,  497
10059, 2868, 2097,  481,  497
10060, 2624,  249, 2696, 2505
10061, 2826, 2624, 2428,  226
10062, 1712, 2428, 2624, 2505
10063, 2624, 2696,  249,  225
10064,  208,  215, 2392, 2003
10065, 2532, 1493, 1679, 1627
10066, 1460, 2617, 1459, 1917
10067, 2341, 2764, 2787, 2765
10068,  486, 1035,  487,  485
10069, 1035,  486,  385,  507
10070, 2850,  485, 2053, 2202
10071, 2512,  203, 1249, 1693
10072, 1695,  196, 2512, 1693
10073, 1695,  201, 2512,  196
10074, 2512,  262, 2061, 1250
10075, 1245, 2940, 2649, 2945
10076, 2348, 2198, 1524, 2279
10077, 1524, 1522, 2279,  298
10078, 1522, 2279,  297, 2729
10079, 1522, 1520,   49, 2544
10080, 2164, 2918,  785, 3021
10081,  791,  785, 3014, 2164
10082, 2164, 3015,  791,  797
10083, 2164,  791, 3015, 3014
10084, 2970, 3021, 2164, 3014
10085, 2919,  796, 2918,  798
10086, 1500, 1834, 2336, 1883
10087, 2123, 2958, 2921,  746
10088, 1237, 1449, 1798, 1448
10089, 2367, 2538, 2366, 1671
10090, 3027, 2944, 2020,  636
10091, 2123, 2907,  750,  754
10092, 1055, 2958, 2123,  750
10093, 2858, 2967, 2119, 2122
10094, 1735, 1739, 1738, 3043
10095, 1736, 2921,  748,  754
10096, 2422, 2420, 2428,  227
10097, 1786, 2046, 2361, 2543
10098, 2421, 2032,  261,  263
10099, 2477, 2349, 2769, 2350
10100, 2400, 2001, 2470, 2398
10101, 2428,  227, 2420,  226
10102, 2428, 2624,  228,  226
10103, 2351, 2428,  228,  229
10104, 2351, 2428, 2505,  228
10105, 2351, 2616, 2592,  253
10106, 2351,  228, 2505,  254
10107, 2753, 2434, 2711, 2401
10108, 2400, 2036,   87, 2385
10109, 2036, 2385,   70,   87
10110, 2005, 2394, 2172, 2389
10111, 2470, 2404,  528,  185
10112, 2372, 2373, 1978,  178
10113, 1632, 2483, 1975, 1634
10114, 2743, 1970, 2360, 2472
10115, 2861, 2755, 2460, 2943
10116, 2573, 2535, 2575,  860
10117, 2457, 2573, 2575,   40
10118, 2573, 2575,   40,  860
10119, 2943,  861,   38,  865
10120, 1967, 2535, 1006, 2584
10121, 2943, 2755, 2485, 2457
10122, 2360, 2468,  955,  974
10123, 2457, 2755, 2485, 2455
10124,  167, 2474,  166, 2359
10125, 2261, 1832, 3009, 1836
10126, 1835, 3009, 1832, 1836
10127, 3009,  601, 1836,  602
10128, 3037,  600, 3009,  602
10129, 3009, 1624,  599,  593
10130, 2982, 2211, 2213, 2223
10131, 1197, 2775, 1141, 2646
10132, 1927, 2618, 2049, 2051
10133, 2561, 2308, 2982, 2213
10134, 3027, 2020, 2908, 1900
10135, 1558, 1565, 1919, 1998
10136, 2280, 2701, 2260,  282
10137, 1753, 2260, 1754, 2102
10138, 2812, 2185, 2246,  505
10139, 2513, 1859, 2586, 1649
10140, 2812, 2246,  288,  505
10141, 2280, 2339, 2701, 1520
10142, 2703, 2652, 2369, 1092
10143, 2703,  890, 2019,  892
10144, 2871, 2588,  904, 3020
10145, 1732, 2125, 2127, 2588
10146, 1584, 1957, 1962, 1428
10147, 1092,  909, 2369,  892
10148, 2870,  906,  902, 2176
10149, 2871,  897, 2870,  906
10150, 2870, 3050, 3019,  906
10151, 3050,  912, 2451,  915
10152, 2659, 2523, 2658,   59
10153, 2659, 2658,   97,   59
10154, 2382, 2529,   81, 2149
10155, 1939, 2529, 2382, 2149
10156, 2975, 3047,  597,  593
10157, 1853, 1677, 1856, 2823
10158, 2489, 2976, 2343, 2326
10159, 2066,  672, 2300, 2601
10160, 2653, 2596, 2303, 2985
10161, 2990,  562, 1625, 2987
10162, 1623,  541, 2354,  578
10163, 1623, 1832, 1624,  594
10164, 1623, 2990, 1886, 2354
10165, 1623,  579, 1832,  594
10166, 2489, 2976, 2999, 2343
10167, 2277, 2969, 2267, 3018
10168, 2136, 2969,  709, 3026
10169, 1373, 1558, 1470, 1559
10170, 2704, 2126, 2879, 2880
10171, 1729, 1333, 1329, 1873
10172, 2136, 3046,  708, 3006
10173, 2136, 3026,  709,  707
10174, 2165,  710, 3018,  734
10175, 1837, 2962, 1836, 2979
10176, 1748, 2591,  107,  282
10177, 2716,  108, 1748,  107
10178,  108,  103, 2716, 2756
10179, 2756, 1748,  108, 1754
10180, 2756, 1748, 1754, 1752
10181,  281,  108, 2260, 1754
10182, 3027, 2709, 2906, 2983
10183, 1950, 2702, 1749, 2591
10184, 1112, 2808, 2577, 2338
10185, 2577,  362, 2807,  374
10186, 2577, 2338,  357,  363
10187, 2301, 2872, 2212,  375
10188, 2899,  711, 2900, 2157
10189, 1320, 1614, 1942, 1327
10190,  635, 2899,  637,  994
10191, 2145, 3030,  624, 2488
10192, 2951, 2367,  843,  855
10193, 2951,  855, 2467, 2466
10194, 2538, 2952, 2951, 2366
10195, 3016,  805, 2162,  808
10196, 2589, 2588, 3020, 2019
10197, 3016,  987, 2918,  787
10198, 3016, 2948,  787, 2918
10199, 2606, 2021,  802,  786
10200, 2606,  807, 2605, 2162
10201, 2948,  787, 2918, 3021
10202, 2948,  786, 2606,  805
10203, 3027, 2944,  636,  996
10204, 1272, 2581, 2978,  953
10205, 2450,  914, 1472, 2451
10206, 3027, 2983,  996,  720
10207, 2154, 2942, 2377, 2836
10208, 2368, 2836, 2423, 2491
10209, 2564, 2955,   33,  979
10210, 1593, 2564, 3052, 2955
10211, 1272, 2581,  953,  962
10212, 2232, 2868,  497, 2097
10213, 3027, 2906, 2908, 2944
10214, 1528, 1354, 1353, 2038
10215, 2561, 2212, 2301, 2872
10216, 2195, 2194,  493, 2099
10217, 2981, 1005, 2232,   18
10218, 2195,  483, 2297,  477
10219, 2868, 2096,  471,  481
10220, 2868,  480, 2316,  497
10221, 2524, 2075, 1434, 1648
10222, 1769, 2356, 1924,  156
10223, 1682, 1679, 2532, 1493
10224, 2054, 2580, 2055, 1311
10225, 2863, 1770, 2063, 2776
10226, 1306, 1488, 1487, 2465
10227, 2931, 2866,  896, 2870
10228, 2117, 2522, 2746, 2806
10229, 2525, 2696,  250,  251
10230, 1900,  645, 2020,  639
10231, 2020, 2903,  634,  635
10232, 1616, 1902, 2903, 2997
10233, 2944,  635, 2020,  636
10234, 2020,  634, 1902,  639
10235, 1902, 3013,  638,  640
10236, 1674, 2366, 1673, 2814
10237, 1490, 1669, 1239, 1553
10238, 1962,  953, 1272, 2978
10239, 1962, 1378, 1958,  918
10240, 2994, 2469, 2564, 2955
10241, 2931, 2174, 2175,  895
10242, 2931, 2692, 2869, 1932
10243,  988,  866, 1088,  950
10244, 1378,  917, 1959,  918
10245, 1969, 1972, 2384, 1745
10246, 2410, 1976, 1971,  189
10247, 2444, 1745, 2384,  175
10248, 1551, 1978, 1976,  183
10249, 1971, 2056,  190,  188
10250, 2410,  189, 1971,  174
10251, 2384, 2427,  195,  190
10252, 2444,  175, 2384,  191
10253, 2444, 1745,  524, 1746
10254, 2511, 2444, 2475, 1115
10255, 2980, 3015,  995,  794
10256, 2980,  876,  867,  995
10257, 2159,  868,  997,  867
10258, 2811, 3015,  794,  997
10259, 1876, 1874, 2104, 1875
10260, 2104,  347, 1724,  291
10261, 2754,  347, 2104,    3
10262, 1291, 1752, 1748, 2716
10263, 2692, 2158, 2693, 2174
10264, 2353, 1873, 2754,    1
10265, 1876, 2754, 2104, 1873
10266, 1360, 2152, 2754, 2151
10267, 1163, 2656, 2959,  925
10268, 2501, 1389,  969,  933
10269, 2972, 2907, 2959,  758
10270, 2959,  758, 2907,  982
10271, 2931, 2692, 2158, 2869
10272, 2026, 2388, 2371, 2939
10273, 1163,  931, 2501, 2656
10274, 2090, 2344, 1921, 2501
10275, 1729, 2957, 2193, 2945
10276, 2054, 2461, 2525, 2391
10277, 2525, 2526,  250, 2462
10278, 2461, 2526, 2525, 2462
10279, 2931, 2174,  895,  893
10280, 2526,  257, 2054,  520
10281, 1311, 2054, 2272, 2055
10282, 2971, 3032,  923, 2849
10283, 1740, 3032, 2971, 2849
10284, 1810, 2971,  923, 2849
10285, 2982, 2244, 2217, 1082
10286, 1968, 2397, 2410, 1970
10287, 2410,  174, 1971, 1745
10288, 1415, 2584, 2576, 2791
10289, 2410,  183, 2397, 1976
10290, 1971, 1745,  190, 2384
10291, 2410, 1745, 1970,  173
10292, 2371,   27, 2650, 2388
10293, 2364, 2939, 1389,  969
10294, 2109, 2182, 2829, 2110
10295, 2026, 2388, 2939, 1389
10296, 2650, 2972, 2371, 2939
10297,  934, 2656,  926, 2959
10298,    2, 2650, 2972, 2256
10299,    2, 2371,   26, 2650
10300, 2501,  969, 2939,  931
10301, 1084, 2244, 1082, 1851
10302, 2650,  934, 2656,  972
10303, 2502, 3032,  923,  932
10304, 2502, 2503,  933,  928
10305, 2502,  923, 3032, 2849
10306, 3007,  706, 1203,  729
10307, 3007, 3026,  706,  730
10308, 3007, 2969,  730,  732
10309,  714, 2928,  717, 2167
10310, 2730, 2929, 2157, 2901
10311, 2927, 2111,  731, 2141
10312, 2090, 1163, 2656, 2959
10313, 1956, 2972, 2939, 2371
10314, 1084, 2233, 2244, 1851
10315, 2757, 2974, 2123, 2255
10316, 2757, 2972, 2371, 2256
10317, 2019, 3020,  905,  890
10318, 2019, 1092,  892,  908
10319, 2703,  892, 1092, 2369
10320, 2970, 3014, 2164, 3015
10321, 1408, 3019,  905, 3020
10322, 1408, 2019,  910, 2881
10323, 1355, 1934, 1357, 1963
10324, 1090, 1092, 2881, 2874
10325, 2125, 1890, 1889, 2016
10326, 1878, 1890,  887,  888
10327, 1703, 1699, 2809, 1656
10328, 2693, 2174,  818,  817
10329, 2867, 2917, 2695, 2918
10330,  798, 2695, 2918, 2867
10331, 2693, 2695, 1980,  815
10332, 2931, 2174,  893,  819
10333, 2866,  896, 2870,  898
10334, 2879,  992, 2866, 2880
10335,  987,  798, 2695, 2918
10336, 1614, 2899, 2901, 1615
10337, 3016, 2695,  987,  806
10338, 2871,  906, 2870, 3020
10339, 2880,  889, 2125,  877
10340, 3035, 2996,  703,  698
10341, 3048,  703, 2996,  693
10342, 3048, 3035,  705, 2805
10343, 3035, 1203,  705, 2805
10344, 3035, 1203,  704,  705
10345, 3034, 2996, 3035,  698
10346, 2839,  832, 2814, 2838
10347, 2820, 2952, 2839, 2154
10348, 1193, 2076, 2241, 2304
10349, 2762, 2965,  542, 2304
10350, 2244,  383, 2430, 2217
10351, 2316, 2745, 2868, 2232
10352, 2767, 2229, 2194, 2288
10353, 2076, 2228,   10,  379
10354, 1502, 1837, 1645, 1835
10355, 2304, 1083, 2076, 2762
10356, 2276, 2109, 1757, 2278
10357, 1082,   13, 2225,   12
10358, 2276, 2109, 2278, 2829
10359, 2998, 2979,  625,  623
10360, 2859,  622, 2322,  628
10361, 3028, 2903,  626, 2997
10362, 3028, 2998,  626,  985
10363, 2322, 2998,  625,  622
10364, 3030, 2998,  623, 2979
10365, 2321, 1883,  620,  587
10366, 2927, 1001, 2111, 2829
10367, 1360, 2754, 2168, 2151
10368, 2408,  224, 2048,  222
10369, 2048,  218, 2047,  217
10370, 2742, 2826,  225, 2624
10371,  218,  223, 2048, 2046
10372, 2426, 2048, 2047,  217
10373, 2414, 1771, 1767, 2044
10374, 2826, 2624,  226,  225
10375, 2426, 2048,  217,  222
10376, 1771,  212,  213,  214
10377, 2044, 2408,  212, 2409
10378, 1531, 2568, 2351, 2592
10379, 1531, 2351, 2689, 2592
10380, 2351, 2616,  254, 2505
10381, 2213, 2212,  377,  364
10382, 2213, 2212,  364, 2214
10383, 2872, 2228,  379,  375
10384,  377,  375,  363, 2212
10385, 1981, 2785, 1989, 2737
10386, 2308, 2872, 2228,  379
10387, 2213, 2872,  377, 2212
10388, 2301, 2577,  363, 2212
10389, 2213, 2872,  379,  377
10390, 2761, 2892, 2222, 2884
10391, 2340, 2763, 1601, 2634
10392, 2982, 1193, 1081, 2076
10393, 1460, 1459, 2617, 2546
10394, 1463, 1459, 1681, 1917
10395, 2437, 2729, 1870, 2747
10396, 1713, 2046, 2826, 2420
10397, 1765, 1771, 2356, 1763
10398, 1929, 2051,  143, 2618
10399, 1762, 1763, 1764, 1765
10400, 1822,  134, 2401,  133
10401, 1711, 2808, 2338,  329
10402, 1945, 1188, 1189, 1187
10403, 2795, 2802, 1140, 1947
10404, 2317, 2745, 1202, 1743
10405, 2802, 2700, 1453,  341
10406, 1672, 2365, 2949, 1673
10407, 1673, 2365,  810, 2366
10408, 1675, 2953, 2493, 1673
10409, 2735, 2697, 2739, 3051
10410, 1983, 1988, 1987, 2297
10411, 2768,  483, 2316,  480
10412, 2768, 2868,  471,  480
10413, 2561, 2308, 2872, 2228
10414, 2268, 1990, 2432,  459
10415, 1992, 2268, 1991, 1990
10416, 2760, 2449,  456, 2268
10417, 2276, 1320, 1757, 1912
10418, 1990,  459, 1991,  455
10419, 2886,  455, 1990, 1991
10420, 1990, 1989,  510,  460
10421, 1989,  510, 2286, 1990
10422, 1939, 2529, 2149, 2424
10423, 2676, 2535, 3033, 2466
10424, 2521, 2248, 2658, 2659
10425, 2510,   55, 2424, 2425
10426, 1695, 2750,  201,  197
10427, 2490, 2475, 2484,  200
10428, 2484, 2384,  191, 2475
10429, 2561, 1193, 2982, 2076
10430, 2509, 2484, 2475, 2384
10431, 2444, 2475,  176,  191
10432, 2444, 1745,  175,  524
10433, 2495, 1166, 1165, 1592
10434, 2600, 2288, 2289,  654
10435, 2602, 2285, 1005,  657
10436, 2600, 2590, 2291, 1709
10437, 1996, 2066, 2300, 2601
10438, 2602, 2300,  672, 2601
10439, 1892, 2241, 2984, 2250
10440, 2602, 3049, 1747, 2285
10441, 2870, 2176, 1932, 2844
10442, 2792, 2515, 2068,  306
10443, 1597, 2778, 1599, 2612
10444, 1221, 1749, 1211, 1563
10445, 1522, 1520, 2544, 1516
10446, 1948, 1947, 2635, 2636
10447, 2197,  302, 2198, 2199
10448, 2560, 2562, 1142, 2078
10449, 2437, 1663,  321,  301
10450, 1637, 1825, 2118, 2710
10451, 2416, 2698, 1312, 2612
10452, 1090, 1484, 1089, 1575
10453, 2830, 1385, 2108, 1694
10454, 3023, 3014,  793, 3022
10455, 3023, 3017,  790,  788
10456, 3023, 3017,  788, 3014
10457, 3023, 3014, 1654, 3017
10458, 3023,  781, 3022,  793
10459, 3023,  630, 2846,  781
10460, 2114, 3023, 3017,  790
10461, 2018, 2846, 2977,  619
10462, 2723, 2071,  148, 2547
10463, 2031, 2723,  110, 2544
10464, 1523, 1916, 2071, 2547
10465, 2071, 2216,  106, 2603
10466, 2221, 2702, 2269, 2216
10467, 2071, 2547,  139,  148
10468, 2773, 2204, 2778, 2329
10469, 2753, 2711, 2434, 2498
10470, 2511, 2564, 2444, 1115
10471, 2576,  498, 2189,   63
10472,   32, 1115,  524, 2564
10473, 2509, 1910, 2511, 2475
10474, 1331, 3005, 1330, 1333
10475, 1399, 1397,  763, 1881
10476, 1399,  588, 3012,  584
10477, 1399, 1881,  763,  589
10478, 1841, 2175, 1340, 2450
10479, 2830, 1385, 1694, 2358
10480, 1920, 2849, 2502, 3032
10481, 1215, 1214, 1620, 1622
10482, 1839, 1395, 1393, 1442
10483, 2090, 2656, 2939, 2972
10484, 1163, 2656,  925,  931
10485, 1163,  924, 3032,  932
10486, 2656, 2939,  972,  931
10487, 1750, 2759, 1751, 1752
10488, 2501, 2656,  931, 2939
10489, 1394, 1380, 1472, 2450
10490, 2368, 2189,   62, 2149
10491, 2423, 1760, 2425, 1755
10492, 2368, 2424, 2149,   64
10493, 2584, 2491, 2368,   42
10494, 2368, 2491,   64,   42
10495, 1582, 2570, 2471, 2572
10496, 2226, 2251,  556,  543
10497, 2985, 2987,  561,  556
10498, 2226,  543, 2303, 2251
10499, 1191, 1277, 1283, 1285
10500, 1529,  547, 2964,  560
10501, 2596, 2298, 2888,  559
10502, 2231, 2298,  559,  555
10503, 2595, 2985, 2987,  561
10504, 2780, 2789, 2665, 2331
10505, 2946, 2914,  591,  627
10506, 2176, 2844, 2451, 1841
10507, 2946, 1813,  779,  530
10508, 2860, 2977, 2946, 1787
10509, 2912, 2946, 2914,  591
10510, 2946, 1813, 1787,  779
10511, 1449, 1719, 1833, 2824
10512, 1383, 1694, 1385, 2358
10513, 1242, 2847, 2940, 2938
10514, 2847,  776, 2940, 2938
10515, 1281,  766, 2847, 1323
10516, 1242, 2940, 1243, 1245
10517, 1880, 1467, 3004, 1881
10518, 2561, 2308, 2228, 2076
10519, 1849, 1199, 1478, 1193
10520, 2129, 2288,  975,  653
10521, 2212,  375,  363, 2301
10522, 2241, 2228,  525,   10
10523, 2430, 2099, 2234,  475
10524, 2099, 2234,  475,  476
10525, 1851, 2099, 1955, 2194
10526, 2099,  477, 2234,  476
10527, 3048,  693, 2803, 2805
10528, 3048, 3035, 2996,  703
10529, 2841, 2803, 3048, 2996
10530, 2314,  571, 1534,  666
10531, 2889, 2231, 2298, 2596
10532, 2926, 2590, 2292, 2294
10533, 2665, 2331, 2789,  667
10534, 2930, 2780, 2722, 2789
10535, 3001, 2106,  569,  555
10536, 2653, 2303, 2596, 2888
10537, 2722, 2789,  663,  661
10538, 2789, 2331,  668,  667
10539, 2789,  659, 2293,  663
10540, 2157, 2153,  711, 2900
10541, 1616, 2020, 2903, 1902
10542, 3027, 2908, 2906, 2709
10543, 2899,  635, 2902, 2020
10544, 2900, 2140, 2157, 2153
10545, 2020, 1902,  634, 2903
10546, 2902, 2903, 2020,  635
10547, 2902, 2903,  635,  632
10548, 2194, 2288,   17,  975
10549, 1955, 2194, 2099,  474
10550, 2194, 2099,  474,  493
10551, 2915, 2194,  975, 2288
10552, 2195,   17, 2229,  483
10553, 2767, 1857, 2599, 2288
10554, 1083, 2888, 2323, 2965
10555, 1955, 2194,  474,   16
10556, 2463,  196, 1695, 1693
10557, 2463,  196, 1693,   29
10558, 2675, 2952, 2154, 2942
10559, 1349,  971, 1390, 2941
10560,   30,  198, 1349, 2463
10561, 2463,  198, 1117,  197
10562, 2370, 1390,  965, 2363
10563, 2370, 1390,  971,  965
10564, 2358, 2370,   29, 2363
10565, 1800, 1245, 2146, 2938
10566, 1383, 2363, 2358, 1389
10567, 2490, 2475,  200,  192
10568, 2664, 2526, 2462,  241
10569, 1761,  235, 2664,  236
10570, 2526,  241, 2626,  257
10571, 2526, 2054,  257, 2626
10572, 2526, 2462,  241,  250
10573, 1762, 2664, 1761, 2628
10574, 2078,  431, 2042, 2643
10575, 2077, 2078, 2643,  425
10576, 2944, 1614, 2415, 1616
10577, 2077, 2078,  421, 2287
10578, 2078, 2287,  422,  421
10579, 2078, 2042,  431,  433
10580, 2285, 1747, 2064, 3049
10581, 1608, 2085, 2632, 2566
10582, 2430, 2217, 2982, 2244
10583, 2362, 2241, 2302, 2984
10584, 2330,  550,  648, 1082
10585, 2561, 2241, 2076, 2228
10586, 2819, 2232,   19, 2097
10587, 1111, 2301, 2362, 1284
10588,  490, 2053, 2202, 2290
10589, 1592, 2564, 2469, 1746
10590, 2410,  183, 1976,  189
10591, 2572, 1581, 3042, 2446
10592, 1970,  173, 1745, 1746
10593, 2564, 3052,  979, 2581
10594, 2485,  865, 2460, 2943
10595, 1400, 1386, 1350, 1425
10596, 1571, 2202, 2103, 2818
10597, 2252, 2137, 2103, 2100
10598, 2137, 2103, 2253,   22
10599, 1629, 2487, 3030, 3028
10600, 2137, 2121,  680,   22
10601, 1273, 2645, 1472, 1394
10602, 2456, 2833, 2576, 2575
10603, 2576, 2368, 2189,  498
10604, 1920, 1170, 1921, 1905
10605, 2584,   42, 2368,  498
10606, 2112, 2141,  717,  722
10607, 1952, 2181, 2906, 2709
10608, 1647, 1835, 1836, 3009
10609, 2405, 1901, 1902, 3013
10610, 3027, 2908, 1979, 1900
10611, 2860, 2018, 2846, 2977
10612, 2908, 1901, 1900, 1902
10613, 2623, 2921, 2920, 1735
10614, 2114, 3017,  641,  790
10615, 3010, 3029,  870,  869
10616, 2835, 2779, 2631, 2627
10617, 2554, 2328, 2559,  243
10618, 2554, 2205,  389,  388
10619, 2559, 2328,  244,  243
10620, 2532, 2671,  515,  164
10621, 2328, 2626,  244,  255
10622, 2671, 2664, 2628,  242
10623, 2057,  149, 2779,  309
10624, 2328,  389, 2205,  401
10625, 1627,  245,  239,  238
10626, 2558, 2559, 2328, 2626
10627, 2029, 1626,  163, 2028
10628, 2328, 2553, 2205, 2554
10629, 2807, 2577, 2301, 2362
10630, 1978, 1976,  183,  188
10631, 2236, 1714, 1178, 2243
10632, 1780, 2004, 1785, 1781
10633, 1977, 1971, 1978, 2056
10634, 2056,  190, 2427, 1971
10635,  193, 2056,  190, 2427
10636, 2479,   72, 2385,   87
10637, 1907, 2034, 2381, 2190
10638, 1971,  190, 1745,  174
10639, 2961, 2144,  612,  606
10640, 2486, 2961, 2488, 2144
10641, 2961,  606, 2488, 2144
10642, 2132,  612,  598, 2961
10643,  609, 2132,  612,  598
10644, 2826,  226, 2428, 2420
10645, 2742,  224, 2048, 2409
10646, 2826, 2420,  220,  226
10647, 2046, 2826,  223, 2048
10648, 2407, 2044, 2408, 2426
10649, 2026, 1804, 2371, 2388
10650, 2742,  223, 2048,  224
10651, 1981, 1986, 1985, 1991
10652, 2429, 2297, 1985, 2234
10653,  523, 2707, 2898, 2700
10654, 2886,  470, 1988,  466
10655, 1235, 1956, 2026, 1804
10656, 1111, 2301, 2212, 2577
10657, 2441, 2737, 1988, 2096
10658, 2913,  629, 2977,  619
10659, 2913,  629, 1883, 2914
10660, 2913,  620, 1883,  629
10661, 2859, 2997,  622,  631
10662, 1628, 2859, 2997, 2998
10663, 2828, 2829, 1658, 2276
10664, 1202, 1559, 1470, 1744
10665, 3034, 2989,  697, 2999
10666, 3034, 3035,  704,  698
10667, 1897, 2249, 2139, 2299
10668, 1665, 2622, 2623, 2105
10669, 2999, 3035, 3031,  704
10670, 2999, 3046,  701, 3031
10671, 1884, 1801, 1800, 1802
10672, 1733, 2694, 1668, 1358
10673, 2816, 2817,  777, 1232
10674, 1965, 2605, 2608, 2162
10675, 2816,  803, 2608,  801
10676, 1162, 2816, 2605,  801
10677, 2856,  770, 1279, 1219
10678, 1852, 2169, 2142, 2187
10679, 1853, 2355, 2142, 2169
10680, 2858, 3036, 2966, 2122
10681, 2383,  534, 2142,  538
10682, 2235,    6, 2142,  534
10683, 1677, 2823, 2087, 1856
10684, 1536, 2785, 1144, 1143
10685, 2025, 1255, 2492, 2134
10686, 2576,   63, 2189, 2381
10687, 2576, 2381,   61,   63
10688, 2576, 2381, 2473,   61
10689, 2718, 2662,  319,  514
10690,   41, 2575,  498, 2584
10691, 2576,  498, 2584, 2368
10692, 2576, 1415, 2189, 2368
10693, 2485, 2460, 2468, 2500
10694, 2121, 2122, 2120,  684
10695, 2137, 2253, 2121,   22
10696, 1919, 2138, 2121, 2253
10697, 2026, 1385, 1389, 1384
10698,   22, 2220, 2138,  677
10699, 2121, 2122,  684,  677
10700, 2674, 2594, 2876, 2128
10701, 2765, 1438, 2815, 2818
10702, 1868, 2516, 2718, 1867
10703, 2252, 2904, 2137, 2100
10704, 1380, 2774, 2450, 1666
10705, 3024, 1472, 1273,  948
10706, 1342, 1010,  826, 2332
10707, 1271, 2571,  951, 2645
10708, 1271, 3052,  952, 3042
10709, 1581, 2571, 2570, 2572
10710, 1581, 1271, 2572, 3042
10711, 2570,  946, 2387,  939
10712,  251, 2615,  256, 2054
10713, 1809, 2687, 2565, 2563
10714, 2615, 2580,  259,  256
10715, 2689, 2615, 2616, 2505
10716, 2461, 2526, 2626, 2054
10717, 1570, 2317, 2318, 2320
10718, 2922, 2853, 2923,  437
10719, 2638, 2737, 2101,  468
10720, 2101, 2922,  437, 2853
10721, 2737,  471, 1988, 2096
10722, 2638, 2922, 2042,  434
10723, 2638, 1989,  433, 2042
10724, 1957, 1962, 1376, 1378
10725, 2875, 2352, 2949, 2583
10726, 3024, 1472,  914, 2451
10727, 3024, 1958, 2451,  915
10728, 2081, 2800, 2699, 2718
10729, 1007, 1666,  903,  991
10730, 2266, 1658, 2828,  740
10731, 1658,  735, 2969,  732
10732, 1658, 2969,  735, 2267
10733, 2266,  646, 2275, 2270
10734, 1997, 1996, 1995, 2274
10735, 1658, 2828,  740,  737
10736, 2794, 2516, 2947, 2897
10737, 2927, 3007,  732, 2969
10738, 1941, 2927, 2928, 2141
10739,  959,  862, 2468, 2485
10740, 2468, 2485, 2474,  959
10741, 1073, 1338, 1797, 1344
10742, 2994, 2955, 1593, 1585
10743, 2834, 2457, 2573, 2575
10744, 2474, 2472,   35,  166
10745, 2360,  492, 1970,   34
10746, 2469,  173, 1746,   33
10747, 2739,  851, 2697,  853
10748, 2798, 2468, 2360, 2446
10749, 1510, 2018, 3022, 3023
10750, 2387, 2571, 2645,  936
10751, 2683, 2570, 2387,  939
10752, 2571,  946, 2572,  960
10753, 2571, 2645,  936,  951
10754, 1583, 2387, 2571, 2645
10755, 1333, 2950, 2988, 2168
10756, 1798, 2093, 1399, 3012
10757, 2094, 2168,  532, 2169
10758, 2661, 2094, 2169, 2168
10759, 2093,  584, 3012,  577
10760, 2276, 2111, 2208, 2109
10761, 1629, 3028, 3030, 2998
10762, 2486, 2488, 2145, 2144
10763, 2845, 2803, 2116, 2805
10764, 1615, 2145, 3028, 2903
10765, 3030,  624, 2488,  605
10766, 3030, 2998,  985,  623
10767, 2057, 2779, 2627,  309
10768, 2546,  138, 2520,  300
10769, 2779,  307,  312, 2631
10770, 2779,  307, 2631, 2627
10771, 1495, 2614,  162,  157
10772, 1460, 2546, 2617, 2547
10773, 2580, 2391, 1311, 2054
10774,  309, 2779,  307,  312
10775, 1776, 1189, 1944, 1947
10776, 1821, 2401,  134,  131
10777,  131, 2058,  117,  128
10778, 2044,  209,  210,  205
10779, 2408, 2409,  224,  212
10780, 2188, 2447, 1908, 2190
10781, 2058, 2041, 1348,  117
10782, 1938, 2423, 2424, 1939
10783, 2356,  234, 1771,  211
10784, 2147, 2828,  737,  739
10785, 2147,  727, 2655,  885
10786,  738, 2829,  737, 2851
10787, 2851,  883, 1858, 2655
10788, 1099, 1101, 1100, 1944
10789, 2110,  725, 2852,  736
10790, 2732,  690, 2116, 2803
10791, 1599, 2771,  428,  411
10792, 1599,  410, 2612,  403
10793, 1597, 1599, 2778, 2770
10794, 2264, 1599, 2771,  428
10795, 2634, 2264, 2771,  428
10796, 1896, 2139, 1625, 1624
10797, 2299,  595, 2975,  597
10798, 2858, 2105, 2967, 2966
10799, 2274, 3036, 2138, 2556
10800, 3037,  605, 2962, 3002
10801, 2653, 2303, 2251, 2985
10802, 2672, 2089, 2989, 2331
10803, 2010, 3002, 2961, 2299
10804, 2010, 1897, 3037, 2299
10805, 2975, 2139, 3047, 1624
10806, 1856, 2355, 2995, 2354
10807, 1897, 2139, 3047, 2299
10808, 1897, 3047, 2139, 1624
10809, 1534, 2968, 2133,  570
10810, 3047,  593, 3009,  600
10811, 2041, 2447,  114, 2389
10812, 2447,   80, 1899,  114
10813, 2117, 2124, 2014, 1899
10814, 2124, 2041, 2447, 1899
10815, 1826, 2585, 1825, 2058
10816, 2791, 1907, 2481, 2576
10817, 2188,   80, 2447,   76
10818, 1895, 2594, 2128, 2876
10819, 2987, 2139, 1625, 2990
10820, 2595,  561, 2139,  595
10821, 2674, 2876, 2133, 2128
10822, 2596,  557, 2595,  558
10823, 2595, 2985,  561,  557
10824, 2769,  273, 2350,  276
10825, 2769, 2350,  267, 2062
10826, 1648, 2738, 2418, 2349
10827, 2350,  271, 2349,  276
10828, 2350,  267, 2062,  271
10829, 2769, 2534,  273, 2629
10830, 2284, 3017, 2114, 3023
10831, 1901,  638, 1902, 3013
10832, 2208, 2906, 2112, 2900
10833, 2276, 2829, 2927, 2111
10834, 1703, 2809, 2159, 2810
10835, 2046, 2543,  216,  220
10836, 2046, 2543, 2047,  216
10837, 1531, 2351, 2428, 2505
10838, 1071, 2108, 1072, 1074
10839, 2881, 1845, 2589, 2651
10840, 1408,  916, 2881,  910
10841, 1408, 3019,  907,  905
10842, 1408, 2019, 3020,  905
10843, 1960,  911, 2874, 2881
10844, 2843, 1959, 2881, 1844
10845, 2887, 2443, 2154, 3044
10846, 1593, 2564, 2581, 3052
10847, 1760, 2154, 2443, 2379
10848, 2954, 1378, 1960, 1377
10849, 1495,  162, 2057,  160
10850, 1495, 2057, 2627,  160
10851, 1312, 2698, 2055, 2347
10852, 2794, 2209,  334, 2517
10853, 1627,  163, 2028,  238
10854, 1750, 2518, 2759, 2519
10855, 1876, 2754, 2152, 2104
10856, 1877, 2759,   52,   91
10857, 2193, 1877, 2518,   52
10858, 1288, 2193, 2518, 2257
10859, 2193,  828, 2945, 2957
10860, 1294, 1752, 1751, 1754
10861, 1877, 2759,   91,  100
10862, 1876, 2104, 1874, 1873
10863, 1287, 1873, 1874, 1877
10864, 1172, 1176, 1175, 1174
10865, 2469,  964, 2955, 2446
10866, 1970, 2469,   34,  173
10867, 2469,   33, 2955,  964
10868, 2455, 2456, 2833, 2473
10869, 2360, 2474, 2472,   35
10870, 2686, 2740, 2739,  854
10871, 2685, 2894, 2740,  847
10872, 1583, 2464, 1581, 2570
10873, 2681,  937, 2682,  938
10874, 2570, 2387,  946, 2571
10875, 2774,  940, 2387,  936
10876, 2387,  946, 2571,  936
10877, 2208, 1941, 2929, 2141
10878, 2182, 2110, 2851, 2829
10879, 2527, 3010, 1999, 2059
10880, 1501, 1883, 2913, 2322
10881, 1189, 1139, 2802, 1140
10882, 2405, 2114, 1901, 3013
10883, 2859,  630, 2114,  631
10884, 2794,  395, 2718,  319
10885, 2130,  609, 2731,  610
10886, 2731,  609, 2132,  612
10887, 2731,  612, 2961, 2144
10888, 2731, 2144,  615,  612
10889, 1325, 1154, 1830, 1943
10890, 2925, 1203, 2928, 3007
10891, 2781, 2254, 2088,  993
10892, 2781, 2782,  993, 2088
10893, 2728, 2732,  690, 2116
10894, 1333, 2950, 2754, 1873
10895, 2011, 2950, 2754,  980
10896,    1, 2193,  499, 2353
10897, 2353, 2104,  290,    3
10898, 2733,  508, 2186,  349
10899, 1069, 1067,  348, 2170
10900, 2184, 2733,  350,  508
10901, 2718, 2342, 2081, 2800
10902, 2819, 1409,   20, 2557
10903, 2064, 2557, 2819, 2285
10904, 2819,   19, 2232, 2285
10905, 1852, 2230, 2187, 2142
10906, 1747, 2232, 2819, 2097
10907, 2819,  482, 2097,   19
10908, 1966, 1357, 1358, 2694
10909, 3051, 2894,  837,  852
10910, 2572, 1581, 1582, 2570
10911, 2457, 2573,   40,  973
10912, 2790, 2755, 2834, 2833
10913, 2697, 2163, 2573,  859
10914, 2582, 2697, 3051,  846
10915, 1345, 2352, 2494, 2953
10916, 1582, 2471, 2446, 2572
10917, 1472,  941, 2645,  947
10918, 3033,  844, 2574, 2466
10919, 2718, 2947, 2800,  395
10920, 1672, 2949, 2365, 2574
10921, 2464,  944, 2471, 2570
10922, 1165, 2495, 1592, 1593
10923, 2949, 2365, 2574,  840
10924, 3024,  914, 1472,  948
10925, 1671, 2367, 2365, 2366
10926, 2352, 2583,  841, 2949
10927, 2574,  844, 2365, 2367
10928, 2496,  124, 2498,  122
10929, 2496, 2498,  116,  122
10930, 2117, 2806, 2545, 2522
10931, 2746, 2522,  118,  112
10932, 2435, 2799, 1525, 2611
10933, 1739, 3043, 2920,  752
10934, 2165, 1739, 3041,  752
10935, 3045, 1739,  752, 1738
10936, 3045,  755, 1742, 1738
10937, 2165,  744, 3041, 3006
10938, 3045, 2135, 1739, 1742
10939,  753, 3043,  748,  754
10940, 2858, 2966, 2967, 2122
10941, 3004,  766, 1881,  762
10942, 3004, 2847,  766,  775
10943, 3004, 1467,  768,  762
10944, 3004, 2847,  775,  768
10945, 2068, 2198,  302, 2199
10946, 2783, 2792,  324, 1947
10947, 2335, 2783, 2068, 2437
10948, 2437, 2068, 2198,  305
10949, 2068, 2199,  302,  306
10950, 1774, 1808, 1949, 1775
10951, 2800,  511, 2796,  396
10952, 2560, 2077, 2078, 2643
10953, 2680,  514, 2718, 2911
10954, 2948, 2606,  786, 2021
10955, 1699, 2970, 1657, 2706
10956, 2158, 2879,  894, 2866
10957, 2871, 2880,  889, 2588
10958, 2651, 2703, 2019, 1092
10959, 1657, 1717, 2948, 3021
10960, 2787, 2053, 2786, 2318
10961, 1919, 1743, 2202, 1573
10962, 2276, 2111, 2109, 2829
10963, 2053, 2098,  482,  473
10964, 2290,  490, 2053,  482
10965, 2290,   20, 2819, 1409
10966, 1570, 1202, 1470, 1573
10967, 2357, 1666,  899, 1007
10968, 2357, 1666, 1007,  938
10969, 1347, 2894,  847,  842
10970, 2682, 2357,  938, 1666
10971, 2332,  824, 2494, 1004
10972, 2932, 1341, 2332, 2508
10973, 2681,  937, 2686, 2683
10974, 2711,  124, 2498, 2497
10975, 2711, 2498,  125, 2434
10976, 2497, 2498, 2710, 2496
10977, 1927, 2711, 2618, 1929
10978, 2747, 2339, 1600, 2729
10979, 1927, 2799, 2049, 2618
10980, 2698, 2579, 2055,  258
10981, 2778, 2612,  404,  403
10982, 2778, 2329, 1595, 2773
10983, 1655, 1510, 1654, 2284
10984, 2877,  995,  876, 2980
10985, 2919, 2164,  796,  797
10986, 2919, 2164, 2918,  796
10987, 1272,  962, 3052, 2581
10988, 1271, 2645,  951,  947
10989, 1427, 1426, 1428, 1584
10990, 1272, 3052,  962,  952
10991, 1918, 1260, 1261, 1842
10992, 2910, 2378, 2978, 2581
10993, 1962, 1272,  949, 1273
10994, 1272, 1273,  952,  949
10995, 1271, 1272,  952, 3052
10996, 1672, 2583, 2949, 2574
10997, 2949, 2365,  840,  839
10998,  839,  813, 2949, 1673
10999,  943, 2464,  942, 2686
11000,  842, 2352,  841,  814
11001, 2352,  837, 2894,  842
11002, 1583, 1271, 1395, 2645
11003, 2662,  315, 2515,  317
11004, 2515, 2199,  304, 2633
11005, 2515, 2199,  306,  304
11006, 2630,  310, 2631, 2633
11007, 1809, 2562, 2687, 2563
11008, 2639, 2338,  359,  358
11009, 2639, 2212,  359, 2338
11010, 2569, 2890, 2639, 2212
11011, 1710, 2639, 2882,  360
11012, 1143, 2286, 1990, 1989
11013, 2886,  455, 1987,  470
11014, 2931, 1932, 2869, 2866
11015, 2886, 1988,  470, 1987
11016, 1981, 1988, 2886, 1987
11017, 2886, 2737,  467, 1988
11018, 2886,  460, 1990,  455
11019, 1981, 1990, 2886, 1989
11020,   27, 2183,  202, 2388
11021, 2931, 2158,  819,  893
11022, 1249,   28, 2388, 2358
11023, 2364, 2358, 2388,   28
11024,   26, 2371,   27, 2650
11025, 2364, 2939,  969,  972
11026, 2364, 2358, 1000, 2363
11027, 1880, 2848, 1467, 1881
11028, 1729, 2648, 2956, 2957
11029, 2650, 2939, 2388,  972
11030, 2698,  405, 2691, 2579
11031, 2867, 2693, 2692, 2158
11032, 2258,  441, 2264,  428
11033, 2698,  404, 2612,  400
11034,  400, 2698, 2821, 2612
11035, 2698, 2579,  258,  405
11036, 1067, 2170, 1069, 2504
11037, 1597, 1599, 2264, 2612
11038, 1749, 2716, 1748, 2591
11039, 2057, 2614, 2617,  150
11040, 1944, 2700, 2453, 2831
11041, 1456, 1523, 1524, 2060
11042, 1864, 2546, 2520, 2779
11043, 1681, 2627, 1495, 2057
11044, 2559, 2626,  241,  244
11045, 2664,  235, 2628,  242
11046, 1944, 1101, 2700, 1710
11047, 2427, 2384, 2509, 1972
11048, 1888, 2413,  153,  154
11049, 2559, 2328, 2626,  244
11050, 2458, 2671, 2664, 2628
11051, 1147, 1149, 1586, 1322
11052, 2090, 2959, 2656, 2972
11053, 1921, 1389, 2501, 2503
11054, 2501, 2939,  969, 1389
11055, 2501, 2502,  933,  932
11056, 1163, 2502, 2501,  932
11057, 2090, 2972, 2907, 2959
11058, 1848, 1538, 1274, 2211
11059, 2239, 1985,  464,  463
11060,  523,  361, 2882,  367
11061,  819, 2931, 2174, 2158
11062, 1143, 2042, 2286, 1989
11063, 2884, 2882,  356,  361
11064, 2224,  356, 2890,  365
11065, 2224,  365, 2890, 2214
11066, 2211, 2223, 2214, 2213
11067, 1743, 2290, 2202, 2053
11068, 2916, 2898, 2895, 2882
11069, 2760, 2892, 1984, 2222
11070, 2760, 2222, 2761, 2892
11071, 2783, 2792, 2068,  324
11072, 1949, 2792, 2783, 1947
11073, 1182, 2895, 1101, 1710
11074, 2680, 2718, 1868, 2081
11075, 2792,  324, 1947,  327
11076, 2792,  306, 2068,  324
11077, 2797, 2517, 2792,  325
11078, 2360, 2468,  974, 2446
11079, 2460, 2862, 2943,  864
11080, 2862, 2697, 2943,  864
11081,  862, 2468, 2485, 2460
11082, 2468,  959, 2474,  955
11083, 2294, 2325,  669,  675
11084, 2249,  598, 2299, 2132
11085, 2926, 2293, 2780, 2294
11086, 2249, 2299,  598,  595
11087, 2128, 2595,  595,  563
11088, 2249,  595, 2595, 2139
11089, 2394, 2041,  115, 2389
11090, 2395,  126,   89,  127
11091,  215, 2555, 2003,  208
11092, 2033, 2172, 2171, 2399
11093, 1712, 2742, 2624, 2826
11094, 1899, 2124, 2041, 1348
11095, 1878, 1891, 1890,  888
11096, 3011, 1890,  873,  878
11097, 2125,  887, 1890,  878
11098, 2703, 2369, 1891,  892
11099, 1516, 1524, 2544, 1522
11100, 1524,  298, 2279,  303
11101, 1563, 2339, 2701, 1562
11102, 1524,  146, 2544,  298
11103, 1523, 1524, 2060, 2544
11104, 1524,  303, 2198,  299
11105,  381, 2217,  383, 2244
11106, 1081, 2308, 2076,   11
11107, 2429, 2239, 2234, 1985
11108, 1851, 1857, 2915, 2330
11109, 3033, 2535, 2573,  860
11110, 1967, 1006, 2535,  856
11111, 2535, 2575,  860,   41
11112, 3033, 2163,  858,  860
11113, 3033, 2574,  844,  858
11114, 2676, 2535, 2466, 2677
11115, 1910, 2490, 2475, 2484
11116, 2275, 2828,  739,  740
11117, 2266, 2275,  740, 2828
11118, 2277, 2969, 2927, 1658
11119, 2283, 2275, 2266, 2828
11120, 2276, 2829, 2278, 2828
11121, 1827, 2275,  886, 2270
11122, 2147,  885, 1827,  739
11123, 2147,  727, 2851, 2655
11124, 2147, 2655, 1827,  885
11125, 1612, 2658, 2659, 2523
11126, 1531, 1337, 1530, 1344
11127, 1935, 2424, 2659, 2529
11128, 1927, 2711, 2753, 2710
11129, 1516, 1521, 1520, 1563
11130, 2060, 2520, 2546,  138
11131, 2546, 2617, 2547,  147
11132, 2546, 2779,  300, 2520
11133, 2455, 2386,   67,  496
11134, 2982, 2076, 1081, 2308
11135, 1081, 2308,   11,  494
11136, 2060, 2544, 1524,  146
11137, 1081, 2308,  494, 2217
11138, 2546, 2617,  147,  149
11139, 1532, 2525, 2863, 1299
11140,  816, 2156,  815, 1980
11141, 1964,  808, 2162,  812
11142, 1964, 1980, 2156,  816
11143, 1964, 2162, 2493,  812
11144, 2932, 1340,  899, 1342
11145, 2156,  815, 1980, 2695
11146, 2156,  815, 2695,  806
11147, 2704, 2158, 2869, 2879
11148, 1701, 2160, 2531, 2527
11149, 2693,  818, 2174,  819
11150, 2604, 2948, 2021, 2606
11151, 2588, 3020,  890,  904
11152, 1878,  887, 2588,  890
11153, 2125, 2973,  877,  878
11154, 2880, 2125, 2973,  877
11155, 1878, 1889, 1891, 2703
11156, 1814, 2565, 2678, 2342
11157, 1562, 2339, 2701, 2937
11158, 1981, 2886, 1988, 2737
11159, 2339, 1521, 1563, 1520
11160, 2258, 2634, 2763,  446
11161, 2148, 2188, 2190,   76
11162, 2190,   77, 2390,   78
11163, 2148,   78, 2381,   63
11164, 2188, 2447, 2190,   76
11165, 2190,   77, 2447, 2390
11166, 1908, 2189, 1907, 1415
11167, 2033, 2399, 2036, 2035
11168, 2035,   78, 2390,   74
11169, 2035,   65, 2381,   78
11170, 2148, 2189, 2149,   62
11171,  171, 1552,  170,  169
11172, 2479, 1552,  168,  182
11173, 1552, 2397, 2472,  171
11174, 1978, 1971, 1976,  188
11175, 2743, 2397, 1970, 2472
11176, 1968, 2397, 1551, 1976
11177, 2376, 2190, 2447, 2390
11178, 1523, 2071, 2723, 2547
11179, 2723, 2544,  146,  110
11180, 2060, 2723, 2544,  146
11181, 2723, 2071,  101,  148
11182, 2031, 2723, 2071,  101
11183, 1523, 2060, 2723, 2544
11184, 1530, 1337, 2592, 2312
11185, 1846, 2269, 2071, 2216
11186, 2558, 2554, 2328, 2559
11187, 1398,  763, 1397,  590
11188, 1398, 1397, 2912,  590
11189, 2336, 1398, 2912,  590
11190, 2336, 1398,  588, 2262
11191, 2262, 2336,  583,  588
11192, 1398, 1399, 1397,  763
11193, 1396, 3012, 1398, 2262
11194, 1770, 2063, 1764, 2462
11195, 2063, 2525,  250, 2462
11196, 2063, 2409,  214,  224
11197, 1299, 2525, 2063, 2462
11198, 2999,  701, 3046, 2343
11199, 2999, 2976,  697,  701
11200, 1864, 2779, 1459, 2546
11201, 2197, 2779,  300,  312
11202, 2197,  300, 2779, 2520
11203, 1287, 2193, 1877, 2518
11204, 1728, 2193, 2257, 2945
11205, 2353, 2193, 1873,    1
11206, 2193, 1877,   52,  499
11207, 2011,   48, 2957,  771
11208, 2380, 2035,   65, 2381
11209, 2455, 2386, 2551,   67
11210, 2035, 2190,   78, 2381
11211, 2399, 2036, 2035,   79
11212, 2386, 2385, 2480, 2551
11213, 2380,   65, 2035,   79
11214, 2231, 2128,  563, 2595
11215, 2725,  565, 3001,  569
11216, 2964, 2298,  546, 2888
11217, 2926, 2293, 2294, 2292
11218, 2876, 2133, 2128, 2249
11219, 2964,  546, 2298,  560
11220, 2927, 1658, 2969,  732
11221, 1344, 2428, 2422, 2420
11222, 1531, 1344, 2428, 2422
11223, 1338, 2422, 2568, 2032
11224, 2675, 2836, 2154, 1759
11225, 2213,  379, 2308,  378
11226, 2308,  494, 2217,  382
11227, 2223,  378, 2308,  382
11228, 2429, 2222, 1848, 2430
11229, 2308, 2076,   11,  379
11230, 1081,   12, 2217,  494
11231, 2573,  973, 2943,  863
11232, 2573, 2163,  860,  859
11233, 2697,  863, 2573, 2943
11234, 1429, 1376, 1386, 1428
11235, 2802, 2700,  341,  333
11236,  523, 2882, 1710, 2700
11237, 2700,  523,  333, 1710
11238, 2441, 1983, 2766, 1988
11239, 2935, 2085, 2642, 2923
11240, 2825, 1895, 1897, 2249
11241,  332, 2639, 1711, 1710
11242, 2825, 2876, 1895, 2249
11243, 1710, 2639,  360,  332
11244, 1710,  360, 2882,  361
11245, 1710,  523,  333,  361
11246, 1142, 2078, 2286, 2042
11247, 1451, 1453,  341,  342
11248, 2352,  841,  814, 2953
11249, 1931, 2023, 2587, 1791
11250, 2953, 2949,  841,  813
11251, 1394, 2450, 1841, 1340
11252, 2825, 3000, 2132, 2961
11253,  811, 2493,  813, 1673
11254, 1828, 1154, 1152, 2893
11255,  813, 2949, 1673, 2953
11256, 1957, 1962, 1958, 1273
11257, 3051,  837, 2583,  846
11258, 2582, 2574,  845,  840
11259, 2583,  841, 2949,  840
11260, 2582, 2574, 2163,  845
11261, 2582, 3051, 2583,  846
11262, 1346, 1393, 1381, 1580
11263, 2537, 2574, 2582, 2583
11264, 2713, 2311,  552,  547
11265, 2964,  546, 2965, 2888
11266, 2323, 2964, 2888, 2298
11267, 1529, 2964, 2298,  560
11268, 2294, 2292,  664,  669
11269, 2480, 2380, 2035, 2036
11270, 2380, 2381,   65, 2473
11271, 2380,   79, 2035, 2036
11272, 2373,  509, 2396,  215
11273,   72, 2385,   73, 2479
11274, 2397, 1970,  492,  172
11275, 2540, 2372,  182,  181
11276,  172, 2410,  183, 2397
11277, 2373, 1978,  178,  194
11278, 2470,  181, 2540,  179
11279, 1732, 2589, 2588, 2127
11280, 1841, 2450, 2176, 2175
11281, 2176,  906,  902,  912
11282, 1347, 1004, 2352,  842
11283, 2825, 2132, 2876, 2249
11284, 1340, 2450,  903, 1666
11285, 2844, 3050, 2451, 1844
11286, 2176, 2451,  912,  914
11287, 2450, 2176,  903,  914
11288, 1885, 2251, 2295, 2990
11289, 2991, 2990,  541, 2354
11290, 2251, 2990,  562, 2991
11291, 2295,  545, 2319,  536
11292, 2250,  545, 2295, 2251
11293, 1885, 2251, 2250, 2295
11294, 1029, 1667, 1799, 1669
11295, 1894, 2984, 1893, 2219
11296, 2769,  276, 2586,  273
11297, 2769, 2062,  267, 2534
11298,  276,  440, 2349, 2586
11299, 1418, 1419, 1225, 1382
11300, 2586, 1859,  444, 2067
11301, 2825, 3000, 2131, 2132
11302, 1455, 1304, 1460, 1463
11303, 2752, 2046, 2047, 2048
11304, 2406, 1821, 2058, 2434
11305, 1713, 2420, 2826, 2428
11306, 2417, 1929,  136,  133
11307, 2044,  212,  213, 1771
11308, 3005,  581, 2956,  760
11309, 1944, 2831, 1453, 2700
11310, 2660, 2093, 2094, 2988
11311, 1882, 2093, 3005, 2848
11312, 2648, 2848,  981, 1467
11313, 1729, 2649, 2648, 2957
11314, 1331, 3005, 2648, 2848
11315, 1944, 1710, 1139, 1101
11316, 2930, 2722,  661, 2789
11317, 1083, 2965, 2304, 2888
11318, 2227, 2129,  651, 2293
11319, 2578, 1892, 2303, 2304
11320, 2981, 2232, 1005, 2602
11321, 2600, 2602, 1005,  656
11322, 2599, 2600, 2981, 2288
11323, 2981,   18, 2232, 2229
11324, 2981, 2229,  654,   18
11325, 2600,  654, 2289,  655
11326, 2315, 1851, 1192, 1476
11327, 2766, 1988, 2297, 2768
11328, 1818, 1756, 1817, 2024
11329, 2250, 2303, 2304,  978
11330, 2245, 2241, 2228,  525
11331, 1731, 2853, 2934, 2922
11332, 2984,    8, 2319,  545
11333, 2984, 2302, 2238,    8
11334, 3028, 2998, 2997,  626
11335, 3028,  985, 3030, 2998
11336, 1613, 3028, 2998, 2997
11337, 3028,  626, 2903,  632
11338, 3028, 3030,  985,  624
11339, 2902,  633, 2145,  632
11340, 1615, 2726, 2901, 2727
11341, 1601, 2264, 1608, 2771
11342, 1143, 1142, 2286, 2042
11343, 1776, 1452, 2797, 1453
11344, 1870, 2747, 2729, 1521
11345, 2178,  830, 3044, 2443
11346, 2635, 2065, 2636,  320
11347, 2437, 2279, 2729, 1600
11348, 2772,  406, 2679, 2273
11349, 2200, 2688, 2796,  511
11350, 2082,  397, 2679, 2204
11351, 2516, 2515, 2333, 2334
11352, 2203, 2082, 2079, 2679
11353, 2796, 2273, 2679,  408
11354, 2679, 2273,  406,  408
11355, 2082, 2204,  392,  397
11356, 2082, 2204, 2205,  392
11357, 1680, 1577, 1576, 1686
11358, 2794,  319, 2662,  317
11359, 2016, 2015, 2531, 3029
11360, 2016, 1702, 1734, 1732
11361, 2160, 2531, 2161, 2530
11362, 3011, 3029,  869,  873
11363, 3011, 2973,  878,  872
11364, 3011, 2125,  878, 2973
11365, 3017, 1979, 2810, 1901
11366, 2125,  889, 2588,  887
11367, 2706, 1699, 2705, 2704
11368, 2421, 2484,  200, 2750
11369, 2421,  200, 2484,  221
11370, 2567, 2484, 2421, 2750
11371, 2421,  227, 2422,  263
11372, 2421,  263, 2422, 2032
11373, 1797, 2361, 2421, 2484
11374, 2638, 2737,  468,  467
11375, 2922,  435, 2642,  434
11376, 2085, 2923, 2764,  430
11377, 2952, 2839, 2154,  835
11378, 2638, 2101, 2922,  437
11379, 2085, 2923,  430,  435
11380, 2912, 1883, 1501, 1500
11381, 2680,  316, 2630, 2662
11382, 2079,  396, 2679,  397
11383, 1514, 1508, 1499, 1501
11384, 2896, 2209, 2084, 2897
11385, 2796, 2079,  396, 2679
11386, 2841, 3035, 2963, 2996
11387, 2084, 2947, 2794, 2201
11388, 3000, 2144, 2731, 2961
11389, 2928,  731, 2927, 3007
11390, 2600, 2981, 1005, 2602
11391, 2600, 2981,  654, 1005
11392, 2600,  654, 2981, 2288
11393, 2600,  671, 2601,  656
11394, 2767, 2599, 2232, 2981
11395, 2632,  411, 2771, 2770
11396, 2632, 2770,  409,  411
11397, 2632, 2641,  424,  409
11398, 2632,  409, 2273, 2641
11399, 2896, 2517, 1776, 1452
11400, 2708, 2085, 2218, 2642
11401, 2566, 2273, 2632, 2770
11402, 2913, 2322,  620,  628
11403, 2083,  393, 2699,  388
11404, 2554,  388, 2082, 2205
11405, 2800,  398, 2699, 2911
11406, 2699, 2079,  391,  398
11407, 2082, 2205,  388,  392
11408, 2082, 2079,  397,  391
11409, 1867, 2630, 2633, 2662
11410, 1761, 2462, 1764,  236
11411, 1761, 1763, 2628,  237
11412, 1908, 2376, 2447, 2014
11413, 1761, 2628,  235,  237
11414, 1761, 2628, 2664,  235
11415, 2413, 2051, 2050,  145
11416, 2446, 2798, 1582, 1585
11417, 2843, 1090, 1845, 2881
11418, 2839, 2154,  835, 2178
11419, 2178, 2443, 2154,  829
11420, 1380, 2645, 2774, 2387
11421, 1584, 1271, 3052, 1272
11422, 2178, 3044,  830,  831
11423, 2820, 2154, 1759, 2952
11424, 1271,  960, 2571, 2572
11425, 1979, 1901,  641,  642
11426, 1900, 1902,  638,  639
11427, 3027, 2944,  996, 2983
11428, 2405, 3013, 2859, 2114
11429, 1901, 2114,  643, 3013
11430, 1901,  643, 2114,  641
11431, 2709, 2983, 2059, 1999
11432, 1900, 1979,  642, 1901
11433, 1627, 1626,  518,  164
11434, 1682, 1493, 1888, 1494
11435, 1684, 2029, 1626, 2627
11436, 1626,  161, 1495,  160
11437, 1493, 1494,  157,  158
11438, 1682, 1681, 1495, 1917
11439, 1495, 2057,  162, 2614
11440, 1459, 2546, 2057, 2617
11441, 1686, 2559, 2671, 2070
11442, 1828, 1829, 1830, 2845
11443, 1583, 2571, 1581, 1271
11444, 2774, 1666,  940,  991
11445, 1380, 1472, 2774, 2645
11446, 1672, 2953, 1673, 2949
11447, 1611, 2282, 2438, 2439
11448, 2438,   57, 2282, 2523
11449, 2510,   53, 2438,   57
11450, 2438, 2439,   45, 2379
11451, 2410,  173, 1970,  172
11452, 2410,  174, 1745,  173
11453, 2397, 2410, 1970,  172
11454, 2155, 2472,  166,  169
11455, 2385, 2551, 2386,   73
11456, 2841, 2804, 2893, 2805
11457, 2397,  183, 1551, 1976
11458, 2007, 1974, 2373, 1978
11459, 2002,  528, 2404, 2396
11460, 1825, 2058, 2041, 1348
11461, 2841, 2845, 2804, 2805
11462, 2007, 2392, 2056, 2373
11463, 2540, 2372, 1551,  182
11464, 1973, 2479, 1552, 2744
11465, 2033, 2172, 2390, 2389
11466, 1782, 2427, 1971, 2056
11467, 2223,  365, 2214,  378
11468, 2761, 2222, 2224, 2884
11469, 2761, 2224,  371, 2884
11470, 2223, 2224, 2214,  365
11471, 1142, 1945, 1099, 2431
11472, 2223, 2224,  365,  370
11473, 2578, 2303, 2888, 2304
11474, 2333, 2334, 2515, 2792
11475,  415, 2077,  421, 2287
11476, 2865,  414, 2287,  415
11477, 1336, 1437, 1651, 1648
11478, 2200, 2201,  413,  511
11479, 2593, 2738, 2598, 2592
11480, 2738, 2418,  274, 2075
11481, 2593, 2738,  275, 2598
11482, 2738, 2691, 2075,  438
11483, 2841, 2805, 2893, 3035
11484, 2192, 2102,  287,  281
11485, 2192,  285, 2260,  281
11486, 2192, 2102,  294,  287
11487, 2734,  295, 2186,  293
11488, 1214, 2937, 2734, 2185
11489, 2174,  821, 2508,  895
11490, 2932, 2174, 2508,  895
11491, 2174, 1980,  817, 2693
11492, 2870,  898, 2175,  902
11493, 2175, 2176,  902,  903
11494, 2870,  902, 2175, 2176
11495, 2841, 2803, 2845, 2805
11496,  208, 2392,  217, 2047
11497, 2100, 2818, 2905, 2815
11498, 2392, 2047,  216,  217
11499, 2426,  222, 2408, 2048
11500, 2815, 2818, 2905, 2765
11501, 2392,  216, 2056,  194
11502, 2003, 2752, 2392, 2047
11503, 2392,  194, 2373,  215
11504, 2509, 1969, 2444, 2511
11505, 2043, 2555, 2426, 1823
11506, 2259, 2102, 2192, 2260
11507, 2259, 2192, 2937, 2260
11508, 2937,  285, 2734, 2812
11509, 2533, 2186, 2734,  295
11510, 1141, 1711, 2891, 2646
11511, 2340, 2935, 2708, 2934
11512, 2159,  874, 2160,  868
11513, 2908, 1901, 2625, 2810
11514, 2908, 1902, 1900, 2020
11515, 2811, 2161,  867, 2980
11516, 1979,  998, 2684,  644
11517, 2684,  998, 1506,  795
11518, 2159,  868, 2684,  795
11519, 2208, 2141, 2112, 2111
11520, 2905, 2815,  448,  452
11521, 2590, 2326, 2601,  671
11522, 2294,  659, 2331,  675
11523, 2325,  671, 2326, 2590
11524, 2889, 2298, 2323, 2888
11525, 2325,  697, 2976,  674
11526, 2279, 2437, 2729, 1870
11527, 1776, 1452, 2517, 2797
11528, 2337, 2565, 2947, 2563
11529, 2687, 2688, 2077, 2641
11530, 2896, 1452, 2209, 2517
11531, 2200, 2688,  416, 2077
11532, 2688,  423, 2273,  408
11533, 2796, 2688,  408,  511
11534, 2688,  416, 2077,  425
11535, 2963, 3034, 2989, 2996
11536, 1885, 2250, 2251, 2303
11537,  608, 2133,  607,  609
11538, 2989, 2996,  689, 2088
11539, 2989,  698,  696,  689
11540, 2231, 2106,  555,  564
11541, 2231, 2595,  563,  558
11542, 2128, 2106,  564, 1003
11543, 1895, 2249, 2128, 2595
11544, 2128, 2249,  595, 2595
11545, 2231, 3001,  555, 2106
11546, 2128, 1003, 2133, 2106
11547, 2383, 2142,  534, 2307
11548, 2355,  574, 2992, 2995
11549, 1404, 1147, 1148, 1406
11550, 2625, 3017, 1901, 2114
11551, 2983, 1999,  721,  726
11552, 1515, 1701, 1734, 1913
11553, 1999, 2852,  725,  724
11554, 2182, 2110, 2852, 2851
11555, 2059, 2684,  871,  719
11556, 3011, 2125, 1890,  878
11557, 2531, 2160, 2161, 3010
11558, 2983, 2112, 2153,  723
11559,  999, 2709, 2059, 1979
11560, 3027, 1900, 1979,  999
11561, 1979, 1901, 3017,  641
11562, 2178, 2839, 2154, 3044
11563, 1649, 2586, 2349, 2418
11564, 2905, 2850, 2787, 2818
11565, 2435, 2603, 2611, 2436
11566, 2648, 1467,  981,  768
11567, 2956, 2957,  760,  771
11568, 1351, 1349, 1425, 1350
11569, 1333, 2950, 3005, 2988
11570, 2011, 2957, 2956,  771
11571, 2956, 2950,  980,  581
11572, 2112,  721, 1999,  722
11573, 2110,  722, 1999,  725
11574, 2110, 1999, 2852,  725
11575, 2527, 1999, 3010, 2852
11576, 1999, 2059,  724,  726
11577, 2559, 2070,  243,  245
11578, 1917, 1495, 2614, 2057
11579, 1762, 1761, 2664, 2462
11580, 2559, 2664,  241, 2626
11581, 2559, 2664,  240,  241
11582, 2671,  240, 2664,  242
11583, 1682, 1494, 2614, 1495
11584, 2648, 2956, 2957,  760
11585, 2648, 1467,  768, 2649
11586, 1467, 2848, 1243, 2648
11587, 3005, 2648, 2848,  981
11588, 2609, 1675, 2493, 1673
11589, 3005, 2648,  981,  760
11590, 2931,  895, 2175,  896
11591, 2705, 2706, 2704, 2917
11592, 2931, 2870,  896, 2175
11593, 1966, 2162, 1357, 3016
11594, 2870,  896, 2175,  898
11595, 1963, 1964, 1980, 1934
11596, 2352, 2953,  814, 2494
11597, 2352, 1347, 1339, 1004
11598,  825, 1342,  850, 1010
11599, 2352, 2494,  814, 1004
11600, 2352, 2583, 2894,  837
11601, 2536, 2537, 1672, 2574
11602, 2352, 2583,  837,  841
11603, 2126, 2879, 2880, 2878
11604, 2866, 2870,  897,  898
11605, 2158, 2879,  875,  894
11606, 2877,  875, 2158, 2879
11607, 2705, 2917, 2970, 2706
11608, 3038,  585, 3005,  981
11609, 3038, 2093, 3005,  585
11610, 1331, 2648, 3005, 2956
11611, 3005, 2956,  581, 2950
11612, 3005, 2648,  760, 2956
11613, 3010, 2852,  870, 3029
11614, 3010, 2852,  724,  870
11615, 3011, 3010,  869, 3029
11616, 2905, 2850, 2818,  489
11617, 3010, 2852, 1999,  724
11618, 3010, 1999, 2059,  724
11619, 3010, 2059,  871,  724
11620, 2126, 2161, 2878, 2973
11621, 2160, 2059, 2684,  871
11622, 1367, 1364, 1362, 1366
11623, 2448, 2449, 2433,  369
11624, 2892, 2884,  367, 2898
11625, 1101, 2700, 1710, 2882
11626,  394,  395, 2201, 2794
11627, 2179, 2454,  345,  344
11628, 2898, 1101, 2895, 2882
11629, 2922, 2923,  435,  437
11630, 2922, 2923, 2642,  435
11631, 2935, 2922, 2923, 2642
11632, 1944, 2802, 1710, 2700
11633, 2784, 2737, 2922, 2042
11634, 2853, 2934, 2935, 2764
11635, 1731, 2922, 2101, 2853
11636, 2188, 2382,   80,   75
11637, 2188, 2447,   80, 2382
11638, 1908, 2188, 2190, 2189
11639, 2110, 2112,  722, 2111
11640, 2112,  716, 2153,  723
11641, 2908, 1900, 1901, 1979
11642, 1325, 1154, 1943, 1941
11643, 2157, 2901, 2726, 2730
11644, 2181, 2110, 2112, 1999
11645, 2899, 1616, 2902, 1615
11646, 2697, 3051,  846,  851
11647, 2697,  863, 2943,  864
11648, 2499, 2460, 2861, 2755
11649, 2739,  854, 2894,  852
11650, 3051, 2583,  837, 2894
11651, 2582, 2163, 2697,  859
11652, 1197, 2646, 2184, 1070
11653, 1622, 2185, 2184, 2247
11654, 2184, 2185,  503, 2247
11655, 2184, 2733, 1070,  350
11656, 1068, 2184, 2733, 1070
11657, 2184,  351, 2247,  503
11658, 2047,  208, 2003, 2426
11659, 2585, 2058, 2394, 2041
11660, 2426, 2752, 2048, 2407
11661, 2660, 2094, 2092, 2992
11662, 1736, 1737, 1735, 2921
11663, 1533, 1741, 2345, 1738
11664, 2620, 2402, 1800, 1802
11665, 1965, 2609, 2608, 2610
11666, 2458, 2671, 2559, 2664
11667, 2671, 2559,  245, 2070
11668, 1680, 2458, 1682, 1679
11669, 2532, 1888,  158,  155
11670, 2671, 2559, 2664,  240
11671, 2671, 2559,  240,  245
11672, 2596, 2595,  557, 2985
11673, 2231, 2596,  559, 2298
11674, 2231, 3001, 2298,  555
11675, 1709, 2590, 2601, 2600
11676, 2226, 2303, 2596, 2985
11677, 2226,  559, 2888,  544
11678, 2682, 2774,  940, 2387
11679, 1580, 1581, 1583, 2464
11680, 2774,  936, 2387, 2645
11681, 2774,  941, 1472,  991
11682, 1472,  991, 2450, 2774
11683, 2023, 2587, 2127, 2869
11684, 1380, 2774, 2682, 2387
11685, 2704, 2692, 2917, 2694
11686, 2834, 2676, 2584, 2535
11687, 2774, 2645,  941,  936
11688, 1666,  903,  991, 2450
11689, 2915,   15,  647,   16
11690,  384, 2225,   14,   13
11691, 1848, 2233, 2430, 2244
11692, 3049, 1997, 2285, 2602
11693, 2330, 2327,  650,  549
11694, 2225, 2244, 1955, 1082
11695, 2712, 2749, 2327,  554
11696, 2288, 1857, 2915, 2194
11697, 1955, 2099,  478,  474
11698, 2622, 2966, 2920, 2967
11699, 2921, 2967, 2920,  748
11700, 2993, 2120,  683, 2958
11701, 2993, 2921, 2967, 2120
11702, 2134, 2095, 1739, 2135
11703, 2958, 2123, 2621, 2974
11704, 2305, 2147, 2829, 2851
11705, 2027, 2652, 2854, 2655
11706, 2022, 1827, 1810, 2270
11707, 2970, 3021, 2706, 2918
11708, 1827,  885, 2827,  881
11709,  881, 1827, 1810, 2827
11710, 1827, 2275,  739,  886
11711, 2147, 1827, 2275,  739
11712, 2171, 2399,   88,   84
11713, 2171, 2395,   88, 2172
11714, 2399,   86, 2036,   84
11715, 2172,   88, 2399,   74
11716, 2399, 2036,   79,   84
11717, 2033, 2399, 2035, 2390
11718, 2314, 2309, 2725,  567
11719, 2669, 2876, 2131, 2133
11720, 2930, 2722, 2309,  661
11721, 1529, 3001,  560, 2298
11722, 2780, 2294, 2789, 2331
11723, 2667, 2672, 2331, 2665
11724, 2889, 2888, 2596, 2298
11725, 3016, 2948,  805,  787
11726, 3016, 2156,  806,  808
11727, 1909, 1972, 1977, 1782
11728, 2587, 2127, 2871, 2588
11729, 3016, 2156,  808, 2162
11730, 2274, 2556, 2066, 3036
11731, 2623, 2921, 2967, 2920
11732, 2478, 2670, 2668, 2666
11733, 1633, 1907, 2791, 1415
11734, 1997, 2285, 2556, 2557
11735, 2194, 1857, 2915, 1851
11736, 2314, 2789,  662,  667
11737, 2250, 2295,  545, 2319
11738, 2250, 2303,  543, 2251
11739, 2219, 2319, 1894, 2984
11740, 1138, 1141, 1140, 2548
11741, 2250, 2241, 2304, 1892
11742, 2304, 1892, 2303, 2250
11743, 2250, 2984,  545,    9
11744, 2060, 1524, 2520,  299
11745, 1456, 2060, 2520, 2546
11746, 2060, 2520,  138,  299
11747, 2060,  138, 2547,  148
11748, 1977, 1978, 1971, 1976
11749, 1974, 2372, 1978, 1551
11750, 1968, 1971, 2410, 1976
11751, 2540, 2479,  180,  182
11752, 2372, 1551,  178, 1978
11753, 2397,  170, 1551,  183
11754, 1551, 1978,  183,  178
11755, 2414, 2044, 1820,  209
11756, 2414, 1820, 2044, 1767
11757, 2044, 2426,  207,  212
11758, 1823, 2043, 2044, 2426
11759, 2397, 1970, 2472,  492
11760, 2776, 2409, 2742, 2048
11761, 2742, 2826,  223,  225
11762, 2742, 2826, 2048,  223
11763, 2742, 2063,  248,  224
11764, 1712, 2624, 2742, 2696
11765, 2742, 2063, 2696,  248
11766, 2445, 2533, 2102, 1724
11767, 1852, 2037, 2504, 1353
11768, 1214, 2185, 1620, 1622
11769, 2506, 2186, 2533, 1954
11770, 2533,  294, 2734, 2102
11771, 2524, 2312, 1772, 2691
11772, 2796, 2679,  396,  408
11773, 2796,  408, 2688, 2273
11774, 2563, 2200, 2796, 2201
11775, 2800, 2201,  511,  399
11776, 1162, 2816,  759, 1219
11777,  770,  759, 1219, 2856
11778, 1162, 2816,  801,  759
11779, 1219, 1220, 1162, 2816
11780, 2445, 2038, 2152, 1876
11781, 2213, 2308,  379, 2872
11782, 2213, 2214,  364,  378
11783, 2006, 2541, 2045, 2404
11784, 1826, 2058, 2406, 1821
11785, 2394, 2395, 2172,  522
11786,  128, 1824,  129, 1821
11787,  126, 2045, 1824, 2058
11788, 2403, 2555, 2003, 2396
11789, 2394, 2041, 2058,  115
11790, 2058, 1821,  131, 2434
11791, 2058,  131, 1821,  128
11792, 2271,  919, 2270, 1742
11793, 3045, 2135,  728,  751
11794, 2271, 2267,  741,  728
11795, 2277, 3018, 2136, 2969
11796, 2671, 1627,  164, 2532
11797, 1423, 1814, 2678, 2773
11798, 2532, 1888, 1493,  158
11799, 2459, 2462, 2664, 2526
11800, 1927, 2051, 2049, 1928
11801, 1452, 2797, 1453,  335
11802, 2210, 1452,  336, 2209
11803, 2797,  334, 1452, 2517
11804, 2797,  334, 2517,  325
11805, 2797, 2792,  327,  325
11806, 2797,  327, 2792, 1947
11807, 1948, 2635, 1947, 2783
11808, 2740,  847, 2894,  854
11809, 1443, 1671, 1491, 1672
11810, 1583, 2570, 2571, 2387
11811,  825, 1342, 1010,  826
11812, 2739,  854, 2740, 2894
11813, 2739,  853, 2637,  854
11814, 2471,  958, 2570,  944
11815, 1992, 1990, 2286, 2432
11816,  433, 1989,  510, 2286
11817, 2445, 2259, 2102, 2533
11818, 1992, 2431, 2449, 2433
11819, 1741,  920, 2971, 3032
11820, 1741, 2971,  755, 1742
11821, 2344, 1163, 3032, 2502
11822, 1741,  755, 2971,  920
11823, 1872, 2445, 2259, 2102
11824,  921, 1738, 2345, 1741
11825, 1545, 1811, 1813, 1718
11826, 2345, 2959, 2907,  982
11827, 2566, 2632, 2641, 2218
11828, 2085, 2923,  435, 2642
11829, 2395,   88, 2172,  522
11830, 1566, 1635, 2801, 2009
11831, 2395, 2541, 2398,   89
11832, 2043,  512, 2403,  130
11833, 2173, 2541, 2404, 2398
11834, 2005, 2041, 2394, 2389
11835, 2033, 2172, 2399, 2390
11836, 2507,  822, 2494,  824
11837, 1341, 2332, 2507, 2494
11838, 1964,  823, 1980,  816
11839, 2332, 2507, 2494,  824
11840, 2932,  899,  826, 1342
11841, 1230, 1454, 1416, 1417
11842, 1340, 1394, 1380, 1361
11843, 2786, 1035, 2101, 2098
11844, 2150, 1954, 2506, 2152
11845, 1731, 2101, 2096, 2317
11846, 2101, 2098,  469,  472
11847, 2101, 2853,  437,  469
11848, 2986, 2713,  548,  977
11849, 2762, 1081, 2076,   11
11850, 1248, 2183,  204,  265
11851, 1248,  204, 2183,  202
11852, 1248, 1249,  202, 2183
11853,  265, 2183, 2534, 1248
11854, 1214, 2506, 2734, 2259
11855, 1248,  266, 1250,  265
11856, 2506, 2259, 2533, 2734
11857, 2208, 2140, 2112, 2141
11858, 2899,  994, 2944,  711
11859, 2016, 3011, 1890, 3029
11860, 2970, 2919, 3015, 2164
11861, 2126, 2980, 2161, 2530
11862, 1414, 2836, 1760, 1618
11863, 2609, 2610, 2817, 2608
11864, 2791, 1415, 2189, 2576
11865, 2037, 1620, 2506, 2186
11866, 1414, 1415, 2836, 1618
11867, 1790, 1445, 1444, 1675
11868, 2004, 2005, 2585, 2045
11869, 1590, 1610, 1078, 1617
11870, 2831, 2180, 1452, 1451
11871, 2562, 2200,  415, 2077
11872, 2210, 2865,  414, 2287
11873, 2831, 1451, 1452, 1453
11874, 1775, 2896, 2563, 2337
11875, 2565, 2678, 2273, 2566
11876, 2220,   22, 2253,   21
11877,  677,   22, 2121, 2138
11878, 2265, 2220, 2253, 1409
11879, 2253, 2220, 2138,   22
11880, 2220, 2138,  677,  678
11881, 2265, 2557, 2220, 1409
11882, 2138, 2557,  678, 2220
11883, 2333, 2792, 2515, 2068
11884, 1949, 2783, 2792, 2068
11885, 2245, 2302,  376,  374
11886, 2245, 2302,    8,  376
11887, 2245, 2241,    9, 2984
11888, 2245, 2301,  374,  375
11889, 2245,    8, 2984,    9
11890, 2245, 2241, 2301, 2228
11891, 2872, 2301, 2228,  375
11892, 1798, 2092, 2093, 3012
11893, 1396, 1398, 3012, 1399
11894, 2119, 2121, 1565, 1998
11895, 2912, 1398, 2336, 1719
11896, 2951, 2367, 2466, 2677
11897, 1511, 1510, 2018, 1717
11898, 3000, 2732, 2131, 2731
11899, 1586, 1898, 1678, 1835
11900, 1228, 1483, 1484, 1816
11901, 2714, 2769, 2513, 2629
11902, 1633, 1129, 1903, 1164
11903, 2470, 2398, 2002, 2404
11904, 2392, 2047,  208, 2003
11905, 1924, 1927, 1929, 1766
11906,  215, 2003, 2373, 2392
11907, 1993, 1986, 1991, 1985
11908, 2449,  457, 2433,  369
11909, 2760, 1992, 2449, 2268
11910, 1993, 1992, 2268, 1991
11911, 1993,  458, 2268,  456
11912, 1992, 2433, 2268, 2432
11913, 2268, 1991,  459,  458
11914, 2469, 2994, 1592, 2360
11915, 2481, 2380, 2473, 2381
11916, 2482, 2483, 2155, 2743
11917, 1974, 1551, 2540, 2372
11918, 2155, 1552, 2743, 2472
11919, 2480, 2380, 2036, 2385
11920, 2024, 2271, 1818, 2135
11921, 2170, 1069, 2504, 2733
11922, 2090, 2026, 2939, 2501
11923, 1831, 2321, 2979, 1836
11924, 1533, 1735, 1737, 2095
11925, 2983, 1999, 2709, 2906
11926, 1893, 2238, 1067, 2219
11927, 1094, 2621, 2009, 1664
11928, 1490, 1445, 2813, 1674
11929, 1647, 3047, 1624, 3009
11930, 2489, 1150, 1152, 2960
11931, 1502, 1503, 1719, 1833
11932, 1122, 1737, 2758, 2623
11933, 1831, 2321, 1883, 2322
11934, 1867, 2633, 2630, 2631
11935, 2553, 2558, 2328, 2419
11936, 2080, 2554,  390,  388
11937, 2080, 2028,  390, 2070
11938, 2080, 2083,  388,  390
11939, 1298, 1297, 1770, 1299
11940, 2680, 2699,  386, 2911
11941,  516, 2411,  387,  386
11942,  387, 2411, 2029, 2083
11943, 2323, 2311, 2964, 1529
11944, 2090, 2501, 2939, 2656
11945, 1917, 2412, 2050, 2614
11946, 2049, 2052, 1915, 2050
11947, 1682, 2412, 2614, 1494
11948, 1681, 1626, 1495, 2627
11949, 1916, 2547, 2069, 2071
11950, 1627,  245, 2671,  239
11951, 1627, 1626,  163,  518
11952, 1684, 2028, 1627, 1626
11953, 1951, 1577, 2419, 1314
11954, 2458, 1627, 1686, 2671
11955, 1576, 2664, 2458, 2559
11956, 2835, 1459, 2779, 1681
11957,  161, 1493,  164, 1626
11958, 1069, 2733,  349,  350
11959, 1627,  238, 2070,  245
11960, 2196, 2835, 2631, 2719
11961, 1679, 1684, 1626, 1681
11962, 1595, 2788, 2419, 2328
11963, 1868, 2516, 1867, 2333
11964, 2835, 2627, 1684, 1681
11965, 1682, 2115, 1917, 2412
11966, 2465, 1311, 2054, 2272
11967, 1595, 2788, 2272, 1311
11968, 1595, 1311, 2272, 2055
11969, 1459, 1681, 1917, 2057
11970, 2560, 2642, 2218, 2640
11971, 2560, 2077, 2643, 2640
11972, 2218, 2708, 2566, 2085
11973, 1744, 1998, 1994, 1559
11974, 2560, 1142, 2864, 2643
11975, 2227, 2327,  652, 2129
11976,  650, 2330,  647, 2915
11977,  553, 2311, 2749, 2721
11978, 1857, 2915, 2129, 2288
11979, 2749,  553,  554,  552
11980, 1994, 1475, 1477, 1201
11981, 2713, 2749,  552, 2311
11982, 2712, 2330,  549, 2327
11983, 2269, 2031, 2071,  101
11984, 2269, 2216,  105,  106
11985, 2269, 2591, 2031,  109
11986, 2269, 2071, 2216,  106
11987, 2269, 2702,  102,  105
11988,  102,  107, 2702, 2269
11989, 2269, 2591,  109,  107
11990, 2248, 1612, 2658, 2659
11991, 1169, 2026, 1921, 1384
11992, 1029, 1669, 1799, 1535
11993, 1696, 2512, 2061, 1250
11994, 2793, 2061, 2062, 1250
11995, 1633, 1135, 1129, 1164
11996, 2521, 1935, 1936, 2248
11997, 1804, 2388, 2832, 2371
11998, 1884, 1803, 1535, 1800
11999, 2772,  409, 2273, 2770
12000, 2772, 2770,  411,  409
12001,  355, 1067,  348,  354
12002, 1067,  348,  354, 1069
12003, 2778, 2772,  411,  407
12004, 2678, 2679, 2772, 2204
12005, 2772, 2679,  406, 2204
12006, 2742, 2863, 2696, 2063
12007, 1642, 1766, 1820, 1822
12008, 2863, 2696, 2063, 2525
12009, 2751, 2776, 2407, 1767
12010, 2407, 2777, 2752, 2048
12011, 1821, 2058,  128, 1824
12012, 1067, 2504, 1069, 1068
12013, 1765, 1924, 1766, 1641
12014, 1769, 2628, 1762, 1763
12015, 1765, 1767, 1766, 1771
12016, 2236, 2237, 1936, 3040
12017, 1301, 1296, 1298, 1302
12018, 1577, 2558, 2419, 2788
12019, 1681, 1917, 2057, 1495
12020, 1683, 2835, 1684, 1681
12021, 2069, 1915, 2547, 1916
12022, 1518, 2031, 1523, 2071
12023, 1762, 1299, 1770, 2462
12024, 1577, 1576, 2558, 2788
12025, 2812, 2185,  505,  293
12026, 2280, 2937, 2812,  285
12027, 2812, 2937, 2246, 2185
12028, 2812,  293, 2734, 2185
12029, 2192, 2937,  285, 2734
12030, 1067, 1070,  354, 2207
12031, 2812, 2246, 2339,  288
12032, 1080, 1591, 1134, 1073
12033, 1753, 2260, 1748, 1754
12034, 1997, 2557, 2064, 2285
12035, 1712, 2826, 2777, 2742
12036, 1069, 1067, 1070,  354
12037, 2393, 2391, 1619, 1311
12038, 1773, 1945, 2831, 1944
12039, 2276, 2024, 1940, 2277
12040, 2566, 1608, 2708, 1607
12041, 1187, 2562, 1809, 1775
12042, 1808, 1949, 1775, 2334
12043, 2524, 2691, 1434, 2075
12044, 1242, 1239, 1238, 2296
12045, 2873, 1960, 2840, 2874
12046, 1388, 1906, 2503, 1389
12047, 1667, 1280, 1220, 1218
12048, 1905, 1575, 1922, 1906
12049, 1482, 1505, 1913, 1756
12050, 1522, 1516, 1524, 1521
12051, 1302, 2799, 2435, 1915
12052, 1302, 1296, 1298, 1304
12053, 1077, 1236, 1131, 1369
12054, 1335, 1862, 1433, 1432
12055, 2560, 2562, 2078, 2077
12056, 1383, 2370, 1425, 2358
12057, 1846, 2031, 1518, 2071
12058, 2562, 1142, 2078, 2287
12059, 1713, 1712, 2826, 2777
12060, 2031, 1950, 2269, 1846
12061, 2936, 1292, 1752, 2822
12062, 1187, 1607, 2560, 2864
12063, 2210, 1452, 2831, 2180
12064, 1420, 2416, 1435, 1772
12065, 1328, 1107, 1241, 1332
12066, 2423, 2368, 2375, 2424
12067, 2423, 1415, 1939, 1618
12068, 1910, 2490, 2567, 1695
12069, 1376, 1386, 1377, 1390
12070, 1611, 2523, 2438, 2282
12071, 2252, 2137,   23,  519
12072, 2252,   23, 2904,   24
12073, 2103, 2100,  489,  519
12074, 2252,   24, 2904,  491
12075, 2252, 2904, 2100, 2215
12076, 2100, 2252,  519, 2103
12077, 2252,  491, 2904, 2215
12078, 2784, 2864, 1142, 2042
12079, 1981, 1982, 1143, 2785
12080, 2784, 2785, 2737, 1989
12081, 2448, 2433,  418,  369
12082, 2431, 2432, 1992, 2286
12083, 1187, 2562, 2452, 1142
12084, 2882,  367, 2898,  523
12085, 1944, 1101, 1100, 2700
12086, 1140, 2891, 2795, 2636
12087, 2301, 2241, 2302, 2362
12088, 2892, 2222, 2884, 2916
12089, 2834, 2861, 2573, 2457
12090, 2834, 1722, 2575, 2584
12091, 2480, 2400, 2001, 1973
12092, 1973, 1974, 1551, 2540
12093, 1602, 2825, 3000, 2131
12094, 1837, 2979, 1646, 2962
12095, 2728, 2726,  692,  617
12096, 1775, 2896, 1776, 1773
12097, 1499, 1544, 1718, 2912
12098, 2841, 2805, 3048, 2803
12099, 1327, 1646, 1629, 2487
12100, 2842, 2254, 2732, 2803
12101, 1613, 2415, 1614, 1616
12102, 2924, 1153, 2893, 3031
12103, 2841, 2996, 3048, 3035
12104, 1152, 2963, 2841, 2893
12105, 2727, 2901, 1615, 1324
12106, 2925, 3007, 2928, 2927
12107, 2141, 2928, 1941, 2929
12108,  686, 2732, 2731, 2254
12109, 3037, 1647, 3009, 3047
12110, 2732, 2841, 2842, 2803
12111, 1194, 1191, 1198, 1193
12112, 2652, 2854, 2655, 2022
12113, 1514, 1513, 2405, 2859
12114, 1262, 1266, 1789, 1259
12115, 1703, 2159, 2530, 2160
12116, 1940, 2924, 2277, 2025
12117, 1613, 1644, 2405, 1514
12118, 2283, 2266, 2275, 2270
12119, 2885, 2989, 2976, 2325
12120, 2963, 2989, 3034, 2999
12121, 1794, 1853, 1852, 2169
12122, 1728, 1287, 1247, 1246
12123, 1410, 2622, 2105, 2539
12124, 2801, 2904, 2974, 2215
12125, 1887, 1886, 1689, 1588
12126, 2342, 2079, 2800, 2796
12127, 1868, 2947, 2718, 2516
12128, 1456, 2546, 1523, 2060
12129, 2718, 1867, 2516, 2662
12130, 2565, 2687, 2566, 2273
12131, 2084, 2865, 2563, 2200
12132, 1574, 2270, 1818, 1817
12133, 1208, 1402, 1285, 1704
12134, 2921, 2758, 1737, 2623
12135, 2191, 2090, 1956, 2907
12136, 2621, 2758, 2921, 2623
12137, 2757, 2009, 2758, 2974
12138, 1735, 1533, 1736, 3043
12139, 1362, 1236, 1113, 1233
12140, 1740, 1741, 2971, 3032
12141, 1664, 1371, 1094, 2621
12142, 2621, 2119, 2120, 1664
12143, 1445, 2609, 1674, 1675
12144, 2344, 1741, 3032, 1163
12145, 1613, 2405, 1616, 2997
12146, 1629, 1837, 2979, 1646
12147, 1613, 1327, 2487, 1615
12148, 1513, 2405, 2114, 2625
12149, 2405, 2625, 1901, 2114
12150, 1514, 2322, 2913, 2859
12151, 2908, 2405, 2625, 1901
12152, 2284, 2625, 2114, 3017
12153, 1091, 2874,  927,  909
12154, 1091, 1089,  891,  922
12155, 1090, 1091, 1092, 2874
12156, 1091,  891, 1089, 2369
12157, 1091, 2369, 1089, 1092
12158, 2849, 1816, 3025, 1091
12159, 1091, 3025,  928,  927
12160,  923,  928,  922, 2849
12161, 2181, 1999, 2527, 2110
12162, 1953, 2181, 2527, 2182
12163, 2027, 2305, 2182, 2851
12164, 2182, 2305, 2829, 2851
12165, 1733, 1699, 1702, 1543
12166, 1999, 2059, 2709, 2181
12167, 2932, 2175,  895,  900
12168, 2158, 2931, 2174, 2692
12169, 2174, 1980, 2508,  820
12170, 2931, 2175, 1932, 2870
12171, 2932, 1342,  826, 2332
12172, 2931, 2866,  893,  896
12173,  820, 1980,  817, 2174
12174, 1339, 1381, 2855, 1347
12175, 2931, 2870, 1932, 2866
12176, 2931, 2869, 2158, 2866
12177, 1934, 1980, 2693, 2695
12178, 2113, 1281, 1323,  766
12179, 1323, 1238,  986,  774
12180, 1323, 1219,  986, 1238
12181, 2562, 2200, 2563, 2865
12182, 3004, 1281,  766, 2847
12183, 1323,  774, 2847, 1238
12184, 1219, 2113, 1279, 1281
12185, 2539, 1690, 3006, 3003
12186, 1332, 1884, 1535, 1245
12187, 1716, 1499, 2912, 1544
12188, 1500, 2336, 1719, 2912
12189, 2654, 2595, 2987, 2139
12190, 1896, 2139, 1895, 2072
12191, 1896, 1624, 1897, 2139
12192, 2007, 1781, 2056, 2392
12193, 1785, 2752, 1781, 2003
12194, 1904, 1796, 1903, 1659
12195, 1164, 1415, 2791, 1722
12196, 2117, 2237, 2522, 1936
12197, 2551, 2386, 2481, 2480
12198, 2604, 1548, 1546, 2021
12199, 1220, 1546, 1667, 1218
12200, 2694, 2918, 3016, 2695
12201, 1702, 2126, 2016, 2530
12202, 1845, 1408, 1844, 2881
12203, 1358, 2692, 1932, 2869
12204, 1966, 3016, 2948, 2606
12205, 2704, 2694, 1358, 2692
12206, 2917, 2970, 2918, 2919
12207, 2004, 2006, 2404, 2002
12208, 2045,  126,   89, 2395
12209, 2562,  415, 2865, 2287
12210, 2006, 2173, 2033, 2005
12211, 2403, 2045,  130,  184
12212,  528, 2002,  509, 2396
12213, 2004, 2404, 2403, 2003
12214, 2003, 2752, 2047, 2426
12215, 2896, 2337, 2334, 2897
12216, 1826, 2045, 2585, 2058
12217, 2470,  528, 2002,  186
12218, 1701, 1703, 2528, 1914
12219, 2527, 2852, 2182, 2110
12220, 2935, 2784, 2934, 2922
12221, 2160, 2527, 3010, 2531
12222,  869, 3010, 3011, 2161
12223, 2160, 2684,  868,  871
12224, 1952, 2810, 2908, 2625
12225, 2015, 2182, 2852, 2851
12226, 1914, 2809, 2810, 2284
12227, 1582, 1581, 2572, 2446
12228, 2736, 2583, 2582, 3051
12229, 1585, 1271, 3042, 3052
12230, 1581, 3042, 2446, 1585
12231, 2637, 2471,  942,  956
12232, 2108, 2107, 2832, 1249
12233, 1134, 1910, 2567, 1698
12234, 2388, 1385, 2358, 1389
12235, 1300, 2751, 1297, 1640
12236, 1074, 1071, 1591, 1073
12237, 2344, 1740, 3032, 1741
12238, 1383, 2358, 2363, 2370
12239, 3039,  968, 2166,  970
12240, 2166, 1390,  965,  966
12241, 2166, 2363, 1390, 1388
12242, 2166, 1388, 1390, 1377
12243, 2166, 1388,  970, 2363
12244, 2166, 1390,  966, 2378
12245, 1088,  968,  966, 2166
12246, 2095, 1253, 2024, 1255
12247, 1894, 2250, 2319, 2295
12248, 2653, 2985, 2654, 2596
12249, 1885, 2303, 1892, 2250
12250, 2842, 2672, 2669, 2254
12251, 2228, 2241, 2301, 2561
12252, 1573, 1571, 2202, 2103
12253, 2984, 2319, 1894, 2250
12254, 1111, 1110, 2362, 2577
12255, 1282, 2984, 1892, 2241
12256, 1892, 2304, 1193, 2241
12257, 2935, 2934, 2784, 2864
12258, 2653, 1885, 2251, 2303
12259, 2653, 2578, 1892, 2303
12260, 2935, 2642, 2708, 2864
12261, 1678, 2087, 1833, 1835
12262, 2765, 1438, 2340, 2763
12263, 1683, 1462, 1865, 2835
12264, 2560, 2566, 2641, 2218
12265, 1532, 2689, 2505, 2615
12266, 2680, 2911, 2718, 2699
12267, 2566, 2687, 2641, 2273
12268, 2402, 2146, 1245, 2945
12269, 1730, 2784, 2934, 2864
12270, 1884, 2402, 1802, 1800
12271, 2758, 2757, 2191, 2008
12272, 1728, 2177, 2945, 2257
12273, 1590, 1758, 1760, 1413
12274, 1611, 1618, 1938, 1612
12275, 1383, 1370, 1385, 1694
12276, 1750, 1752, 1291, 1292
12277, 1093, 1065, 1096, 1564
12278, 1360, 2151, 2038, 2152
12279, 1719, 2824, 1396, 2262
12280, 1396, 1798, 1882, 1399
12281, 1497, 1417, 1549, 1544
12282, 1794, 2661, 1853, 2169
12283, 1567, 1571, 2818, 1438
12284, 1328, 1728, 2402, 1729
12285, 2023, 2127, 2587, 2589
12286, 1553, 1220, 2813, 2610
12287, 2844, 3050, 2870, 2176
12288, 1918, 1395, 1839, 1442
12289, 2645, 1395, 1394, 1273
12290, 1957, 1840, 1395, 1273
12291, 1271, 1583, 1395, 1584
12292, 2675, 2538, 1725, 1759
12293, 1272, 1426, 3052, 1584
12294, 1585, 1581, 3042, 1271
12295, 1777, 1778, 2735, 2537
12296, 1582, 2735, 2862, 2739
12297, 2861, 2943, 2862, 2697
12298, 2686, 2464, 2683,  943
12299, 2837, 2887, 2839, 2838
12300, 1903, 1939, 1415, 1618
12301, 2509, 2475, 2511, 2444
12302, 2858, 2274, 2105, 3036
12303, 2858, 2119, 2967, 2105
12304, 1282, 2241, 1892, 1193
12305, 2858, 2122, 2119, 2121
12306, 1371, 2119, 2621, 1664
12307, 1743, 1744, 2265, 2064
12308, 2105, 1557, 2858, 2119
12309, 2265, 2138, 2557, 2556
12310, 2708, 2340, 1603, 2085
12311, 1266, 1930, 1733, 1668
12312, 1803, 2887, 2837, 2296
12313, 2024, 1818, 2095, 2135
12314, 2790, 2791, 2833, 1722
12315, 2743, 2472, 1552, 2397
12316, 1968, 1634, 1975, 2743
12317, 2085, 2935, 2708, 2340
12318, 1592, 1970, 2360, 2743
12319, 2469, 1746, 1970, 1592
12320, 2500, 2155, 2472, 2474
12321, 2536, 1723, 1778, 2676
12322, 2155, 2720, 2359, 2500
12323, 1172, 1178, 1051, 1430
12324, 1659, 1796, 1714, 1904
12325, 1632, 2480, 2482, 1907
12326, 2873, 1090, 1575, 1922
12327, 1879, 1243, 1242, 1880
12328, 1838, 1845, 1259, 1791
12329, 1574, 2971, 1742, 2270
12330, 2024, 2025, 1940, 2277
12331, 1906, 1920, 3025, 2503
12332, 1760, 1759, 2443, 2154
12333, 1802, 2443, 1760, 1759
12334, 2438, 1611, 2379, 2425
12335, 2836, 2154, 1760, 2377
12336, 2675, 2538, 2952, 2467
12337, 1054, 1047, 1040, 1221
12338, 1590, 1610, 1611, 1114
12339, 2377, 2491, 2375, 2423
12340, 1632, 1908, 1784, 2476
12341, 2447, 1908, 2190, 2376
12342, 2480, 2482, 2481, 2551
12343, 1908, 1939, 2014, 2382
12344, 1910, 1631, 2509, 1159
12345, 1938, 2424, 2510, 2659
12346, 1938, 2423, 1939, 1618
12347, 2423, 1939, 1415, 2368
12348, 1939, 2014, 2382, 2529
12349, 1968, 2397, 2743, 1552
12350, 2567, 1797, 2421, 2484
12351, 1631, 2509, 1159, 1969
12352, 1968, 1972, 1969, 1745
12353, 1908, 1415, 1939, 2189
12354, 1351, 1910, 1698, 1695
12355, 1351, 1910, 1117, 1115
12356, 2509, 1969, 2384, 2444
12357, 1593, 1592, 1594, 2564
12358, 1159, 1158, 1910, 1631
12359, 2994, 2798, 2360, 2446
12360, 2481, 2833, 2720, 2483
12361, 1592, 1746, 1969, 2564
12362, 2511, 1910, 1115, 2475
12363, 1631, 1969, 1159, 1634
12364, 2509, 2384, 1969, 1972
12365, 1376, 2378, 1377, 1088
12366, 1548, 1966, 2604, 1546
12367, 1733, 1668, 1699, 1543
12368, 1777, 1580, 1346, 2736
12369, 2126, 2878, 2880, 2973
12370, 2609, 1673, 2607, 2817
12371, 1073, 1797, 1338, 1795
12372, 1545, 1218, 1162, 1279
12373, 1511, 1548, 1657, 1717
12374, 1933, 2932, 2175, 2174
12375, 1545, 1546, 1548, 2021
12376, 2884,  367, 2898, 2882
12377, 1202, 2745, 2317, 1204
12378, 1893, 2933, 2302, 2362
12379, 1182, 1711, 2569, 1710
12380, 1189, 1948, 1947, 1776
12381, 1537, 2934, 1731, 2320
12382, 1582, 2637, 2464, 2739
12383,  864, 2697,  853, 2862
12384, 1394, 1340, 1380, 2450
12385, 2609, 1673, 2493, 2607
12386, 1672, 2875, 2949, 2583
12387, 1220, 1280, 1217, 1218
12388, 1667, 1220, 2610, 1546
12389, 1843, 1961, 1842, 1960
12390, 2587, 3020, 2589, 2588
12391, 2704, 2692, 2158, 2917
12392, 1657, 2706, 3021, 2948
12393, 1394, 3024, 2451, 1472
12394,  899, 1340, 1666, 1342
12395, 1957, 1960, 1959, 1378
12396, 2873, 2843, 1090, 1842
12397, 2460, 2943,  861,  864
12398, 2861, 2755, 2943, 2457
12399, 2798, 2862, 2637, 1582
12400, 2500, 2485, 2474, 2468
12401, 2570, 1581, 1582, 2464
12402, 2887, 1725, 1803, 2820
12403, 2567, 2421, 1797, 1795
12404, 1802, 1759, 2887, 2443
12405, 1501, 2914, 2913, 1883
12406, 1575, 3025, 1906, 1920
12407, 2837, 1239, 2296, 2838
12408, 2887, 1758, 1802, 1800
12409, 1839, 1840, 1394, 1395
12410, 1242, 2296, 2938, 1245
12411, 2753, 2498, 2710, 2711
12412, 1301, 1526, 1525, 2710
12413, 2753, 1766, 1822, 1929
12414, 1822, 1821, 2406, 2401
12415, 1344, 1174, 1466, 1713
12416, 2799, 2497, 1525, 2611
12417, 1926, 1928, 2413, 1925
12418, 1928, 2051, 2412, 2413
12419, 2049, 2412, 2051, 2050
12420, 1924, 1926, 1769, 1925
12421, 1303, 1927, 1641, 1301
12422, 1768, 1926, 2532, 1769
12423, 1765, 1769, 1762, 1763
12424, 1615, 2727, 2487, 2145
12425, 2240, 2760, 2761,  368
12426, 2240, 2430, 2429, 2239
12427, 2116, 2845, 2804, 2730
12428, 1943, 2167, 2929, 2928
12429, 2524, 2738, 2691, 2075
12430, 1728, 1288, 2257, 2193
12431, 2236, 1936, 2248, 3040
12432, 1648, 2738, 2075, 2418
12433, 2312, 2738, 2598, 2691
12434, 2416, 2821, 2612, 2264
12435, 1222, 1211, 1753, 2259
12436, 1608, 1422, 1607, 1609
12437, 1597, 2770, 1608, 1599
12438, 2811, 2705, 3015, 2809
12439, 2809, 3017, 2284, 1654
12440, 2811, 2159, 1506,  997
12441, 1701, 2015, 2527, 2531
12442, 2860, 2977, 2913, 2914
12443, 2024, 1817, 2283, 2278
12444, 1756, 2305, 2854, 1817
12445, 1702, 2016, 2127, 1732
12446, 1429, 1349, 1390, 2941
12447, 1132, 1413, 1164, 1414
12448, 1491, 1446, 2820, 1443
12449, 1350, 1349, 2941, 1116
12450, 1116, 1350, 1115, 1594
12451, 2644, 2761, 2224,  371
12452, 1350, 1115, 1594, 2511
12453, 1145, 1690, 2489, 2492
12454, 1328, 1107, 1728, 1329
12455, 1286, 1291, 1294, 1293
12456, 2170, 2230, 2504, 1067
12457, 1053, 1048, 1173, 1630
12458, 1706, 1855, 1852, 1853
12459, 1620, 1622, 2185, 2184
12460, 2416, 1434, 2691, 2821
12461, 1214, 2937, 1211, 2259
12462, 1289, 1247, 1180, 1207
12463, 1214, 2185, 1562, 2937
12464, 1981, 1143, 1992, 1990
12465, 2452, 2210, 2831, 2180
12466, 1775, 2896, 2334, 1776
12467, 2180, 2287, 2210,  414
12468, 2700, 1944, 2453, 1100
12469, 2210, 2865,  412,  414
12470, 2210, 2180,  339, 1452
12471, 2210,  412, 2865,  338
12472,  339, 1452,  336, 2210
12473, 2244,  381, 2099,  475
12474, 2429, 2233, 2297, 2234
12475, 2430, 2234,  461,  475
12476, 2195, 2233, 2297, 2766
12477, 2766, 2195, 2768, 2297
12478, 2429, 1984, 2222, 1986
12479, 2239, 2430, 2234,  461
12480, 2644, 2761, 2222, 2224
12481, 1042, 1040, 1216, 1063
12482, 2307, 2355, 1853, 1856
12483, 1055,  685, 2958,  750
12484, 1055, 2255,  749,  750
12485, 1055, 2255, 2974, 2256
12486, 1055,   24, 2958,  685
12487, 1055,  750, 2123, 2255
12488, 1055, 2123, 2974, 2255
12489, 2280, 2701,  282,  283
12490, 2280, 2937, 2260, 2701
12491, 2280, 1520,  283,  280
12492, 2280, 2937,  285, 2260
12493, 2280,  285, 2812,  288
12494, 2280, 2812, 2937, 2339
12495, 2323, 2298, 1529, 2964
12496, 2761, 2892,  366,  368
12497, 2323, 2310, 2749, 2311
12498, 1083, 2578, 2304, 1193
12499, 2578, 1892, 2304, 1193
12500, 2330,   15,  648,  647
12501, 2309,  553,  568, 2721
12502, 2072, 2251, 2654, 1885
12503, 1084, 1192, 1199, 1193
12504, 2577, 1110, 2362, 2807
12505, 1143, 2784, 2042, 1989
12506, 1731, 2101, 2922, 2737
12507, 1565, 1919, 1998, 2121
12508, 2313, 2312, 1648, 2738
12509, 1533, 1738, 3043, 1735
12510, 2344, 2086, 1740, 1741
12511, 1036, 1253, 1252, 1255
12512, 1533, 1739, 1735, 2095
12513, 2283, 2270, 1818, 2271
12514, 1735, 2622, 2623, 1737
12515, 2344, 2086, 1741, 2345
12516, 1046, 1052, 1048, 1049
12517, 2090, 2907, 2086, 2959
12518, 1755, 2379,   45,   44
12519, 1755, 1760, 2425, 2379
12520, 1755, 2438, 2379, 2425
12521, 1755, 2438,   45, 2379
12522, 1755,   53, 2425,   55
12523, 1755,   55, 2425, 2375
12524, 1770, 1767, 1771, 2776
12525, 1765, 1766, 1924, 2356
12526, 1767, 2776, 2409, 1771
12527, 2414, 1767, 1771, 1766
12528, 2408, 2409, 2044, 2407
12529, 2751, 1641, 1297, 2776
12530, 1300, 1176, 1526, 1639
12531, 2414, 1766, 1820, 1767
12532, 2892, 2884,  366,  367
12533, 2761, 2892, 2884,  366
12534,  367,  361, 2882, 2884
12535, 2761, 2884,  371,  366
12536, 2707, 2448,  529, 2449
12537, 2449, 1992, 2433, 2268
12538, 2449,  368,  367, 2892
12539, 2542, 1797, 2361, 1786
12540, 2396, 2003, 2002, 2373
12541, 2007, 2373, 2003, 2392
12542, 1782, 2427, 1911, 1972
12543, 2002, 2373,  509, 2396
12544, 1638, 2407, 2752, 1823
12545, 2394, 2395, 2045, 2005
12546, 1781, 2392, 2543, 2056
12547, 2500, 2468, 2798, 2460
12548,   73,  169, 2744, 2155
12549, 2455, 2456, 2457, 2833
12550, 2720, 2481, 2551, 2473
12551, 2473, 2833, 2720, 2481
12552, 1611, 1802, 2177, 2439
12553, 1750, 2519, 1288, 2518
12554, 2820, 1759, 2887, 1725
12555, 2080, 2083, 2082,  388
12556, 2240, 2761, 2644,  373
12557, 1459, 2779, 1681, 2057
12558, 1459, 1917, 2617, 2057
12559, 1523, 2031, 2544, 2723
12560, 1460, 1523, 2547, 1916
12561, 1516, 1523, 2544, 1524
12562, 1460, 1915, 2547, 2617
12563, 2080, 2554,  388, 2082
12564, 2080, 2082, 2553, 2554
12565, 2558, 2419, 2788, 2328
12566, 2419, 2553, 2205, 2328
12567, 1951, 2419, 1577, 2553
12568, 1685, 2558, 2080, 2553
12569, 1863, 2196, 1869, 2333
12570, 2411,  387,  386, 2083
12571, 2680, 2081, 2719, 2083
12572, 2678, 1608, 2770, 2566
12573, 1305, 1461, 1304, 1302
12574, 1478, 2013, 2324, 2578
12575, 2767, 1199, 1851, 1476
12576, 2663, 2721, 2310, 2722
12577, 2722, 2309,  661, 2721
12578, 1478, 2578, 1849, 1193
12579, 2452, 2562, 2287, 1142
12580, 1937, 1784, 2014, 2124
12581, 2124, 2014, 1899, 2447
12582, 2568,  270, 2593,  271
12583, 2593,  275, 2738,  274
12584, 2593, 2349, 2738, 2657
12585, 2593, 2738, 2592, 2657
12586, 2593, 2657,  271, 2349
12587, 2593,  247, 2598,  275
12588, 2341, 1571, 2765, 2787
12589, 2142, 1852, 2230, 2307
12590, 1558, 2119, 1565, 1998
12591, 1704, 2597, 2504, 1852
12592, 2569, 2639, 2895, 1710
12593, 1652, 2714, 2629, 2715
12594, 2098, 1743, 2786, 2053
12595, 1567, 1565, 2100, 2103
12596, 2318, 1571, 2320, 2787
12597, 2142, 2307, 2355, 1853
12598, 1332, 1884, 1245, 2402
12599, 2499, 2798, 2862, 2460
12600, 1723, 1721, 1722, 2677
12601, 2536, 2574, 2365, 2367
12602, 2857, 3033, 2573, 2163
12603, 1778, 2735, 2537, 2676
12604, 2536, 1671, 1491, 2538
12605, 2675, 2677, 2538, 2467
12606, 1721, 1722, 2677, 2584
12607, 1590, 1758, 1391, 1801
12608, 2236, 2216, 2237, 3040
12609, 1337, 2793, 1338, 2657
12610, 1797, 2422, 1338, 2421
12611, 2490, 2567, 1695, 2750
12612, 1865, 2196, 1867, 2719
12613, 1456, 1524, 2520, 2060
12614, 2180, 2453, 2452, 2454
12615, 2337, 2516, 2897, 2947
12616, 1948, 1140, 2795, 2636
12617, 2264, 1434, 1601, 2416
12618, 2333, 2196, 1869, 2068
12619, 1601, 1597, 1608, 2264
12620, 2453, 2179, 2454, 2180
12621, 1815, 2335, 1870, 2552
12622, 1435, 1434, 1601, 1436
12623, 1576, 2465, 2626, 2788
12624, 1595, 2778, 1312, 2347
12625, 1305, 1296, 1306, 1619
12626, 2773, 1312, 1597, 1423
12627, 1951, 2081, 1866, 2203
12628, 2453, 2448, 2431, 2454
12629, 1747, 2232, 1476, 2599
12630,   14,  648,  550, 1082
12631, 2707, 2453, 2700, 2179
12632, 2324, 2012, 1479, 2291
12633, 2327, 2915,  650,  652
12634, 2327, 2915,  652, 2129
12635, 2227,  651, 2129,  652
12636, 2227, 2663, 2327, 2129
12637, 1955,   15,  648, 2330
12638, 2453, 2831, 2700, 1451
12639, 1850, 1083, 2323, 2965
12640, 2013, 2889, 2323, 2578
12641, 2663, 2749, 2721, 2327
12642, 1849, 1857, 2330, 2327
12643, 2311, 2713, 2749, 2323
12644, 2981, 2599, 2232, 2602
12645, 2324, 2748, 2013, 2012
12646, 1541, 1419, 1517, 1054
12647, 1425, 1695, 1693, 2370
12648, 1071, 1695, 1425, 1698
12649, 2007, 1781, 2392, 2003
12650, 2567, 1910, 1911, 2484
12651, 2793, 1250, 1795, 2061
12652, 1696, 1250, 2108, 2512
12653, 1424, 1351, 1910, 1698
12654, 1908, 1904, 1939, 1903
12655, 1521, 1457, 1561, 1517
12656, 1135, 1159, 1166, 1634
12657, 2542, 1343, 1797, 1786
12658, 1304, 1916, 1460, 1915
12659, 1295, 2221, 2936, 1291
12660, 2236, 2221, 2216, 2242
12661, 1422, 1423, 1609, 1597
12662, 2936, 2702, 2822, 2716
12663, 1430, 1178, 1847, 1526
12664, 1289, 1876, 1875, 1874
12665, 1072, 1269, 2107, 2793
12666, 1051, 1430, 1178, 1540
12667, 2313, 2477, 2349, 1649
12668, 1770, 2776, 1764, 2063
12669, 1630, 1530, 1772, 2312
12670, 2063, 2776, 2742, 2863
12671, 2799, 1302, 2435, 1525
12672, 2459, 1298, 1762, 1299
12673, 2435, 1916, 1915, 2069
12674, 1607, 1730, 1144, 1188
12675, 1775, 2563, 2896, 2562
12676, 1868, 2081, 2718, 2342
12677, 2337, 2897, 2084, 2947
12678, 2896, 2210, 1452, 2831
12679, 2896, 2865, 2209, 2210
12680, 2340, 2765, 2634, 2764
12681, 1437, 2647, 2763, 2815
12682, 1567, 2100, 1438, 2818
12683, 1653, 1651, 1650, 2346
12684, 1048, 1630, 1337, 1173
12685, 1233, 1368, 1370, 1384
12686, 1859, 1652, 1649, 2513
12687, 1335, 1651, 1649, 1648
12688, 1567, 1650, 1438, 2100
12689, 1015, 1038, 1032, 1013
12690, 1653, 1652, 1649, 1859
12691, 2037, 1068, 1196, 1620
12692, 2652, 2651, 1480, 1089
12693, 1949, 2068, 2335, 2783
12694, 1949, 2333, 2335, 2068
12695, 1464, 1683, 1951, 1577
12696, 2068, 2333, 2335, 1869
12697, 1093, 1066, 1564, 1334
12698, 1961, 1922, 1960, 1377
12699, 1842, 1960, 1961, 1922
12700, 1914, 2284, 2810, 2625
12701, 2182, 1757, 2109, 2305
12702, 2415, 2625, 2908, 2405
12703, 2811, 2980,  867,  794
12704, 2284, 1513, 3023, 2114
12705, 2015, 2531, 3029, 3010
12706, 1953, 2527, 2015, 2182
12707, 2757, 1956, 1805, 2371
12708, 1652, 1861, 2513, 1860
12709, 1915, 2547, 1916, 1460
12710, 2714, 2477, 1649, 2769
12711, 1651, 1648, 2073, 2418
12712, 2107, 2108, 1270, 1072
12713, 1336, 1059, 1066, 1807
12714, 1372, 1353, 1706, 1704
12715, 1465, 2441, 1731, 2785
12716, 2239,  464, 1993,  462
12717, 2239, 1985, 1993,  464
12718, 2760, 2449, 2892,  368
12719, 2240,  461, 2644, 2430
12720, 2760, 2892, 2761,  368
12721, 2916, 2898, 2882, 2884
12722, 1157, 1424, 1159, 1158
12723, 1713, 1797, 1786, 2420
12724, 1796, 1659, 1714, 1617
12725, 2567, 1795, 2750, 2421
12726, 1611, 2282, 2741, 2523
12727, 1429, 2941, 1390, 2378
12728, 3027, 1979, 2908, 2709
12729, 3027,  636, 2020,  645
12730, 2899, 1616, 2944, 2020
12731,  723,  996, 2153, 2983
12732, 2221, 1846, 2269, 1950
12733, 2944, 2900,  711, 2153
12734, 1952, 2908, 2415, 2625
12735, 2983, 2059,  720, 2709
12736, 1437, 1438, 2815, 2763
12737, 1650, 1437, 1438, 2815
12738, 1437, 1648, 2074, 2073
12739, 1434, 1437, 1648, 2074
12740, 1173, 1530, 1337, 1344
12741, 1436, 1437, 2763, 1438
12742, 1651, 1437, 2073, 1648
12743, 1651, 1649, 2418, 2586
12744, 1558, 1559, 1998, 1919
12745, 2340, 2934, 1603, 2341
12746, 2037, 2186, 2506, 1954
12747, 2767, 2229, 2981, 2232
12748, 1198, 2578, 1193, 1892
12749, 1996, 2066, 2274, 1997
12750, 2603, 2435, 2071, 2216
12751, 3049, 1997, 2064, 2285
12752, 2441, 2868, 2745, 2096
12753, 1996, 2326, 1690, 2066
12754, 2119, 1565, 2137, 1664
12755, 2315, 1476, 2745, 2232
12756, 2653, 1707, 1892, 2578
12757, 1302, 1301, 1525, 2799
12758, 2843, 1844, 1843, 1959
12759, 1965, 1357, 1966, 2162
12760, 1356, 1789, 1791, 1790
12761, 1799, 1669, 1239, 2296
12762,  967,  968, 1088, 2954
12763, 2954, 2840,  930,  929
12764, 3039,  929, 2954,  968
12765, 3039, 2954, 1377,  968
12766, 3039, 1377, 2840, 1388
12767, 2954, 1960, 2840, 1377
12768, 2954, 1960,  917,  930
12769, 1460, 1523, 1916, 1518
12770, 2867, 2693,  815, 2695
12771, 2867, 2877, 2919,  800
12772, 2126, 2878, 2877, 2879
12773, 2980, 2705, 2126, 2877
12774, 2811,  867, 2159,  997
12775, 3015, 2705, 2919, 2970
12776, 2877, 2919,  800,  995
12777,  995, 3015, 2980, 2877
12778, 1515, 1953, 1701, 1913
12779, 2867, 2917, 2877, 2158
12780, 2704, 2869, 2880, 2879
12781, 1153, 2343, 2489, 2999
12782, 1316, 1835, 1645, 1647
12783, 2478, 2748, 2926, 2012
12784, 2804, 2845, 2116, 2805
12785, 1533, 1737, 2086, 1170
12786, 1828, 2804, 2841, 2845
12787, 1830, 2167, 1943, 2804
12788, 1448, 1396, 1798, 1882
12789, 1056, 1078, 1617, 1660
12790, 1280, 1544, 1279, 1218
12791, 1263, 1922, 1575, 1090
12792, 2022, 1089, 1816, 1810
12793, 1655, 2809, 2284, 1654
12794, 1805, 2256, 2442, 2009
12795, 1240, 1794, 2661, 1853
12796, 2906, 2181, 2112, 1999
12797, 2181, 2110, 2527, 2182
12798, 1052, 1073, 1344, 1338
12799, 1170, 2191, 2086, 2090
12800, 1330, 1448, 1798, 1882
12801, 2261,  599, 1832,  579
12802, 2261, 1834, 1832, 1836
12803, 1543, 1655, 1511, 1657
12804,  601, 1834,  586, 2261
12805, 2261, 3009, 1832,  599
12806, 2261, 1836, 3009,  601
12807, 2261, 3008,  576,  579
12808, 2314, 2725, 2673,  571
12809, 2725,  569, 3001, 2106
12810, 2309, 2724, 3001, 1529
12811, 2968,  569,  571, 2725
12812, 1008, 2968,  569,  571
12813, 2309, 2930,  661,  660
12814, 2309,  566, 1529,  565
12815, 2748, 2291, 2722, 2926
12816, 1614, 2415, 1613, 1320
12817, 1798, 2824, 1396, 1449
12818, 1331, 1729, 2956, 1333
12819, 1294, 1289, 1181, 1872
12820, 1073, 1071, 1591, 1696
12821, 1798, 1882, 1399, 2093
12822, 2660, 2661, 2988, 2094
12823, 1330, 1333, 3005, 2988
12824, 2059, 2527, 2181, 1999
12825, 2528, 2527, 2181, 2059
12826, 1979,  999,  719, 2059
12827, 2528, 1979, 2684, 2059
12828, 2810, 2684, 1979, 1506
12829, 1952, 1914, 2810, 2625
12830, 2059,  999,  719,  720
12831, 2725, 2968, 2673,  571
12832, 2781, 2782, 1534,  665
12833, 2314,  666, 1534, 2782
12834, 2089,  667, 2314, 1009
12835, 1148, 1996, 2489, 1690
12836, 1542, 1417, 1544, 1549
12837, 2912, 2860, 1813, 1499
12838, 1512, 2860, 1787, 2018
12839, 1509, 2405, 1513, 2625
12840, 1756, 1817, 2278, 2305
12841, 2160,  871, 3010, 2059
12842, 2867, 2917, 2692, 2695
12843, 2867, 2695,  815,  798
12844, 2174, 2158, 2693,  819
12845, 1934, 2174, 2693, 1980
12846, 2693,  815, 1980,  817
12847, 1408, 1845, 2589, 2881
12848, 1732, 2589, 2651, 2703
12849, 2589, 1408, 2587, 1845
12850, 2587, 2127, 2869, 2871
12851, 1732, 2588, 2589, 2703
12852, 1256, 1818, 1574, 1740
12853, 1090, 1480, 2651, 1089
12854, 2652, 2651, 1092, 2703
12855, 1111, 1112, 1110, 2577
12856, 2245, 2301, 2241, 2302
12857, 2597, 1067, 2230, 2219
12858, 2653, 2654, 2985, 2251
12859, 2823, 2169, 2660, 2992
12860, 1996, 1709, 2326, 2601
12861, 1405, 1677, 1678, 1898
12862, 1195, 2440, 1109, 2775
12863, 1885, 2295, 1886, 2990
12864, 2823, 2660, 2169, 1853
12865, 2990, 2139, 1625, 1896
12866, 1896, 2087, 1623, 1886
12867, 2925, 2927, 2969, 3007
12868, 2283, 2278, 1817, 2305
12869, 2277, 2136, 2924, 2969
12870, 1940, 2969, 2924, 2925
12871, 1326, 1501, 1508, 1628
12872, 2925, 3031, 2893, 1203
12873, 2906, 2153, 2944, 2983
12874, 2277, 2266, 2271, 2267
12875, 1830, 2730, 2167, 2804
12876, 1534, 2968, 2673, 2133
12877, 2674, 2594, 2231, 2889
12878, 2724, 2310, 2889, 1529
12879, 2724, 2930, 2314, 2666
12880, 2480, 2482, 2744, 1973
12881, 1908, 2382, 2014, 2447
12882, 2395,   88,   90, 2171
12883,  179, 2400, 2540, 2470
12884, 2468, 2460, 2637, 2798
12885, 2109, 2112, 2181, 2110
12886, 2862, 2637,  853, 2460
12887, 2637, 2798, 2471, 2468
12888, 2460, 2637,  853,  956
12889, 2485, 2943, 2460, 2755
12890, 2485, 2460,  865,  862
12891, 1166, 2500, 2743, 1592
12892, 2460, 2943,  865,  861
12893, 1578, 1777, 1580, 1393
12894, 2836, 2942, 2377, 2491
12895, 1778, 2735, 2676, 2499
12896, 1345, 1346, 1347, 2875
12897, 1584, 1918, 1957, 1428
12898, 2583, 1672, 2537, 2574
12899, 2495, 1166, 2790, 1161
12900, 2686, 2683,  937,  943
12901, 1583, 1381, 2683, 1380
12902, 3024, 1958,  915,  918
12903, 3024, 1958, 1840, 2451
12904, 1394, 3024, 1840, 2451
12905, 3024, 2451,  914,  915
12906, 1394, 3024, 1472, 1273
12907, 3024, 1962, 1273, 1958
12908, 1747, 2745, 1476, 2232
12909, 1743, 2290, 2097, 2819
12910, 1743, 2202, 2290, 1409
12911, 2064, 1743, 1409, 2265
12912, 2119, 1565, 2121, 2137
12913, 2064, 2819, 2557, 1409
12914, 1994, 1747, 3049, 2064
12915, 2265, 2557, 1997, 2556
12916, 1122, 2621, 2623, 2758
12917, 1694, 2108, 1074, 1385
12918, 1383, 1390, 1425, 2370
12919, 2109, 2181, 2182, 2110
12920, 2715, 2534, 2107, 2769
12921, 1246, 2177, 1728, 1288
12922, 2832, 2107, 2534, 1249
12923, 2715, 2629, 2832, 2534
12924, 1652, 2714, 1649, 2513
12925, 2793, 2107, 1250, 2062
12926, 1360, 1333, 2168, 2754
12927, 1794, 2661, 2169, 2151
12928, 1106, 1333, 1360, 1329
12929, 1468, 1195, 1469, 1727
12930, 1794, 1852, 2187, 2169
12931, 1706, 1852, 1794, 1853
12932, 2660, 2169, 2661, 2094
12933, 2661, 1333, 2988, 2168
12934, 1896, 1898, 1835, 2087
12935, 1153, 2489, 2963, 2999
12936, 2885, 2926, 2325, 2590
12937, 1690, 2492, 3006, 2343
12938, 2478, 2748, 2012, 2013
12939, 2010, 2299, 3037, 3002
12940, 1072, 1268, 1269, 2793
12941, 2027, 2305, 2851, 2655
12942, 2023, 2589, 1732, 2127
12943, 1699, 1657, 2970, 1654
12944, 2276, 2208, 1320, 1912
12945, 1510, 1513, 2846, 3023
12946, 2022, 2854, 2655, 1827
12947, 2022, 1484, 1817, 1816
12948, 2022, 2652, 1480, 1089
12949, 1668, 1657, 1548, 2706
12950, 2652, 1891, 1889, 2703
12951, 2015, 2851, 2027, 2182
12952, 2317, 1537, 1204, 1465
12953, 1995, 1997, 2274, 1998
12954, 2653, 1708, 1707, 2578
12955, 1567, 1571, 2103, 2818
12956, 1035, 2787, 2053, 2786
12957, 2786, 2853, 1035, 2787
12958, 2801, 2100, 1664, 2904
12959, 1743, 1409, 2819, 2064
12960, 1409, 1919, 1743, 2202
12961, 2265, 1919, 2138, 1998
12962, 1965, 2162, 1966, 2606
12963, 1966, 2706, 2948, 3016
12964, 1654, 3023, 2284, 1510
12965, 1734, 2531, 2016, 2015
12966, 1512, 1511, 2018, 1787
12967, 1545, 1718, 1218, 1279
12968, 1512, 1510, 2846, 2018
12969, 2720, 2833, 2455, 2755
12970, 2833, 1722, 2791, 2575
12971, 1999, 2709, 2906, 2181
12972, 2790, 2499, 2861, 2755
12973, 2861, 2943, 2460, 2862
12974, 2483, 2720, 2155, 2743
12975, 2823, 2087, 1856, 2995
12976, 1317, 2486, 1646, 2487
12977, 1896, 1625, 1623, 1624
12978, 1719, 2824, 2262, 3008
12979, 1404, 1589, 1690, 1411
12980, 2660, 2824, 2092, 1798
12981, 1114, 2177, 1107, 1246
12982, 2660, 1798, 2092, 2093
12983, 1500, 1719, 2336, 1834
12984, 2824, 2092, 1798, 3012
12985, 1396, 2262, 2824, 3012
12986, 1716, 2912, 1719, 1398
12987, 1255, 2492, 1643, 2025
12988, 1355, 1790, 1374, 1965
12989, 2813, 1224, 1232, 2814
12990, 2007, 1782, 2056, 1781
12991, 1907, 2481, 2381, 2034
12992, 2479, 2400,   87, 2385
12993, 2817, 1674, 2814, 1224
12994, 1631, 1782, 1911, 1972
12995, 1084, 1193, 1083, 1081
12996, 2244, 1851, 2099, 1955
12997, 1895, 2654, 2139, 2595
12998, 2876, 2132, 2131, 2133
12999, 1642, 1822, 2753, 1766
13000, 2751, 2752, 2407, 2777
13001, 1820, 1823, 1824, 2044
13002, 1300, 1642, 1301, 1641
13003, 2753, 1825, 2710, 2498
13004, 2117, 2014, 2030, 1899
13005, 2753, 1825, 2498, 2434
13006, 1640, 2777, 1713, 2752
13007, 2753, 1822, 2406, 2401
13008, 2753, 2406, 1825, 2434
13009, 1937, 1639, 2118, 1936
13010, 1324, 2727, 2487, 1615
13011, 1613, 1629, 1628, 2998
13012, 1615, 2487, 3028, 2145
13013, 2726, 1615, 2899, 2902
13014, 1614, 2899, 2944, 2900
13015, 1616, 2903, 1615, 3028
13016, 1613, 3028, 1615, 2487
13017, 1646, 2487, 2488, 3030
13018, 2727, 2486, 2145, 2143
13019, 2486, 2143, 2144, 2145
13020, 1645, 1327, 1646, 1629
13021, 1629, 1646, 3030, 2487
13022, 2825, 2876, 2132, 2131
13023, 1154, 2924, 1153, 2893
13024, 2276, 1941, 2208, 2927
13025, 1968, 1634, 2743, 1969
13026, 2480, 2001, 2034, 1632
13027, 1968, 1634, 1969, 1972
13028, 1969, 1592, 2743, 1970
13029, 1746, 1969, 2564, 2444
13030, 1969, 2564, 2444, 2511
13031, 2511, 1592, 1969, 2564
13032, 1907, 2481, 2576, 2381
13033, 1908, 1907, 2190, 2034
13034, 1392, 1156, 1133, 1365
13035, 1968, 1970, 2743, 2397
13036, 2875, 1345, 2953, 2352
13037, 1675, 1673, 1672, 2953
13038, 2875, 2583, 1672, 2537
13039, 2857, 2499, 2862, 2861
13040, 1671, 1674, 2820, 2366
13041, 2894, 2875, 2352, 1347
13042, 2735, 2736, 3051, 2739
13043, 2834, 2575, 2833, 2457
13044, 1582, 2499, 2798, 2862
13045, 1578, 1585, 1579, 1427
13046, 2994, 1585, 2798, 2446
13047, 2994, 1593, 2564, 1592
13048, 1146, 2134, 2539, 2492
13049, 2008, 2191, 2090, 1956
13050, 1362, 1370, 1365, 1697
13051, 2620, 1802, 2443, 2439
13052, 2026, 1384, 1389, 1921
13053, 1036, 1254, 1251, 1258
13054, 1170, 2344, 1740, 1920
13055, 2873, 1906, 1575, 3025
13056, 2873, 1922, 1906, 2840
13057, 1906, 1387, 1388, 2840
13058, 2777, 2752, 2048, 2046
13059, 2407, 2776, 2777, 2048
13060, 2777, 2776, 2742, 2048
13061, 1713, 2752, 2777, 2046
13062, 1713, 2428, 1344, 2420
13063, 1268, 2313, 1269, 2793
13064, 1713, 1297, 1712, 2777
13065, 1304, 1463, 2115, 1917
13066, 1819, 1642, 1820, 1822
13067, 1712, 2777, 2776, 2742
13068, 2203, 2553, 2081, 2082
13069, 2083, 2699,  393,  386
13070, 2083, 2028,  387,  390
13071, 1685, 2028, 2080, 2070
13072, 2080, 2029, 2083, 2028
13073, 2208, 2929, 2900, 2140
13074, 2929, 2900, 2140, 2157
13075, 1614, 2899, 1616, 2944
13076, 1521, 1562, 2550, 2339
13077, 1516, 1518, 1517, 2031
13078, 2031, 1518, 1517, 1846
13079, 1490, 2837, 1674, 2813
13080, 1334, 1650, 1437, 1438
13081, 1869, 2348, 2279, 2198
13082, 1130, 1078, 1080, 1075
13083, 1748, 1211, 2260, 1753
13084, 1211, 1749, 1748, 2701
13085, 1950, 2591, 1749, 2701
13086, 1270, 1385, 2832, 1804
13087, 1294, 1289, 1872, 1875
13088, 1291, 2716, 1749, 2702
13089, 1290, 2909, 2741, 1292
13090, 1714, 1177, 1936, 1178
13091, 1904, 1939, 1935, 2014
13092, 1938, 1618, 1796, 1612
13093, 1908, 1415, 1903, 1939
13094, 2936, 2221, 2243, 2242
13095, 1270, 2107, 2477, 2715
13096, 2714, 1862, 1649, 2477
13097, 2221, 2243, 2236, 1540
13098, 1611, 2439, 2177, 2282
13099, 1721, 2584, 2677, 2491
13100, 2836, 1760, 2154, 1759
13101, 2379, 2377, 1755, 1760
13102, 2423, 2425, 1760, 1618
13103, 1721, 1415, 1722, 2584
13104, 2148, 2188,   76,   75
13105, 2148, 2188,   75, 2149
13106, 2148, 2190,   78,   76
13107, 2148, 2188, 2149, 2189
13108, 2148, 2190, 2381,   78
13109, 2148, 2190, 2189, 2381
13110, 1301, 2799, 1915, 2049
13111, 1460, 1459, 1463, 1917
13112, 1095, 1270, 1045, 1862
13113, 1994, 1747, 1477, 3049
13114, 1538, 2222, 2916, 2211
13115, 1981, 1143, 1989, 2785
13116, 1986, 1981, 1984, 1992
13117, 1981, 1982, 2785, 2441
13118, 1894, 2219, 2235, 2319
13119, 2235, 2597, 2307, 2230
13120, 2235,  534, 2307,  536
13121, 2235,  536, 2307, 2319
13122, 2235, 2230,    6,    7
13123, 2235, 2230, 2307, 2142
13124, 2258, 2763,  447,  446
13125,  442, 2821, 2074,  441
13126, 2258, 2647,  447, 2763
13127, 1601, 2074, 2258, 2763
13128, 2258, 2634,  446,  428
13129, 2258,  442, 2647, 2074
13130, 2263,  502, 1954,  346
13131, 2263, 2152,    5,  346
13132, 2150, 2263, 2151, 2187
13133, 2263, 2187,    6,    5
13134, 2263,    6, 2170,  502
13135, 2152,    5,  346,  347
13136, 1744, 1994, 2265, 2064
13137, 1778, 2676, 2834, 2499
13138, 2667, 2989, 2672, 2960
13139, 2599, 1997, 2602, 2601
13140, 1274, 1191, 1193, 1278
13141, 1477, 2599, 1709, 1997
13142, 2667, 2325, 2926, 2294
13143, 2291, 1857, 2288, 2599
13144, 1340,  899, 1666,  903
13145, 1339, 1341, 2494, 2332
13146, 1394, 1841, 2451, 1840
13147,  900, 2932,  899,  826
13148, 2344, 2959, 2086, 2345
13149, 1740, 2849, 1920, 3032
13150, 1700, 1734, 1482, 1505
13151, 1171, 2026, 2090, 1921
13152, 1718, 1811, 1544, 1279
13153, 1091, 1575, 2873, 1090
13154, 1483, 1482, 1484, 1817
13155, 1574, 1740, 1818, 1742
13156, 2344, 1740, 1920, 3032
13157, 1533, 1740, 2086, 1741
13158, 1533, 1170, 1740, 1256
13159, 1417, 1280, 1218, 1544
13160, 1905, 1906, 1921, 1920
13161, 2481, 2380, 2386, 2473
13162, 2386, 2473,   66,  496
13163, 2386, 2380, 2385,   66
13164,   67,   73,   71, 2386
13165, 2455, 2386,  496, 2473
13166, 1822, 1821, 2401,  134
13167, 2417,  133, 1822, 1929
13168, 1297, 1712, 2777, 2776
13169, 1674, 2814, 2820, 2366
13170, 2417, 2414,  136, 2356
13171, 1637, 1927, 2753, 2710
13172, 1819, 2406, 2753, 1822
13173, 2609, 2817, 1674, 1673
13174, 2916, 2882, 2895, 2890
13175, 2448, 2179,  529,  344
13176, 2707,  367, 2449,  529
13177,  369, 2449,  368,  367
13178, 2892, 2449, 2898,  367
13179, 2760, 1984, 1986, 2222
13180, 2898, 2700, 2882,  523
13181, 2376, 2124, 2585, 2041
13182, 1825, 2117, 1348, 2124
13183, 2005, 2585, 2045, 2394
13184, 2004, 1826, 2045, 2585
13185, 2248, 1935, 1936, 1714
13186, 1785, 1786, 1781, 2752
13187, 1044, 1048, 1433, 1269
13188, 2485,   38, 2455,   69
13189, 2482, 2743, 2155, 1552
13190, 2485, 2359,   69, 2455
13191, 1528, 1061, 1354, 1223
13192, 1383, 1370, 1694, 1425
13193, 1946, 2883, 2548, 1140
13194, 1541, 1846, 1517, 1518
13195, 2715, 2534, 2832, 2107
13196, 1884, 1801, 1803, 1800
13197, 1235, 2026, 1385, 1804
13198, 1946, 2548, 2549, 1138
13199, 2391, 2465, 1311, 2054
13200, 2465, 2272, 2788, 1311
13201, 1314, 1311, 2465, 2788
13202, 2526, 2461, 2626, 2459
13203, 2393, 2312, 2598, 2691
13204, 2055, 2393, 1312, 1311
13205, 2465, 2626, 2788, 2272
13206, 1455, 1462, 1463, 1459
13207, 1630, 1530, 2312, 1337
13208, 1541, 1846, 1916, 1847
13209, 2080, 2083, 2029, 2719
13210, 1684, 1681, 2627, 1626
13211, 2835, 2719, 2029, 2631
13212, 1685, 1627, 2028, 2070
13213, 2291, 2663, 2722, 2293
13214, 2722, 2789, 2293,  663
13215, 1139, 1711, 1141, 1112
13216, 2227, 2722, 2293,  663
13217, 2749, 2663, 2721, 2310
13218, 2309, 2930, 2310, 2722
13219, 2314, 2665, 2789,  667
13220, 2039, 2424,   55,   58
13221, 2039, 2659,   60,   59
13222, 2510,   59, 2039,   55
13223, 2039, 2659, 2424, 2529
13224, 2039,   60, 2529,   81
13225, 2039, 2529, 2424, 2149
13226, 2529,   81, 2149, 2039
13227, 2568, 2422, 2428,  229
13228, 2568, 2592,  270,  253
13229, 2568, 2351,  229, 2428
13230, 2568, 2032, 2422,  263
13231, 2568,  253, 2351, 2592
13232, 2568, 2593, 2592, 2657
13233, 2568,  271, 2593, 2657
13234, 1788, 1545, 1787, 1717
13235, 1919, 1567, 1565, 1569
13236, 1704, 2504, 2597, 2440
13237, 1565, 1664, 2100, 2137
13238, 2103, 1567, 1565, 1919
13239, 1565, 2103, 1919, 2253
13240, 1182, 1139, 1112, 1711
13241, 1539, 1204, 1192, 1274
13242, 1565, 1919, 2121, 2253
13243, 2119, 1664, 2137, 2120
13244, 2952, 2820, 2366, 2538
13245, 1758, 1725, 1803, 2887
13246, 2367, 2538, 2677, 2951
13247, 1224, 1220, 2610, 2813
13248, 2675, 2538, 1759, 2952
13249, 2538, 2677, 2951, 2467
13250, 1619, 2393, 1772, 1530
13251, 1337, 1338, 2568, 2657
13252, 2793, 1795, 2032, 2061
13253, 2793, 2032, 1338, 2657
13254, 2793, 1338, 2032, 1795
13255, 1867, 2196, 2333, 2199
13256, 2196, 2068, 2333, 2199
13257, 2333, 1808, 1949, 1863
13258, 1869, 2333, 2335, 1863
13259, 1215, 1621, 1622, 1527
13260, 1869, 1519, 2348, 1864
13261, 2680, 1867, 2662, 2630
13262, 2835, 2029, 1684, 2627
13263, 2835, 2779, 1864, 2197
13264, 2196, 2631, 2835, 2197
13265, 2835, 1684, 2029, 2719
13266, 2835, 1864, 2779, 1459
13267, 1577, 2558, 2553, 2419
13268, 1683, 1684, 2835, 2719
13269, 1351, 2463, 2370, 1349
13270, 1351, 1117, 2463, 1349
13271, 2463, 2370,   30,   29
13272, 2463, 1693, 1695, 2370
13273, 2463, 2370,   29, 1693
13274, 2463, 1695,  196,  197
13275, 1695, 1117,  197, 2463
13276, 1083, 2578, 2888, 2304
13277, 1849, 1478, 1479, 2324
13278, 2323, 1529, 2310, 2311
13279, 2653, 2596, 2889, 2888
13280, 2889, 1529, 2323, 2298
13281, 2324, 2663, 2749, 2310
13282, 2674, 2673, 2724, 2106
13283, 2741, 1292, 2017, 2282
13284, 2017, 2909, 2523, 2658
13285, 1687, 1708, 2594, 2674
13286, 2478, 2748, 2780, 2926
13287, 2594, 2596, 2654, 2595
13288, 2889, 2888, 2323, 2578
13289, 2324, 2013, 2310, 2323
13290, 1996, 1997, 2601, 2300
13291, 1994, 1477, 1997, 3049
13292, 2206, 2974, 1860, 2256
13293, 2206, 2974, 2904, 2215
13294, 2206, 2040, 2215,  491
13295, 2206, 2256,    2,   25
13296, 1545, 1718, 1279, 1811
13297, 2206,  453, 1860, 2040
13298, 2206, 2904,   24,  491
13299, 2809, 1656, 1655, 1914
13300, 1866, 2342, 1814, 2203
13301, 1569, 1558, 1919, 1470
13302, 1566, 1567, 1565, 1664
13303, 1608, 1603, 2085, 2708
13304, 2566, 2085, 2632, 2218
13305, 1143, 2784, 1989, 2785
13306, 1545, 1549, 1718, 1512
13307, 2085, 2708, 2566, 1608
13308, 1949, 2792, 2333, 2068
13309, 1606, 1814, 1423, 1871
13310, 1731, 1536, 2785, 1144
13311, 1197, 2646, 1141, 2548
13312, 2935, 2042, 2784, 2922
13313, 2560, 2864, 2708, 2642
13314, 1528, 2037, 2504, 1196
13315, 2802, 1947, 1453, 1944
13316, 1189, 1944, 2802, 1139
13317, 1850, 1851, 1082, 2330
13318, 2821, 2075, 1434, 2691
13319, 2821, 2691,  405,  438
13320, 2074,  441, 2258,  442
13321, 2264,  441, 2258, 2074
13322,  439,  442,  438, 2075
13323, 1657, 1654, 3021, 2970
13324, 2821, 2264,  441,  400
13325, 2416, 2698, 2821, 2691
13326, 1845, 2881, 1090, 2651
13327, 1657, 3022, 1654, 1510
13328, 1395, 1584, 1918, 1957
13329, 2873, 2840, 1906, 3025
13330, 2651, 1480, 1481, 1732
13331, 1838, 1839, 1261, 1843
13332, 2844, 3019, 2870, 3050
13333, 1073, 1795, 2567, 1797
13334, 1591, 1074, 1073, 1080
13335, 2863, 2696, 2525, 2505
13336, 2045, 2541,   89,  184
13337, 1657, 2948, 1548, 2706
13338,  126, 2394, 2395, 2045
13339, 1657, 3021, 1654, 3022
13340, 2045, 2541, 2395,   89
13341, 2395, 2045, 2005, 2541
13342,  128,  126, 2058, 2394
13343, 1434, 2074, 1648, 2075
13344, 1212, 1562, 1560, 2550
13345, 1212, 1517, 1561, 1213
13346, 1294, 1293, 1749, 1753
13347, 1314, 1595, 2788, 2419
13348, 1571, 1438, 2765, 2818
13349, 2341, 1571, 1438, 2765
13350, 1657, 1548, 2948, 1717
13351, 1527, 1620, 1197, 1622
13352, 1573, 1919, 2103, 2202
13353, 1568, 2320, 1571, 2341
13354, 2340, 2934, 2341, 2764
13355, 1993, 2268,  458, 1991
13356, 1277, 1282, 1893, 1892
13357, 2760, 1992, 1993, 1986
13358, 2760,  456, 2449,  368
13359, 1984, 1100, 2916, 2892
13360, 1993, 1985,  458,  464
13361, 2441, 1465, 2766, 1983
13362, 1589, 1559, 2274, 1411
13363, 1206, 1477, 1199, 1479
13364, 1083, 2323, 2888, 2578
13365, 2291, 1857, 2663, 2129
13366, 1981, 2441, 1988, 1983
13367, 2713, 2749, 2323, 1850
13368, 2915, 2129, 2327, 1857
13369, 2194, 2915, 1955, 1851
13370, 1857, 2330, 2327, 2915
13371, 1192, 1274, 1191, 1193
13372, 1109, 2775, 1112, 1469
13373, 1887, 1277, 1893, 1892
13374, 1240, 1360, 1333, 2661
13375, 2318, 1573, 1571, 2202
13376, 1267, 1072, 1268, 1269
13377, 2441, 2766, 2868, 1988
13378, 1567, 1573, 1919, 2103
13379, 1519, 1457, 1561, 1521
13380, 2773, 2203, 2204, 2419
13381, 2079, 2800, 2699, 2081
13382, 1609, 2678, 2565, 2566
13383, 1608, 2566, 2632, 2770
13384, 1312, 2347, 2778, 2612
13385, 1517, 2031, 1563, 1516
13386, 1608, 2264, 1599, 2771
13387, 1608, 1603, 2771, 2085
13388, 1603, 1608, 1422, 1607
13389, 2960, 2668, 1150, 1152
13390, 1652, 1635, 1805, 2442
13391, 1567, 2100, 2801, 1650
13392, 1567, 1573, 2103, 1571
13393, 1650, 1438, 2100, 2815
13394, 1334, 1567, 1650, 1438
13395, 1240, 1360, 2661, 1794
13396, 2442, 1860, 1653, 2215
13397, 1849, 1857, 1851, 2330
13398, 1082, 1083, 1084, 1850
13399, 1081, 2986, 1083, 1082
13400, 2315, 2195, 1851, 2194
13401, 1469, 1112, 1141, 2775
13402, 2561, 1193, 2076, 2241
13403, 2233, 2244, 2099, 2430
13404, 2315, 2233, 2195, 2766
13405, 1955,  478, 2099, 2244
13406, 2011, 2956,  580,  771
13407, 2011, 2956,  980,  580
13408, 2011, 2193,   48,    1
13409, 2011, 2193, 2957,   48
13410, 2011, 2193,    1, 1873
13411, 2317, 2101, 2096, 2098
13412,    3,  980,    1, 2754
13413, 2119, 2967, 2623, 2120
13414, 2119, 2623, 2967, 2105
13415, 2621, 2119, 2623, 2120
13416, 2867,  798, 2919, 2918
13417, 2917, 2970, 2706, 2918
13418, 2317, 2745, 1743, 2097
13419, 2732, 2845, 2803, 2116
13420, 2732,  690, 2803,  686
13421, 1913, 2027, 2854, 2305
13422, 2275, 2147, 2283, 2854
13423, 2283, 2854, 1817, 2270
13424, 2854, 1817, 1482, 1756
13425, 2854, 2305, 2655, 2147
13426, 1731, 2922, 2934, 2784
13427, 1477, 2599, 1479, 1709
13428, 1996, 1709, 2885, 2326
13429, 2489, 1690, 2326, 2343
13430, 2674, 2724, 2889, 3001
13431, 1687, 2594, 1895, 2876
13432, 1709, 2599, 2601, 1997
13433, 2274, 1996, 1995, 1690
13434, 1514, 2860, 2846, 2913
13435, 1496, 1508, 1326, 1501
13436, 1512, 1499, 1718, 1813
13437, 1676, 2824, 2823, 2660
13438, 1396, 3012, 2824, 1798
13439, 1048, 1268, 2313, 1269
13440, 1502, 1586, 1645, 1503
13441, 1718, 1279, 1544, 1218
13442, 1718, 1544, 1811, 2912
13443, 2991, 2295,  536,  539
13444, 2991, 2354,  541,  540
13445, 2383,  540, 2991,  536
13446, 2991, 2354, 2295, 2990
13447, 2991,  541, 2990,  562
13448, 2991, 2295, 2251, 2990
13449, 2441, 2745, 2868, 2766
13450, 1676, 2660, 1798, 2824
13451, 2134, 3006, 2539, 2492
13452, 1497, 1230, 1412, 1417
13453, 1502, 1835, 1833, 1832
13454, 2037, 1794, 1353, 1852
13455, 2037, 2506, 2150, 1954
13456, 1372, 1555, 1556, 1705
13457, 1360, 1207, 1329, 1876
13458, 1360, 2661, 1794, 2151
13459, 2445, 2152, 2506, 2533
13460, 1211, 1563, 1749, 2701
13461, 1528, 2037, 1527, 1223
13462, 2674, 2133, 2669, 2673
13463, 1145, 2489, 1153, 2492
13464, 2314, 2673, 1534,  571
13465, 2968, 2673,  571, 1534
13466, 2745, 1202, 1743, 1205
13467, 1534, 2968,  570,  571
13468, 2781, 2254, 2672, 2088
13469, 2781, 2088, 2672, 2782
13470, 2781, 2669, 2133, 1534
13471, 2669, 1534, 2673, 2133
13472, 2842, 2254, 2996, 2088
13473, 2672, 2782, 2088, 2089
13474, 1933, 2175, 2931, 2174
13475, 2869, 2158, 2866, 2879
13476, 2869, 2127, 2880, 2871
13477, 2931, 2158,  893, 2866
13478, 1932, 2587, 2869, 2870
13479, 2704, 2879, 2877, 2158
13480, 1482, 1889, 1734, 1732
13481, 2613, 1356, 1789, 1547
13482, 1845, 2844, 1408, 2587
13483, 3019, 2587, 1408, 2844
13484, 1259, 1090, 1845, 1842
13485, 1965, 1546, 2613, 2610
13486, 2587, 2869, 2870, 2871
13487, 1841, 1932, 2175, 2176
13488, 1396, 1798, 1399, 3012
13489, 1324, 1615, 1614, 2901
13490, 1332, 1729, 2402, 1245
13491, 1450, 1449, 1396, 1719
13492, 1396, 1882, 1881, 1399
13493, 1281, 1280, 1880, 1397
13494, 1781, 2392, 2003, 2752
13495, 2752, 2543, 1786, 1781
13496, 1786, 1713, 2420, 2046
13497, 1779, 1781, 1785, 1786
13498, 2804, 2925, 2893, 1203
13499, 1602, 2876, 2825, 2131
13500, 2804, 2925, 1203, 2928
13501, 2276, 1658, 2277, 2927
13502, 1942, 1830, 1324, 2901
13503, 2842, 1829, 2732, 2131
13504, 2924, 3046, 1153, 3031
13505, 2804, 2730, 2167, 2116
13506, 3045,  756, 1742,  755
13507, 3045,  728, 2271,  756
13508, 3045, 2135, 2271,  728
13509, 2165, 3045, 2135, 1739
13510, 3045, 1739, 1738, 1742
13511, 2165,  751, 3045,  752
13512, 1974, 2540, 2002, 2372
13513, 2002, 2003, 2396, 2404
13514, 1968, 1552, 1551, 2397
13515, 2398, 2173, 2002, 2404
13516, 2000, 2004, 2002, 2006
13517, 1968, 1975, 1977, 1974
13518, 2033, 2005, 2389, 2376
13519, 2476, 2005, 2376, 2585
13520, 2400, 2540, 2470, 2001
13521,  527, 2395,   88,   90
13522, 1544, 1542, 1718, 1218
13523, 1511, 1657, 1510, 1717
13524, 1202, 1204, 2317, 1537
13525, 2159,  795, 1506,  997
13526, 2528, 2810, 1703, 2159
13527, 2809, 2970, 3015, 3014
13528, 2811, 2980,  794, 3015
13529, 2159,  795, 2684, 1506
13530, 2528, 2159, 2160, 2684
13531, 1913, 1756, 2305, 2854
13532, 1584, 1273, 1395, 1271
13533, 1578, 1585, 1271, 1581
13534, 1584, 1585, 3052, 1271
13535, 1426, 1584, 1585, 3052
13536, 1429, 2581, 1426, 1350
13537, 1390, 1376, 1429, 2378
13538, 1918, 1395, 1957, 1840
13539, 1578, 1447, 1777, 1393
13540, 1429, 2910, 1426, 2581
13541, 1376, 1428, 1961, 1386
13542, 1166, 1969, 1592, 2743
13543, 2084,  338, 2209, 2865
13544, 1137, 1181, 1180, 1207
13545, 1424, 1594, 2511, 1350
13546, 1157, 1426, 1594, 1350
13547, 2360, 2994, 1592, 2500
13548, 2499, 2460, 2500, 2798
13549, 2500, 2790, 1166, 2720
13550, 1400, 1428, 1429, 1386
13551, 1428, 2910, 1584, 1426
13552, 1231, 1490, 1669, 1535
13553, 1593, 2581, 1426, 3052
13554, 1592, 1746, 1970, 1969
13555, 3049, 2602, 2599, 1997
13556, 2819, 2285, 1747, 2064
13557, 2209, 2210,  337,  336
13558, 2232, 1476, 2599, 2767
13559, 1744, 1201, 1994, 2064
13560, 1352, 1121, 1706, 1240
13561, 1677, 1033, 1854, 1689
13562, 2599, 3049, 1747, 2602
13563, 1270, 2715, 2832, 2107
13564, 2909, 2523, 2658, 1612
13565, 2741, 1610, 1611, 1612
13566, 1805, 2757, 2371, 2256
13567, 1280, 1880, 1397, 1879
13568, 1610, 2909, 1612, 2741
13569, 1246, 1292, 2741, 1288
13570, 2108, 2107, 1249, 1250
13571, 2830, 1249, 2108, 2832
13572, 1696, 1795, 2107, 1250
13573, 2567, 1910, 2484, 2490
13574, 1596, 1423, 1814, 1871
13575, 1214, 2506, 2186, 2734
13576, 1360, 1876, 2754, 2152
13577, 2259, 2260, 1753, 2102
13578, 1872, 2259, 1753, 2102
13579, 1360, 2661, 2151, 2168
13580, 2259, 2734, 2937, 2192
13581, 2858, 2105, 2966, 3036
13582, 2274, 1690, 2105, 3003
13583, 2274, 1998, 2556, 2138
13584, 2858, 2138, 2274, 3036
13585, 2274, 1997, 2066, 2556
13586, 2274, 1690, 3003, 2066
13587, 1931, 1932, 2023, 1358
13588, 1266, 1259, 1930, 1789
13589, 1481, 2651, 1732, 2589
13590, 1838, 1844, 2844, 1840
13591, 1318, 1322, 1645, 1316
13592, 2176, 1932, 2844, 1841
13593, 1791, 1845, 2587, 2844
13594, 1170, 2090, 2086, 2344
13595, 1896, 1623, 1832, 1624
13596, 2087, 1832, 1833, 1835
13597, 1676, 2660, 2823, 1853
13598, 2823, 2087, 2995, 3008
13599, 1411, 2274, 1690, 2105
13600, 1146, 2539, 1690, 2492
13601, 2823, 2992, 2824, 3008
13602, 1360, 1876, 1873, 2754
13603, 2445, 2506, 2259, 2533
13604, 1872, 1876, 2445, 1724
13605, 1876, 1354, 1360, 1207
13606, 1360, 2038, 2151, 1794
13607, 1691, 1588, 1587, 1806
13608, 1689, 1856, 1886, 1855
13609, 2307, 1853, 2142, 1852
13610, 1852, 1855, 2307, 1853
13611, 1565, 1569, 1564, 1558
13612, 2306, 1886, 1885, 2295
13613, 1744, 1559, 1919, 1998
13614, 2306, 2383, 2307, 2355
13615, 2306, 2354, 1856, 1886
13616, 1887, 1894, 1893, 1855
13617, 2597, 1855, 2307, 1852
13618, 1894, 1893, 2597, 2219
13619, 1276, 1112, 1111, 2569
13620, 2653, 2251, 1885, 2654
13621, 1894, 1885, 1892, 2250
13622, 1383, 1694, 2358, 1425
13623, 1071, 1693, 1425, 1695
13624, 2830, 1694, 1693, 2358
13625, 1259, 1261, 1838, 1441
13626, 1349, 1429, 1386, 1350
13627, 2820, 2887, 2154, 2839
13628, 2887, 2296, 3044, 2838
13629, 2887, 1759, 2154, 2443
13630, 1800, 2887, 2296, 3044
13631, 1368, 1387, 1384, 1906
13632, 1884, 1245, 2402, 1800
13633, 2837, 1239, 2838, 1232
13634, 1169, 1384, 1921, 1906
13635, 1149, 1322, 1643, 1151
13636, 1481, 2023, 2589, 1732
13637, 1931, 2023, 1932, 2587
13638, 1375, 1670, 1839, 1361
13639, 2209,  334, 1452,  336
13640, 1670, 1374, 1675, 1345
13641, 1957, 1584, 1273, 1395
13642, 2896, 2210, 2209, 1452
13643, 1355, 1357, 1965, 2162
13644, 2794, 2084,  394,  318
13645, 2604, 1546, 2610, 2816
13646, 1672, 2953, 2875, 1345
13647, 1672, 2949, 2875, 2953
13648, 1224, 2609, 2817, 1674
13649, 1362, 1366, 1363, 1113
13650, 1239, 1490, 2813, 2837
13651, 2536, 2677, 2676, 2466
13652, 1443, 1674, 1673, 1675
13653, 2842, 2672, 2088, 2996
13654, 2960, 2885, 2989, 2976
13655, 1837, 1646, 1647, 2962
13656, 1923, 2669, 2876, 2131
13657, 2666, 2748, 2013, 2310
13658, 2667, 2294, 2780, 2331
13659, 2667, 2885, 2325, 2989
13660, 2668, 2667, 2672, 2960
13661, 2489, 2885, 2960, 2976
13662, 2842, 2254, 2669, 2131
13663, 2237, 2118, 1525, 1936
13664, 2237, 2118, 2117, 2746
13665, 2496, 2806,  116, 1348
13666, 2117, 2118, 2124, 1825
13667, 2753, 2401, 2406, 2434
13668, 2711, 2497, 2498, 2710
13669,  338, 2209,  318, 2084
13670, 1895, 2139, 2654, 2072
13671, 2674, 3001, 2889, 2231
13672, 2654, 2072, 2139, 2987
13673, 2072, 1896, 1806, 1895
13674, 2324, 2327, 1857, 1849
13675, 1502, 1835, 1586, 1678
13676, 2653, 2594, 2596, 2654
13677, 2594, 2889, 2596, 2231
13678, 2459, 2526, 2461, 2462
13679, 1768, 2115, 1682, 2412
13680, 1679, 1627, 1493, 1626
13681, 1682, 2412, 1494, 1888
13682, 1205, 1747, 2745, 1476
13683, 1477, 3049, 1747, 2599
13684, 1747, 2602, 2232, 2599
13685, 1747, 2097, 2745, 2232
13686, 2517, 2794,  317,  334
13687, 2285, 2602, 2232, 1747
13688, 2834, 2676, 2535, 2573
13689, 2834, 2833, 2575, 1722
13690, 2500, 2155, 2743, 2472
13691, 2495, 2499, 2500, 2798
13692, 2834, 2457, 2833, 2755
13693, 2857, 2499, 2861, 2676
13694, 2857, 2735, 2676, 2537
13695, 2677, 1722, 2676, 2584
13696, 2163, 2857, 2574, 2582
13697, 2735, 2582, 2697, 3051
13698, 1424, 1158, 1365, 1698
13699, 1172, 1175, 1431, 1174
13700, 1390, 1429, 1386, 1349
13701, 1363, 1922, 1260, 1961
13702, 1662, 1906, 1922, 1387
13703, 1593, 1594, 1426, 2581
13704, 1166, 2720, 2743, 2500
13705, 1725, 2820, 1759, 2538
13706, 1429, 2941, 1350, 1349
13707, 2710, 1825, 2118, 2496
13708, 1825, 2041, 2585, 2124
13709, 1825, 2406, 2058, 2434
13710, 1825, 2585, 2041, 2058
13711, 1685, 2081, 2080, 2719
13712, 1685, 2080, 2029, 2719
13713, 2553, 2080, 2081, 2082
13714, 1685, 1684, 2719, 2029
13715, 2080, 2083,  390, 2028
13716, 1685, 2028, 1684, 2029
13717, 1679, 1681, 1680, 1685
13718, 1464, 1577, 1951, 1314
13719, 2924, 2136, 2025, 2492
13720, 1940, 2925, 2927, 2969
13721, 2924, 2925, 3026, 3031
13722, 1500, 1883, 2336, 2912
13723, 2024, 1818, 2283, 1817
13724, 1613, 1628, 1514, 2405
13725, 1643, 2924, 2025, 2492
13726, 1502, 1645, 1326, 1503
13727, 2416, 2821, 2264, 1434
13728, 1601, 2763, 1434, 2074
13729, 1846, 2269, 2031, 2071
13730, 1039, 1226, 1136, 1433
13731, 2793, 2062, 2477, 2107
13732, 2313, 1432, 1649, 1648
13733, 2313, 1649, 2349, 1648
13734, 2794, 2897, 2209, 2517
13735, 2793, 1795, 1250, 2107
13736, 1750, 1287, 1288, 1286
13737, 2477, 1649, 2769, 2349
13738, 2423, 1415, 1618, 2836
13739, 1134, 1158, 1911, 1910
13740, 2423, 2491, 2375, 2368
13741, 2720, 2790, 1166, 2483
13742, 1721, 2836, 2368, 2491
13743, 2558, 2788, 2626, 2328
13744, 1720, 1164, 1161, 1722
13745, 2584, 2575, 2576, 2791
13746, 2480, 2385, 2744, 2551
13747, 2680,  313, 2630,  316
13748, 2718, 2947, 2342, 2800
13749, 2081, 2080, 2719, 2083
13750, 2554, 2558, 2328, 2553
13751, 1951, 2553, 2203, 2419
13752, 1685, 2081, 2553, 2080
13753, 1100, 1944, 2453, 1099
13754, 1532, 2863, 2525, 2505
13755, 2689, 2351, 2616, 2592
13756, 2863, 1297, 1299, 1770
13757, 2461, 2391, 2054, 2465
13758, 1302, 1915, 2435, 1916
13759, 1576, 2558, 2559, 1686
13760, 2644, 2224, 2222, 2223
13761, 1848, 2223, 2222, 2211
13762, 2429, 1983, 1984, 1986
13763, 2916, 2211, 2222, 2224
13764, 2558, 1686, 2070, 2559
13765, 2240, 2430, 2239,  461
13766, 1685, 2080, 2558, 2070
13767, 1951, 1865, 2081, 2719
13768, 1809, 1607, 1609, 2566
13769, 1189, 1140, 1138, 1139
13770, 1865, 2196, 2719, 2835
13771, 1949, 1776, 2334, 2792
13772, 1944, 1776, 1453, 2831
13773, 1776, 1453, 2831, 1452
13774, 2517, 1776, 2792, 2334
13775, 2896, 1773, 2562, 2452
13776, 1187, 2560, 1809, 2562
13777, 1809, 2687, 2560, 2566
13778, 2896, 2897, 2334, 2517
13779, 1441, 1259, 1789, 1791
13780, 1214, 2186, 1620, 2185
13781, 1872, 2259, 1222, 1753
13782, 1876, 1724, 2152, 2445
13783, 1410, 1257, 1665, 2622
13784, 1328, 1729, 1333, 1329
13785, 2276, 1940, 2024, 1321
13786, 2281, 2183,  269,  204
13787, 2183, 2371,   27,  204
13788, 2281, 2629, 1861,  269
13789, 2629, 1805, 2371, 2281
13790, 2281, 1861,  268,  269
13791, 2281, 1805, 2371, 2256
13792, 2388, 2183, 2371,   27
13793, 1709, 2599, 2600, 2601
13794, 1709, 2885, 2326, 2590
13795, 2289, 2600, 2590, 2291
13796, 2668, 2667, 2665, 2672
13797, 1996, 1709, 2601, 1997
13798, 1477, 1997, 3049, 2599
13799, 1474, 1705, 1588, 1707
13800, 1927, 1929, 2753, 2711
13801, 1479, 1857, 2291, 2599
13802, 2012, 1709, 2926, 2885
13803, 1580, 1346, 2736, 2740
13804, 1346, 2740, 1347, 2894
13805, 1583, 2464, 2570, 2683
13806, 1342, 1340, 1666, 2855
13807, 1339, 1361, 1381, 1346
13808, 1380, 1666, 2682, 2774
13809, 1394, 2451, 1841, 2450
13810, 2855, 1342,  850, 2357
13811, 2685, 1347,  847,  848
13812, 1157, 1424, 1350, 1594
13813, 2090, 2344, 2959, 2086
13814, 1921, 2501, 2344, 2502
13815, 1544, 1499, 1549, 1497
13816, 2026, 1385, 1804, 2388
13817, 2344, 1920, 2502, 3032
13818, 2001, 2540, 2470, 2002
13819, 2006, 2541, 2404, 2173
13820, 2033, 2400, 2036, 2399
13821, 1927, 2051, 1928, 1929
13822, 1823, 2003, 2426, 2752
13823, 1823, 2003, 2555, 2426
13824, 1642, 1820, 1766, 1767
13825, 2417, 1821,  134,  135
13826, 1819, 1637, 2753, 1825
13827, 2043,  130, 2403, 2045
13828, 1826, 2058, 1825, 2406
13829,  422, 2432, 2433, 2431
13830, 1303, 1927, 2049, 1928
13831, 2431,  422, 2286, 2287
13832, 1143, 2286, 2431, 1992
13833, 2454,  414, 2180,  345
13834, 1374, 1345, 1341, 2494
13835, 2932, 1341, 1340, 1342
13836, 1339, 1341, 2332, 1342
13837, 1933, 2932, 1341, 1340
13838, 1777, 1346, 2875, 2736
13839, 1839, 1670, 1444, 1442
13840, 1967, 2491, 2584,   42
13841, 1967, 2467,  857,  855
13842, 1967,   43, 2467, 2491
13843, 1967, 2466,  855,  856
13844, 1967, 2467,   43,  857
13845, 1967, 2466, 2677, 2467
13846, 1967, 2677, 2584, 2467
13847, 3033, 2466, 2535,  856
13848, 2832, 1385, 1270, 2108
13849, 1927, 1766, 2753, 1929
13850, 1246, 2741, 2177, 1288
13851, 1887, 1588, 1705, 1707
13852, 2629, 1805, 1652, 2715
13853, 2026, 1956, 2939, 2371
13854, 1805, 1804, 2715, 2371
13855, 1384, 1921, 1906, 1389
13856, 2936, 2017, 1292, 2822
13857, 1750, 1292, 1288, 2519
13858, 1292, 1288, 2519, 2282
13859, 1288, 1286, 1292, 1750
13860, 2313, 2738, 1648, 2349
13861, 1295, 2243, 2936, 2221
13862, 2741, 1292, 2282, 1288
13863, 1155, 1617, 1078, 1610
13864, 2456, 2473,  496,   61
13865, 2455,   39, 2456,  496
13866, 2456,   39, 2457,   40
13867, 2456, 2833, 2575, 2457
13868, 2575,   40,   61, 2456
13869,   41, 2575,   40,   61
13870, 2456, 2576,   61, 2575
13871, 2810, 1901, 2625, 3017
13872, 2528, 2059, 2709, 1979
13873, 2809, 2811, 2159, 1506
13874, 2276, 1912, 1757, 2109
13875, 2284, 1513, 2114, 2625
13876, 1317, 1324, 1151, 1829
13877, 1914, 1513, 2284, 2625
13878, 1656, 1699, 1543, 1702
13879, 1511, 1543, 1668, 1542
13880, 1784, 2376, 2014, 2124
13881, 2473, 2481, 2576, 2833
13882, 1779, 1786, 1782, 1781
13883, 1783, 2376, 2124, 2585
13884, 1974, 2002, 2373, 2372
13885, 1633, 1166, 2791, 2483
13886, 1782, 1972, 1971, 2427
13887, 1782, 1781, 2543, 2056
13888, 1786, 1782, 1781, 2543
13889, 2257, 2945, 2620, 2177
13890, 1360, 1354, 2038, 1352
13891, 1800, 2938, 2296, 1245
13892, 1918, 1957, 1428, 1961
13893, 2620, 1800, 2402, 2146
13894, 1800, 2443, 2887, 3044
13895, 1569, 1573, 1919, 1567
13896, 1275, 1274, 1278, 1191
13897, 1730, 1144, 1731, 2784
13898,  542, 2076,   11, 2762
13899, 1081, 2965, 2762, 1083
13900, 1680, 1488, 2458, 1576
13901, 1819, 1642, 1638, 1820
13902, 1306, 2459, 1488, 2465
13903, 1301, 1927, 2710, 2799
13904, 2459, 1576, 2626, 2664
13905, 1299, 1770, 2462, 2063
13906, 2459, 1762, 2458, 2664
13907, 1531, 1532, 1530, 2689
13908, 1303, 1301, 2049, 1927
13909, 1642, 1927, 1766, 2753
13910, 1531, 1712, 2505, 2428
13911, 1768, 1769, 2532, 1762
13912, 1577, 1314, 2788, 2419
13913, 1686, 1627, 2070, 2671
13914, 1685, 1627, 1679, 1684
13915, 2558, 2070, 2080, 2554
13916, 2678, 2273, 2566, 2770
13917, 2203, 2081, 2079, 2082
13918, 2337, 2565, 2342, 2947
13919, 2565, 2342, 2947, 2796
13920, 2337, 2947, 2084, 2563
13921, 2342, 2947, 2796, 2800
13922, 2454, 2448,  344, 2179
13923,  414, 2454, 2180, 2287
13924,  418, 2454,  345,  419
13925, 2431, 2454, 2448,  418
13926, 1187, 1142, 2560, 2562
13927, 2452, 2287, 2431, 1142
13928, 2431, 2287, 2454,  422
13929, 2965,  977, 2986, 1081
13930, 2713, 2965,  547,  977
13931,  548, 2712, 2713, 2986
13932, 1081, 2965, 1083, 2986
13933, 1850, 2713, 2965, 2323
13934, 2713, 2311,  547, 2964
13935, 2713, 2964, 2323, 2311
13936, 2458, 1686, 2559, 2671
13937, 1576, 2458, 1686, 2559
13938, 1680, 2458, 1488, 2115
13939, 1680, 2458, 1679, 1686
13940, 1768, 1762, 2532, 2458
13941, 2459, 2462, 1762, 2664
13942, 1642, 2753, 1637, 1927
13943, 1303, 2115, 1768, 2412
13944, 2458, 1686, 1627, 1679
13945, 2521, 2248, 1936, 3040
13946, 2236, 2248, 2242, 3040
13947, 1829, 2486, 1317, 1324
13948, 2909, 2248, 2242, 2243
13949, 2909, 2242, 2936, 2243
13950, 2909, 2248, 2658, 2242
13951, 1779, 1640, 1343, 1786
13952, 2521, 2014, 2529, 2030
13953, 1779, 2542, 1128, 1782
13954, 1081,  977, 2986,   12
13955, 1935, 2248, 2659, 1612
13956, 2653, 1708, 2594, 2654
13957, 2674, 2724, 3001, 2106
13958, 2670, 1687, 2876, 2674
13959, 1895, 2876, 2128, 2249
13960, 2885, 2489, 1688, 1996
13961, 2653, 2596, 2594, 2889
13962, 2724, 2673, 2725, 2106
13963, 2724, 1529, 2889, 3001
13964, 2930,  662, 2789,  661
13965, 2309, 2930, 2724, 2310
13966, 2309, 2724, 1529, 2310
13967, 2666, 2310, 2930, 2780
13968, 2674, 2594, 2128, 2231
13969, 2670, 1687, 1923, 2876
13970, 1197, 2548, 1622, 2247
13971, 1621, 1197, 2548, 1622
13972, 2548, 2549, 2247, 2065
13973, 1542, 1266, 1667, 1486
13974,  977, 2762, 1081, 2965
13975, 1484, 1265, 1483, 1228
13976, 1481, 2023, 2587, 2589
13977, 1734, 2015, 1889, 2027
13978, 1657, 2970, 3021, 2706
13979, 1569, 1573, 1567, 1571
13980, 1465, 2785, 1731, 1536
13981, 1848, 2244, 1084, 2233
13982, 2760, 2222, 2240, 2761
13983, 1068, 1620, 2733, 2184
13984, 1141, 2646, 2775, 2808
13985, 1197, 1620, 2184, 1622
13986, 1533, 2086, 2345, 1741
13987, 1481, 1845, 2589, 2587
13988, 1790, 1965, 2613, 2609
13989, 1239, 1667, 1553, 1669
13990, 1960, 1957, 1843, 1961
13991, 1443, 1675, 1673, 1672
13992, 1668, 1966, 2706, 1548
13993, 1546, 1220, 2610, 2816
13994, 2004, 2403, 1823, 2003
13995, 2403, 2396, 2003, 2404
13996, 2762, 2965,  977,  542
13997, 2403, 2404,  512, 2396
13998, 2909, 2741, 2017, 2523
13999,  207, 2044,  205, 2043
14000, 1824, 1820, 2044,  205
14001, 2403,  512, 2404,  184
14002, 2045, 2404,  184, 2403
14003, 2548, 2247, 2549, 1622
14004, 1621, 2548, 2549, 1622
14005, 2549, 2246, 1622, 2247
14006, 2549, 1663, 2550, 2246
14007, 1562, 2549, 2550, 2246
14008, 1807, 1436, 2341, 1438
14009, 1948, 1140, 1947, 2795
14010, 1197, 1068, 2184, 1620
14011, 1620, 2733, 2037, 1068
14012, 2186, 1620, 2733, 2037
14013, 2504, 1353, 1704, 1852
14014, 2037, 2733, 2504, 1068
14015, 2504, 2440, 1068, 1067
14016, 2933, 2775, 2440, 1068
14017, 1848, 1084, 2982, 1274
14018, 2933, 1068, 2440, 1067
14019, 1197, 1068, 1070, 2184
14020, 2621, 1371, 1094, 1122
14021, 2712, 2713, 2986, 1850
14022,  977, 1081,   11,   12
14023, 2986, 2965, 2713,  977
14024, 2965, 1083, 2986, 1850
14025, 1082,   12, 2986,   13
14026,  478, 2225, 2244, 1955
14027, 1083, 1193, 2076, 1081
14028, 2712, 1850, 1082, 2330
14029, 1024, 1332, 1884, 1535
14030, 1849, 1083, 1084, 1193
14031, 2324, 2323, 1083, 2578
14032, 1083, 1193, 2304, 2076
14033, 2712, 2749, 1850, 2327
14034, 1284, 2362, 1282, 2561
14035, 2313, 1432, 1648, 2312
14036, 2301, 2212, 2561, 1284
14037, 1111, 2569, 2577, 2212
14038, 1099, 1139, 1188, 1183
14039, 2933, 1283, 2362, 1893
14040, 2766, 2745, 2315, 1539
14041, 1465, 2745, 2441, 2766
14042, 2561, 2362, 1282, 2241
14043, 2909, 2248, 1612, 2658
14044, 2909, 2936, 2017, 1292
14045, 2340, 1601, 1603, 2634
14046, 1753, 1749, 1748, 1211
14047, 2340, 2935, 2934, 2764
14048, 1212, 1561, 2550, 1560
14049, 1597, 1608, 2264, 1599
14050, 1434, 2821, 2264, 2074
14051, 1601, 2258, 2074, 2264
14052, 2773, 1597, 1312, 2778
14053, 2312, 1435, 2524, 1772
14054, 1715, 1436, 1379, 1603
14055, 1651, 1334, 1335, 1650
14056, 1859, 2040, 2067, 1651
14057, 1652, 1862, 1335, 1649
14058, 2730, 2929, 2901, 1830
14059, 1652, 1653, 1635, 2442
14060, 1651, 1437, 2647, 2073
14061, 1651, 1650, 2346, 2647
14062, 2532,  515, 2628,  230
14063,  155, 1888, 1926, 2532
14064,  154, 1888, 1926,  155
14065,  242,  515, 2628, 2671
14066, 2619, 2257,   47, 2945
14067, 1617, 2909, 2248, 1612
14068, 2619, 2945,  828,  827
14069, 2619,  983, 2146,  827
14070, 2619, 2945,   47,  828
14071, 2619,  983, 2439, 2443
14072, 2009, 2621, 2758, 2974
14073, 2621, 2120, 2623, 2921
14074, 2621, 2758, 2123, 2921
14075, 2123, 2621, 2974, 2758
14076, 2009, 2904, 2621, 2974
14077, 2621, 1664, 2120, 2904
14078, 3011, 2973, 2161, 2016
14079, 2126, 2127, 2125, 2880
14080, 1318, 1322, 1326, 1645
14081, 2126, 2016, 2530, 2161
14082, 2878, 2126, 2980, 2161
14083, 2126, 2877, 2878, 2980
14084, 2530, 2980, 2705, 2126
14085, 2704, 2126, 2877, 2879
14086, 1699, 2809, 1654, 2970
14087, 1733, 1485, 1732, 2023
14088, 2486, 2487, 2145, 2488
14089, 1828, 2842, 1602, 1829
14090, 1829, 2727, 2732, 2143
14091, 2842, 2732, 2254, 2131
14092, 2842, 2996, 2254, 2803
14093,  691, 2803,  686,  688
14094, 2803,  686,  688, 2254
14095, 2842, 2963, 2960, 2672
14096, 2254,  688, 2088,  993
14097, 2781, 2669, 2672, 2254
14098, 2781, 2254, 2131, 2669
14099, 2668, 1923, 2672, 2669
14100, 2781,  570, 1534, 2133
14101, 2087, 1623, 2354, 2995
14102, 1896, 1886, 2990, 2072
14103, 1623, 2990, 2354,  541
14104, 1623, 1832,  579, 2995
14105, 1218, 1280, 1217, 1279
14106, 1799, 1416, 1244, 1242
14107, 1220, 1667, 1239, 1280
14108, 1280, 1544, 1397, 1279
14109, 1880, 1217, 1281, 2847
14110, 1242, 1880, 1243, 2847
14111, 1777, 2537, 2735, 2736
14112, 1396, 1879, 1716, 1397
14113, 1879, 1416, 1544, 1280
14114, 1816, 1920, 2849, 3025
14115, 1242, 1880, 2847, 1217
14116, 1879, 1396, 1882, 1881
14117, 2660, 2661, 2169, 1853
14118, 2169, 2823, 2355, 2992
14119, 2660, 2824, 2992, 2092
14120, 1289, 1207, 1872, 1876
14121, 1330, 1798, 2660, 2093
14122, 1330, 2661, 1333, 2988
14123, 1676, 2660, 1330, 1798
14124, 1466, 1297, 2863, 1712
14125, 1205, 1202, 1204, 2745
14126, 1687, 2668, 1150, 1688
14127, 1829, 2730, 1830, 2845
14128, 2823, 1856, 2355, 2995
14129, 2134, 2095, 2135, 2025
14130, 2622, 2539, 3041, 2105
14131, 2134, 2622, 2539, 3041
14132, 2095, 1818, 1742, 2135
14133, 2932,  899, 1340,  903
14134, 1260, 1842, 1922, 1090
14135, 1838, 1839, 1843, 1840
14136, 1224, 2817, 2609, 2610
14137, 1220, 1667, 1553, 1239
14138, 1260, 1842, 1961, 1922
14139, 2024, 2135, 2277, 2271
14140, 1674, 2813, 2837, 2814
14141, 1687, 2674, 2594, 2876
14142, 2665, 2669, 1534, 2673
14143, 2089,  667, 2331, 2665
14144,  990, 2089,  667, 2331
14145, 1009, 2089, 2782, 2314
14146, 2665,  667, 2314, 2089
14147, 2667, 2885, 2926, 2325
14148, 2781, 2782, 2672, 2669
14149, 2963, 2960, 2672, 2989
14150, 2672, 2331, 2665, 2089
14151, 2670, 2665, 2673, 2669
14152, 2666, 2667, 2780, 2665
14153, 2842, 2963, 2672, 2996
14154, 1374, 1675, 1345, 2493
14155, 1790, 1670, 1374, 1675
14156, 1838, 1841, 1840, 2844
14157, 1355, 1357, 2162, 1964
14158, 1963, 1341, 2494, 1374
14159, 1934, 2694, 1358, 1357
14160, 1934, 2931, 2692, 2174
14161, 1934, 2931, 1932, 2692
14162, 2704, 2692, 1358, 2869
14163, 1266, 1789, 1547, 1667
14164, 1932, 2870, 2869, 2866
14165, 2609, 1675, 1374, 2493
14166, 2799, 2049, 2052, 1915
14167, 1790, 2609, 1675, 1374
14168, 2975, 1624, 3047,  593
14169, 2975, 1624,  593,  594
14170, 2975, 2139, 1624, 1625
14171, 2139,  595, 2975, 2299
14172, 2975, 1624,  594, 1625
14173, 2975, 2139,  592,  595
14174, 1935, 2529, 1939, 2424
14175, 1938, 2659, 1935, 2424
14176, 1938, 1612, 1935, 2659
14177, 2521, 2522, 2374, 3040
14178, 1878, 2703,  890, 2588
14179, 1878, 2703,  892,  890
14180, 2799, 2052, 2049, 2618
14181, 1891, 1878,  892,  888
14182, 1890, 1878, 1889, 1891
14183, 1878,  887, 2125, 2588
14184, 1732, 1878, 2125, 2588
14185, 2314, 2725, 2724, 2673
14186, 2780, 2722, 2293, 2926
14187, 2780, 2293, 2722, 2789
14188, 2930, 2665, 2780, 2789
14189, 2666, 2724, 2310, 2889
14190, 2667, 2780, 2665, 2331
14191, 2667, 2926, 2780, 2294
14192, 2799, 2710, 2497, 2618
14193, 1708, 2674, 2889, 2594
14194, 2317, 1743, 2786, 2098
14195, 1893, 2984, 2238, 2219
14196, 1277, 1893, 2597, 1855
14197, 2799, 1525, 2497, 2710
14198, 2933, 1068, 1070, 2775
14199, 2844, 1840, 1844, 2451
14200, 2844, 2587, 2870, 3019
14201, 1841, 1840, 2844, 2451
14202, 1381, 2855, 2685, 2681
14203, 1342,  850, 1010, 2855
14204, 2683,  939, 2682,  937
14205, 2682, 2387,  940,  939
14206, 1381, 1380, 2682, 2683
14207, 2685, 2855, 1347,  848
14208, 2686, 2637,  942,  854
14209, 1672, 1361, 1443, 1345
14210, 2510, 2039,   59, 2659
14211, 1414, 2836, 1759, 1760
14212, 1490, 1674, 2837, 2820
14213, 1675, 2953, 1672, 1345
14214, 1674, 1443, 1671, 2820
14215, 1363, 1961, 1387, 1922
14216, 1443, 1445, 1674, 1675
14217, 1675, 1345, 2493, 2953
14218, 1671, 1673, 1674, 2366
14219, 1264, 1026, 1028, 1263
14220, 1671, 2366, 2820, 2538
14221, 1882, 1448, 1331, 1330
14222, 1728, 2193, 1729, 1873
14223, 1729, 1333, 1873, 2956
14224, 1729, 1245, 2649, 2945
14225, 1728, 2945, 1729, 2193
14226, 2009, 2256, 2442, 2974
14227, 2442, 2009, 2974, 2801
14228,   53, 2425,   55, 2510
14229, 2008, 2757, 1805, 2009
14230, 2510,   57, 2438, 2523
14231, 1336, 1436, 1438, 1437
14232, 1334, 1437, 1651, 1336
14233, 2009, 2974, 2801, 2904
14234, 2256, 2757, 2009, 1805
14235, 2009, 2621, 2904, 1664
14236, 1653, 1650, 2801, 2346
14237, 1289, 1873, 1287, 1329
14238, 2510, 2438,   53, 2425
14239, 1289, 1876, 1874, 1873
14240, 2104, 1876, 1875, 1724
14241, 1287, 2518, 1288, 2193
14242, 1728, 1873, 1287, 2193
14243, 1728, 1287, 1288, 2193
14244, 1270, 1804, 2832, 2715
14245, 1385, 2358, 1389, 1383
14246, 1168, 1740, 1574, 1816
14247, 1921, 1920, 2503, 2502
14248, 1696, 1072, 1073, 1071
14249, 1071, 1425, 1365, 1698
14250, 1694, 2358, 1425, 1693
14251, 1071, 2108, 1694, 1693
14252, 1383, 1385, 1384, 1389
14253, 2620, 2177, 2439, 2257
14254, 1012, 1168, 1170, 1256
14255, 2090, 2026, 1956, 2939
14256, 1921, 2502, 2344, 1920
14257, 1921, 2503, 1906, 1389
14258, 2026, 1921, 1389, 2501
14259, 1252, 1253, 1818, 2095
14260, 1170, 2344, 2086, 1740
14261, 1339, 1342, 2855, 1340
14262, 1963, 2508, 2174, 1980
14263, 1934, 1980, 1963, 2174
14264, 1355, 1375, 1931, 1933
14265, 1374, 1345, 2494, 2493
14266, 2134, 1255, 2095, 2025
14267, 2134, 2095, 2622, 1739
14268, 1257, 2622, 1737, 2623
14269, 1410, 2622, 2539, 2095
14270, 1404, 1407, 1589, 1411
14271, 1677, 1676, 1449, 2824
14272, 2908, 1616, 2405, 1902
14273, 3027,  720, 2709, 2983
14274, 1616, 1615, 2903, 2902
14275, 2899, 2902, 1616, 2020
14276, 1616, 2997, 2405, 1902
14277, 1644, 1509, 1912, 2415
14278, 1815, 2552, 2550, 2549
14279, 2747, 2552, 1663, 2550
14280, 2883, 1663, 2549, 2065
14281, 2510, 2523, 2659,   59
14282, 1870, 2279, 1519, 1521
14283, 2552, 2335, 2437, 2783
14284, 2883, 2065, 2548, 1140
14285, 1815, 2883, 2552, 2549
14286, 1908, 1904, 1903, 1784
14287, 2381, 2481, 2380, 2034
14288, 2510,   57, 2523,   59
14289, 2482, 2483, 2481, 2551
14290, 2481, 2473, 2386, 2551
14291, 2480, 2034, 2036, 2035
14292, 2380, 2385, 2480, 2386
14293, 2841, 2963, 3035, 2893
14294, 1153, 2999, 2963, 3035
14295, 2963, 2989, 2672, 2996
14296, 2960, 2963, 2999, 2989
14297, 2528, 1952, 1914, 2810
14298, 2842, 1602, 1923, 1152
14299, 2842, 2803, 2841, 2996
14300, 1152, 2893, 1153, 2963
14301, 2489, 2963, 2999, 2960
14302, 1638, 1636, 1637, 1819
14303, 1819, 2406, 1826, 1825
14304, 2043, 1823, 2403, 2555
14305, 1765, 2356, 1771, 1766
14306, 1783, 2476, 1784, 2376
14307, 1927, 2710, 2618, 2711
14308, 2753, 1822, 2401, 1929
14309, 2916, 2890, 2569, 2211
14310, 1983, 1465, 2766, 1539
14311, 2569, 2895, 2639, 2890
14312, 1793, 1621, 1138, 1560
14313, 1111, 2577, 2569, 1112
14314, 2569, 1711, 1112, 2338
14315, 2569, 1112, 2577, 2338
14316, 1996, 2326, 2489, 1690
14317, 1942, 2900, 2901, 1614
14318, 2999, 2960, 2976, 2489
14319, 2489, 2326, 2885, 2976
14320, 1150, 2960, 2489, 2885
14321, 1196, 2504, 2440, 1068
14322, 1893, 2597, 2219, 1067
14323, 2230, 2504, 1067, 2597
14324, 2516, 2897, 2517, 2334
14325, 2238, 1893, 2933, 2302
14326, 2037, 1223, 2506, 1620
14327, 2922, 2934, 2935, 2853
14328, 2317, 1731, 2786, 2320
14329, 2934, 2853, 2320, 2764
14330, 2898, 1100, 1101, 2700
14331, 2935, 2864, 2042, 2642
14332, 1144, 1142, 2784, 2864
14333, 2935, 2784, 2042, 2864
14334, 1153, 2893, 3031, 3035
14335, 1322, 1151, 1325, 1154
14336, 1317, 1829, 1151, 1602
14337, 1602, 2010, 2486, 3000
14338, 1837, 1836, 1647, 1835
14339, 1896, 1623, 1625, 2990
14340, 2963, 1153, 1152, 2489
14341, 1325, 1943, 1942, 1941
14342, 1658, 2828, 2276, 2277
14343, 2794, 2516, 2897, 2517
14344, 1324, 1327, 1614, 1615
14345, 2492, 2924, 1153, 1145
14346, 1895, 2594, 2595, 2128
14347, 1897, 1624, 1647, 3047
14348, 1896, 1647, 1624, 1835
14349, 2825, 1897, 2299, 2249
14350, 1895, 2139, 1897, 2249
14351, 2842, 2088, 2672, 2254
14352, 3037, 1897, 1647, 3047
14353, 2677, 2367, 2466, 2536
14354, 2536, 1671, 2365, 1672
14355, 2516, 1867, 2633, 2662
14356, 2857, 2574, 2582, 2537
14357, 1392, 1961, 1428, 1386
14358, 2536, 2538, 1723, 2677
14359, 2535, 2584, 2677, 2676
14360, 1262, 1553, 1789, 1667
14361, 1392, 1365, 1363, 1386
14362, 2820, 2538, 2952, 1759
14363, 2820, 2887, 1759, 2154
14364, 1829, 1324, 1830, 2727
14365, 2516, 1867, 2515, 2633
14366, 1723, 2676, 2677, 1722
14367, 1758, 1802, 1760, 1759
14368, 1713, 2777, 2826, 2046
14369, 1713, 1531, 1344, 2428
14370, 2046, 2752, 2543, 1786
14371, 2542, 1782, 2427, 1911
14372, 1640, 1786, 2752, 1713
14373, 1713, 1712, 2428, 2826
14374, 2091, 2988,  572,  573
14375,  572,  581, 2988, 2091
14376, 2091, 2988, 2093, 3005
14377, 2091, 2093,  585, 3005
14378, 2091, 2093,  577,  585
14379, 2091, 2093, 2988, 2094
14380, 2091,  575, 2092, 2094
14381, 2091,  575, 2094,  573
14382, 1512, 2860, 1813, 1787
14383, 1499, 2860, 1813, 1512
14384, 1613, 1616, 1615, 3028
14385, 1151, 1602, 1828, 1152
14386, 1502, 1719, 1834, 1833
14387, 2860, 2914, 2912, 2946
14388, 1613, 3028, 1629, 2998
14389, 1292, 1290, 2936, 1291
14390, 2936, 1291, 2221, 2702
14391, 1291, 2702, 1749, 2221
14392, 1540, 2243, 1295, 2221
14393, 1291, 1749, 2716, 1748
14394, 1294, 1749, 1748, 1753
14395, 1290, 2909, 2936, 2243
14396, 1752, 2936, 2716, 1291
14397, 2936, 1291, 1752, 1292
14398, 2909, 2017, 2936, 2242
14399, 2936, 2221, 2242, 2702
14400, 1868, 2081, 1865, 2719
14401, 2936, 2716, 1291, 2702
14402, 1982, 1539, 1983, 1984
14403, 1359, 1207, 1329, 1360
14404, 1558, 2119, 1664, 1565
14405, 1715, 2934, 2320, 2341
14406, 1731, 2737, 2441, 2096
14407, 1197, 2548, 2247, 2646
14408, 1325, 1830, 1324, 1942
14409, 1868, 2342, 2718, 2947
14410, 1867, 2719, 2196, 2631
14411, 1865, 1864, 2196, 2835
14412, 2348, 2198, 2196, 2197
14413, 2196, 2197, 2835, 1864
14414, 1212, 2550, 1561, 1521
14415, 1422, 1601, 1435, 1597
14416, 2698, 2416, 1312, 2393
14417, 2416, 2691, 2393, 2698
14418, 2794, 2516,  317, 2662
14419, 2609, 1673, 1674, 1675
14420, 2863, 2776, 1297, 1770
14421, 2393, 1312, 1311, 1772
14422, 2680, 1867, 2630, 2719
14423, 2087, 2354, 1856, 2995
14424, 2337, 2516, 2333, 2334
14425, 2306, 1856, 2307, 1855
14426, 1853, 1855, 2307, 1856
14427, 1951, 2719, 1683, 1865
14428, 1319, 1254, 1412, 1498
14429, 1677, 2823, 1833, 2087
14430, 2563, 2687, 2688, 2077
14431, 2563, 2947, 2201, 2796
14432, 2084, 2563, 2201, 2200
14433, 2565, 2687, 2273, 2688
14434, 1775, 2562, 2896, 1773
14435, 2896, 2452, 2210, 2831
14436, 1775, 2896, 2337, 2334
14437, 1311, 1314, 1310, 1595
14438, 1704, 1285, 2440, 2597
14439, 1336, 1436, 1437, 1434
14440, 1653, 1635, 2801, 1650
14441, 1336, 2524, 1435, 1434
14442, 2009, 2904, 2801, 1664
14443, 1568, 1807, 2341, 1571
14444, 1609, 1597, 2678, 1608
14445, 1313, 1312, 1772, 1311
14446, 1690, 2066, 2274, 1996
14447, 1806, 2072, 1895, 2654
14448, 1257, 2622, 2095, 1737
14449, 1996, 2489, 2326, 2885
14450, 2748, 2780, 2926, 2722
14451, 2855, 2682, 1666, 2357
14452, 1381, 2855, 1666, 1340
14453, 1339, 2855, 1010, 1347
14454, 1347, 2855, 2685, 1381
14455, 1595, 2328, 2419, 2329
14456, 1933, 2175, 1841, 1932
14457, 2681, 2682, 2855, 2357
14458, 2353, 1874,   99,  290
14459, 2353,   99, 1874,  499
14460, 2353, 1874, 2104, 1873
14461, 2353, 1874, 1873, 1877
14462, 2353, 2754, 1873, 2104
14463, 2353, 2193,  499, 1877
14464, 2171, 2398, 2400,   86
14465, 2400, 2398, 2470,  179
14466, 2773, 2778, 1312, 1595
14467, 1310, 2773, 1595, 2419
14468,   84, 2171, 2399,   86
14469, 2171, 2172,   88, 2399
14470, 2470, 2540,  181, 2372
14471, 2398, 2173, 2541, 2395
14472, 1823, 2403, 2555, 2003
14473, 1765, 1763, 2356, 1769
14474, 2004, 1636, 1826, 2585
14475, 2043, 2403, 1823, 1826
14476, 2407, 1823, 2426, 2752
14477, 1823, 1638, 1820, 1819
14478,  207, 2555, 2426, 2043
14479, 2542, 1128, 1782, 1911
14480, 1819, 1824, 1821, 1820
14481, 2435, 2071, 2216, 1916
14482, 2542, 2427, 1782, 2543
14483, 1786, 2752, 1713, 2046
14484, 1963, 1374, 2494, 1964
14485, 1963, 1341, 2508, 2507
14486, 1933, 2174, 1963, 2508
14487, 1963, 2494, 1341, 2507
14488, 1933, 2175, 2932, 1340
14489, 1931, 1932, 1841, 2844
14490, 1355, 1931, 1358, 1932
14491, 2455,   38, 2457,   39
14492, 2455, 2457,   38, 2485
14493, 2455, 2755, 2833, 2457
14494, 2359, 2720, 2155, 2551
14495, 2720, 2359, 2500, 2755
14496, 1924, 1641, 1927, 1766
14497, 1611, 1802, 1114, 2177
14498, 1324, 1942, 1614, 1327
14499, 1072, 2793, 2107, 1795
14500, 1324, 2487, 1327, 1615
14501, 1048, 2313, 1268, 1337
14502, 2909, 2741, 1292, 2017
14503, 1463, 2835, 1681, 1459
14504, 1221, 1211, 1213, 1563
14505, 2113, 1397,  763,  764
14506, 2113, 1281, 1881, 1397
14507, 2113, 1811,  764,  761
14508, 2113, 1281,  766, 1881
14509, 2113,  766, 1323,  769
14510, 2113, 1323, 1219,  769
14511, 2514, 1752, 2759, 2519
14512, 2514, 2759,   91,   92
14513, 2514,  100,  104,   91
14514, 1751,  100,  104, 2514
14515, 2514, 1751, 1752,  104
14516, 2514, 1752,   96,  104
14517, 2514, 1752, 2519, 2822
14518,   96, 2514,   94, 2822
14519, 2015, 3010, 2527, 2531
14520, 1614, 2208, 2415, 1320
14521, 2015, 2852, 2527, 3010
14522, 2016, 3029, 2531, 3011
14523, 2016, 2015, 3029, 1890
14524, 1889, 1858, 2015, 1890
14525, 1482, 1913, 1505, 1734
14526, 1912, 1757, 2109, 2182
14527, 2005, 2376, 2041, 2389
14528, 2376, 2447, 2124, 2041
14529, 2404, 2173, 2002, 2006
14530, 1633, 1908, 1415, 1903
14531, 2033, 2376, 2390, 2034
14532, 2376, 2390, 2034, 2190
14533, 1909, 1632, 1784, 2476
14534, 2033, 2389, 2005, 2172
14535, 1908, 2476, 2034, 2376
14536, 1780, 1782, 2007, 1781
14537, 1301, 2799, 2710, 1525
14538, 1171, 2090, 2026, 1956
14539, 1802, 1800, 2443, 2887
14540, 1759, 2887, 1758, 1802
14541, 1611, 2741, 2282, 2177
14542, 1805, 2371, 2715, 2629
14543, 1611, 2523, 1938, 2425
14544, 1590, 1796, 1413, 1618
14545, 1802, 1760, 2443, 2379
14546, 1611, 2379, 1802, 2439
14547, 1803, 1490, 1535, 2837
14548, 1334, 1650, 1567, 2801
14549, 1567, 2801, 2100, 1664
14550, 1353, 1352, 1794, 2038
14551, 1807, 1438, 2341, 1571
14552, 1869, 1870, 2335, 2437
14553, 2115, 2049, 1917, 2412
14554, 2049, 1915, 1917, 2050
14555, 2049, 2050, 1917, 2412
14556, 2049, 1928, 2051, 2412
14557, 1915, 1917, 2050, 2617
14558, 2203, 2419, 2205, 2204
14559, 2203, 2419, 2553, 2205
14560, 2203, 2342, 2679, 2079
14561, 2678, 2772, 2679, 2273
14562, 1312, 1310, 1423, 2773
14563, 1814, 2678, 2203, 2342
14564, 1866, 2342, 2203, 2081
14565, 2203, 2342, 2079, 2081
14566, 2565, 2273, 2678, 2679
14567, 1313, 1420, 1310, 1421
14568, 2678, 2679, 2203, 2342
14569, 1949, 1948, 1776, 1947
14570, 1302, 1526, 1847, 1525
14571, 2773, 1597, 2778, 2770
14572, 2773, 2778, 2204, 2772
14573, 2431, 2449, 2433, 2448
14574, 1100, 2431, 2449, 1992
14575, 1275, 1465, 1536, 1538
14576, 1102, 2898, 1101, 2895
14577, 2452, 2431, 1945, 1142
14578, 2453, 2454, 2179, 2448
14579, 2717, 2436, 2746,  120
14580, 2237, 2436, 2717, 2216
14581, 2522, 2717, 2237, 2746
14582, 2717,  105, 2216,  120
14583,  113, 2374,  118,   98
14584, 2374, 2717, 3040, 2522
14585, 2330,  648, 1955, 1082
14586, 2712,  552, 2713, 2749
14587, 1301, 1927, 2799, 2049
14588, 1849, 1199, 1851, 1857
14589, 1084, 1851, 1192, 2233
14590, 2659, 2521,   97, 2658
14591, 2521, 2030, 2659,   97
14592, 2521, 2658, 2248, 3040
14593, 2521, 2529, 1935, 2659
14594, 2374, 2658,   93,   97
14595, 2374, 3040, 2242, 2658
14596, 2374, 2522, 2030,  113
14597, 2374, 2030,   97,   50
14598, 2374, 2030,   50,  113
14599, 2717, 2374, 2242,   98
14600,   95,   93,   98, 2242
14601, 2478, 1688, 2012, 2885
14602, 2670, 2674, 2669, 2673
14603, 2674, 2669, 2133, 2876
14604, 1311, 2393, 1772, 1619
14605, 2968, 2133, 2106, 2673
14606, 2666, 2930, 2310, 2724
14607, 2666, 2780, 2930, 2665
14608, 2721, 2309,  661,  568
14609, 2721, 2310, 2309, 2311
14610, 2566, 1607, 2560, 1809
14611, 2883, 2549, 2548, 2065
14612, 1731, 2320, 2934, 2853
14613, 1197, 2247, 1622, 2184
14614, 1141, 2891, 2548, 2646
14615, 2548, 1140, 2065, 2891
14616, 1141, 2808, 1112, 1711
14617, 1730, 2934, 1603, 2708
14618, 2435, 2052, 2799, 2611
14619, 2320, 2341, 2764, 2787
14620, 2101, 2786, 2317, 1731
14621, 2934, 2320, 2341, 2764
14622, 2098, 2786, 2317, 2101
14623, 1482, 1732, 1485, 1480
14624, 1482, 1734, 1889, 2027
14625, 1482, 2652, 2854, 2027
14626, 1732, 1878, 2588, 2703
14627, 1731, 2784, 2737, 2922
14628, 1606, 1809, 1607, 1609
14629, 1944, 2802, 1139, 1710
14630, 1141, 2808, 2775, 1112
14631, 1141, 2548, 2891, 1140
14632, 1182, 1710, 2569, 2895
14633, 1730, 2864, 2934, 2708
14634, 1141, 1140, 2891, 1711
14635, 2837, 2820, 2839, 2887
14636, 2837, 2887, 2838, 2296
14637, 2837, 1232, 2813, 1239
14638, 2837, 2820, 2814, 2839
14639, 2837, 2814, 2813, 1232
14640, 1674, 2837, 2820, 2814
14641, 1328, 1107, 2402, 1728
14642, 2364, 2388,   27,   28
14643, 2364, 1000, 2358,   28
14644, 2364,   27, 2388,  972
14645, 2364, 2388, 1389, 2939
14646, 2364,  972, 2388, 2939
14647, 1389, 2364,  969, 2363
14648, 2363, 2364,  969, 1000
14649, 1815, 1946, 2549, 1138
14650, 1621, 1560, 1622, 2549
14651, 1140, 1948, 2883, 2636
14652, 2883, 2552, 1663, 2635
14653, 2883, 2552, 2549, 1663
14654, 1061, 1210, 1223, 1064
14655, 1109, 1283, 2362, 1110
14656, 2933, 1110, 1283, 2440
14657, 1704, 2597, 1852, 1855
14658, 1569, 1570, 1568, 1470
14659, 1635, 2442, 2801, 2009
14660, 1282, 2561, 1193, 1284
14661, 1275, 1276, 1468, 1469
14662, 1573, 1919, 1743, 1744
14663, 1195, 1068, 2440, 2775
14664, 2712, 1082, 2986,  550
14665, 2986, 1083, 1082, 1850
14666, 1082, 1081,   12, 2217
14667, 1082, 2986,   12, 1081
14668, 1100, 2707, 2700, 2898
14669, 1071, 1696, 1072, 2108
14670, 1134, 1696, 1073, 1591
14671, 1696, 1795, 2061, 2750
14672, 2567, 2750, 1696, 1695
14673, 2567, 1695, 1698, 1910
14674, 1696, 1795, 1250, 2061
14675, 1696, 2108, 1250, 2107
14676, 1072, 2107, 1696, 1795
14677, 1696, 2512, 2108, 1693
14678, 1110, 2362, 2807, 2302
14679, 1110, 2775, 1070, 2808
14680, 2933, 1110, 1070, 2207
14681, 1109, 2440, 1110, 2775
14682, 1099, 1102, 1536, 1143
14683, 1110, 1112, 2808, 2577
14684, 1110, 1283, 2362, 2933
14685, 1034, 2765,  449,  448
14686, 2905,  448, 1034,  487
14687, 2905, 1034, 2787,  487
14688, 2905, 2818, 2787, 2765
14689, 1034, 2765, 2787, 2764
14690,  486,  487, 1035, 1034
14691, 1034, 2764,  436,  449
14692, 2916, 2222, 1984, 2892
14693, 2905, 2850,  489,  487
14694, 2850, 2202,  484,  485
14695, 2850, 2103, 2202, 2818
14696, 2318, 2818, 2850, 2202
14697, 2850,  489, 2103, 2818
14698, 2318, 2053, 2850, 2787
14699, 1035,  487,  485, 2850
14700, 2638,  434, 2042,  433
14701, 2638, 2737, 1989, 2042
14702, 2638,  437, 2922,  434
14703, 2737, 2922, 2042, 2638
14704, 2916, 2892, 2898, 2884
14705, 2638, 2101, 2737, 2922
14706, 2683, 2682,  939, 2387
14707, 2681,  937, 2683, 2682
14708, 1380, 2682, 2683, 2387
14709, 1582, 2739, 2862, 2637
14710, 2464, 2570,  945,  944
14711, 2681, 2685, 2740, 2686
14712,  854, 2740, 2685, 2686
14713, 1583, 1581, 2571, 2570
14714, 2650, 2656, 2972, 2939
14715, 1982, 1538, 1102, 1536
14716, 2650, 2388,   27,  972
14717, 2650, 2371, 2388, 2939
14718, 2650, 2656,  934, 2972
14719, 2371, 2256,    2, 2281
14720, 2650, 2256,    2, 2371
14721, 2256,    2, 2255, 2972
14722, 1468, 1465, 1731, 1536
14723, 1643, 1149, 1151, 1145
14724, 3037, 3002, 2962, 1646
14725, 2010, 2825, 1897, 2299
14726, 2010, 1646, 2486, 2488
14727, 3000, 2486, 2144, 2961
14728, 1502, 1586, 1835, 1645
14729, 1829, 3000, 2143, 2732
14730, 1769,  237, 1763,  231
14731, 1829, 3000, 2486, 2143
14732, 2010, 2825, 2299, 2961
14733, 2488, 2010, 1646, 3002
14734, 1810, 2849,  923,  922
14735, 1810, 2270,  886,  919
14736, 2971, 1810, 1816, 2849
14737, 1091, 2849, 1089,  922
14738, 2849, 1089,  922, 1810
14739, 2971,  923,  919, 1810
14740,  920, 2971,  923,  919
14741,  922, 1089, 2827, 1810
14742, 1810, 2270, 1827,  886
14743, 2132, 2731, 2131, 2130
14744, 2010, 3000, 2961, 2486
14745, 3000, 2143, 2731, 2144
14746, 3000, 2486, 2143, 2144
14747, 3000, 2731, 2143, 2732
14748, 2010, 1646, 1317, 2486
14749, 1923, 1692, 1149, 1602
14750, 2226, 2596,  559,  557
14751, 2226,  556, 2985,  557
14752, 2226, 2596, 2888,  559
14753, 2226, 2596, 2303, 2888
14754, 2226, 2985,  556, 2251
14755, 2226, 2251, 2303, 2985
14756, 1926,  154, 1925, 1888
14757, 1737, 1011, 1170, 1533
14758, 2191, 2123, 1737, 1736
14759, 2123, 2921, 2758, 1737
14760, 1676, 1330, 2660, 2661
14761, 1901, 1979, 2810, 2908
14762, 2908, 1902, 2405, 1901
14763, 3027, 2709,  999, 1979
14764, 1614, 2944, 2906, 2900
14765, 2908, 1616, 2020, 2944
14766, 2908, 2020, 1616, 1902
14767, 3027, 1900,  999,  645
14768,  720, 2709, 2059,  999
14769, 1355, 1341, 1963, 1374
14770, 1964, 1357, 1934, 1963
14771, 1769, 1762, 2628, 2532
14772, 1514, 1501, 2322, 1628
14773, 1613, 1628, 1326, 1508
14774, 1628, 2405, 2997, 2859
14775, 1514, 2860, 1501, 1499
14776, 1831, 1629, 1837, 2979
14777, 1665, 2621, 2119, 2623
14778, 2024, 1321, 1756, 1757
14779, 1613, 1628, 2997, 2998
14780, 1613, 2997, 1628, 2405
14781, 2016, 2973, 2161, 2126
14782, 2016, 2127, 1732, 2125
14783, 1702, 2016, 2126, 2127
14784, 2016, 2973, 2126, 2125
14785, 1655, 1510, 1504, 1511
14786, 2016, 2125, 1732, 1889
14787, 2694, 2918, 2917, 2706
14788, 2694, 2706, 3016, 2918
14789, 2023, 2127, 2704, 2869
14790, 2156, 2694, 1934, 1357
14791, 2694, 1357, 2156, 3016
14792, 1553, 2813, 2609, 2610
14793, 1966, 3016, 2694, 2706
14794, 1966, 1548, 2948, 2706
14795, 2504, 2597, 2230, 1852
14796, 2037, 1954, 2504, 2733
14797, 2504, 1852, 2230, 2187
14798, 2504, 2440, 1067, 2597
14799, 2150, 2187, 1794, 1852
14800, 2504, 1069, 1068, 2733
14801, 2383,  538, 2355,  540
14802, 2306, 2383, 2355, 2354
14803, 2383, 2307, 2355, 2142
14804,  534, 2307,  536, 2383
14805, 1769,  155, 2532,  230
14806, 2383, 2355,  538, 2142
14807, 2383, 2991,  540, 2354
14808, 1797, 1338, 1795, 2421
14809, 1134, 1797, 2567, 1911
14810, 2567, 1695, 1696, 1698
14811, 1797, 1338, 2422, 1344
14812, 2542, 1797, 2484, 2361
14813, 2007, 1974, 2002, 2373
14814, 2567, 1911, 1797, 2484
14815, 1797, 1344, 2422, 2420
14816, 2420, 1344, 1713, 1797
14817, 2109, 2278, 2829, 2305
14818, 1514, 1508, 1501, 1628
14819, 2901, 2727, 2730, 1830
14820, 2276, 2927, 2208, 2111
14821, 2829, 2828, 2147, 2305
14822, 1481, 2023, 1791, 2587
14823, 2266, 2283, 2828, 2277
14824, 2900, 2906, 2112, 2153
14825, 2007, 1977, 2056, 1782
14826, 2165, 3045,  751, 2135
14827, 2165,  752, 3045, 1739
14828, 2134, 1739, 2165, 2135
14829, 2165, 2135,  751,  734
14830, 2165, 3041,  744,  745
14831, 2165, 3041,  745,  752
14832, 2134, 3041, 2539, 3006
14833, 2134, 2136, 2165, 3006
14834, 2236, 1936, 2237, 1525
14835, 2237, 1847, 2436, 2216
14836, 2236, 1526, 1525, 1847
14837, 2117, 2030, 2521, 2522
14838, 1300, 1642, 1637, 1301
14839, 1052, 1073, 1343, 1344
14840, 1639, 2124, 2118, 1825
14841, 2435, 1525, 1847, 2436
14842, 2435, 2071, 1916, 2069
14843, 1765, 1924, 1769, 2356
14844, 2735, 1777, 1580, 1579
14845, 1580, 2735, 2739, 2736
14846, 1580, 2464, 1582, 1581
14847, 2464,  942, 2686, 2637
14848, 2464,  942, 2471,  944
14849, 2000, 2007, 1909, 1974
14850,  853, 2460,  864, 2862
14851, 1633, 1908, 1903, 1784
14852, 2637, 2460, 2468,  956
14853, 2460, 2637, 2798, 2862
14854, 1889, 2027, 1858, 1891
14855, 1889, 2015, 1858, 2027
14856, 1889, 2125, 1732, 1878
14857, 1889, 1732, 2703, 1878
14858, 1482, 2652, 1732, 1480
14859, 2652, 2027, 1889, 1891
14860, 1734, 1889, 2016, 1732
14861, 1092, 2652, 2369, 1089
14862, 1481, 1845, 2651, 2589
14863, 2651, 2881, 2019, 2589
14864, 2589, 2881, 2019, 1408
14865, 1845, 2844, 1844, 1408
14866, 2476, 2376, 2033, 2034
14867, 3020, 2589, 1408, 2587
14868, 2873, 1842, 1090, 1922
14869, 1505, 1486, 1412, 1482
14870, 1838, 1845, 1843, 1842
14871, 1242, 2847, 1243, 2940
14872, 1243, 2649, 1245, 2940
14873, 1880, 3004, 2847, 1281
14874, 1880, 3004, 1467, 2847
14875, 1880, 1881, 1882, 2848
14876, 1331, 1729, 2649, 2648
14877, 3038,  981, 2848,  589
14878, 2093,  584,  585, 3038
14879,  577, 2093,  584,  585
14880, 3038, 2093, 2848, 3005
14881, 3038, 2093,  584, 3012
14882, 3038, 2093, 3012, 1399
14883, 1313, 1619, 1598, 1487
14884, 2568, 1531, 2422, 1338
14885, 2313, 2657, 1337, 2312
14886, 1359, 1060, 1061, 1354
14887, 1052, 1173, 1344, 1174
14888, 1533, 2095, 1252, 1818
14889, 1937, 2124, 1639, 1783
14890, 1848, 2211, 2982, 2223
14891, 2244, 1955, 1082, 1851
14892, 1084, 1081, 2982, 1193
14893, 2223, 2430, 2217, 2982
14894, 1539, 1983, 2233, 2766
14895, 1148, 1691, 1475, 1406
14896, 2244, 2430,  475, 2099
14897,  475, 2244,  383, 2430
14898, 1631, 1128, 1158, 1911
14899, 1240, 1794, 1352, 1360
14900, 1360, 1333, 1873, 1329
14901, 1360, 2661, 2168, 1333
14902, 1360, 1876, 1329, 1873
14903, 1360, 2152, 2038, 1876
14904, 2564, 1594, 2511, 1592
14905, 1159, 1592, 1969, 2511
14906, 1072, 1795, 1268, 2793
14907, 1977, 2056, 1782, 1971
14908, 1594, 2511, 1115, 2564
14909, 1594, 1350, 2581, 1116
14910, 2087, 1856, 2354, 1886
14911, 2087, 1623, 1886, 2354
14912, 2823, 1833, 2087, 3008
14913, 1689, 2087, 1886, 1856
14914, 2087, 3008, 1833, 1832
14915, 2823, 2660, 2824, 2992
14916, 2823, 2355, 1856, 1853
14917, 2823, 1833, 3008, 2824
14918, 1194, 1198, 1206, 1199
14919, 1482, 2652, 1889, 1732
14920, 1560, 1562, 2549, 2550
14921, 1214, 1622, 1562, 2185
14922, 1211, 1562, 1563, 2701
14923, 1808, 2334, 2337, 2333
14924, 1601, 1436, 1434, 2763
14925, 1562, 2550, 2339, 2246
14926, 1562, 1521, 1563, 2339
14927, 1562, 1622, 2246, 2185
14928, 1182, 1102, 1099, 1101
14929, 1728, 2402, 2945, 2177
14930, 2177, 1884, 1107, 2402
14931, 1956, 1805, 2371, 1804
14932, 1332, 1245, 1243, 1729
14933, 1331, 1448, 1882, 1243
14934, 2402, 1800, 1245, 2146
14935, 1433, 1048, 1862, 1269
14936, 1535, 1800, 2296, 1245
14937, 1752,  103,  104, 2756
14938,   96, 1752,  103,  104
14939, 2756,  500, 1754,  108
14940, 2756,  108, 1748, 2716
14941, 2756, 1748, 1752, 2716
14942, 2756, 1751, 1752, 1754
14943, 2924, 2492, 3046, 2136
14944, 2924, 2925, 3031, 2893
14945, 1830, 1943, 1154, 2804
14946, 1153, 2489, 2343, 2492
14947, 1153, 3035, 2963, 2893
14948, 2747, 2729, 1521, 2339
14949, 1974, 1968, 1976, 1977
14950, 1516, 2031, 1563, 1520
14951, 1516, 1523, 1518, 2031
14952, 1870, 2279, 1521, 2729
14953, 1520, 2339, 2701, 1563
14954, 1212, 1521, 1562, 2550
14955, 1607, 1603, 1730, 1605
14956, 1685, 1684, 2028, 1627
14957, 2810, 1506, 2159, 2684
14958, 2809, 2810, 3017, 1506
14959, 2810, 2284, 3017, 2625
14960, 1968, 1977, 1972, 1971
14961, 1896, 1897, 1895, 2139
14962, 1895, 2595, 2594, 2654
14963, 1692, 1895, 2825, 2876
14964, 1587, 1692, 1687, 1895
14965, 1483, 1817, 1484, 1816
14966, 1252, 1253, 2095, 1255
14967, 1816, 2849, 1740, 2971
14968, 1574, 2270, 1816, 2971
14969, 1574, 1740, 1742, 2971
14970, 2022, 1816, 2270, 1810
14971, 1816, 1091, 1575, 3025
14972, 1816, 3025, 1575, 1920
14973, 1816, 2849, 1810, 1089
14974, 2431, 2449, 2707, 1100
14975, 1101, 2895, 2882, 1710
14976, 1100, 2449, 2898, 2892
14977, 1100, 1992, 1143, 2431
14978, 2707, 2453, 2179, 2448
14979, 1982, 1102, 1143, 1536
14980, 1139, 1140, 1711, 2802
14981, 1101, 2700, 2882, 2898
14982, 1361, 2875, 1346, 1345
14983, 1380, 1395, 1394, 2645
14984, 1381, 2855, 2682, 1666
14985, 1380, 1340, 1666, 2450
14986, 1394, 3024, 1273, 1840
14987, 1777, 1672, 2537, 2875
14988, 1633, 1166, 1135, 1164
14989, 2001, 2173, 2006, 2002
14990, 1977, 1971, 1782, 1972
14991, 1968, 1977, 1975, 1972
14992, 2480, 1632, 2034, 1907
14993, 2004, 2404, 2006, 2045
14994, 1173, 1337, 1338, 1344
14995, 1654, 3017, 2284, 3023
14996, 2003, 2002, 2373, 2007
14997, 1383, 1390, 1386, 1425
14998, 1533, 1818, 1256, 1740
14999, 1443, 1777, 1672, 1491
15000, 1383, 1384, 1387, 1388
15001, 1384, 1906, 1387, 1388
15002, 2670, 2478, 1708, 2013
15003, 1662, 1368, 1169, 1906
15004, 1654, 2970, 3014, 3021
15005, 1805, 1956, 1186, 1804
15006, 1426, 1594, 1350, 2581
15007, 1578, 1427, 1447, 1393
15008, 1779, 1909, 1780, 1782
15009, 1593, 3052, 1426, 1585
15010, 1762, 2532, 2458, 2628
15011, 1765, 1762, 1770, 1764
15012, 1762, 2628, 2458, 2664
15013, 1762, 2462, 1770, 1764
15014, 1532, 1619, 1487, 1306
15015, 2901, 2726, 1615, 2899
15016, 2899,  635, 2944,  994
15017, 2899,  711, 2944, 2900
15018, 2726, 2899, 2157,  712
15019, 2899, 2020, 2944,  635
15020, 1692, 1602, 2876, 2825
15021, 1940, 2277, 2969, 2927
15022, 2415, 2405, 2908, 1616
15023, 2924, 1643, 1145, 2492
15024, 2924, 1153, 3046, 2492
15025, 2924, 3026, 2925, 2969
15026, 1702, 2530, 2016, 2531
15027, 2811, 2159, 2161, 2530
15028, 2705, 1702, 2126, 2704
15029, 2809, 3014, 1654, 2970
15030, 2811, 2159,  867, 2161
15031, 2877, 3015, 2980, 2705
15032, 2705, 3015, 2809, 2970
15033, 1338, 1531, 2422, 1344
15034, 1052, 1173, 1338, 1344
15035, 1268, 2793, 1795, 1338
15036, 1466, 1175, 1174, 1431
15037, 1805, 1860, 2442, 2256
15038, 2313, 2793, 2657, 2477
15039, 2393, 1772, 1530, 2312
15040, 1703, 2811, 2530, 2159
15041, 1197, 1068, 2775, 1070
15042, 1197, 1070, 2775, 2646
15043, 1863, 1867, 2196, 2333
15044, 2516, 1867, 2333, 2515
15045, 1867, 2719, 2631, 2630
15046, 1867, 2196, 2199, 2631
15047, 1867, 2199, 2333, 2515
15048, 2858, 2121, 2119, 1998
15049, 2858, 2121, 1998, 2138
15050, 1998, 1411, 2858, 2274
15051, 1122, 2758, 2009, 2621
15052, 1411, 2858, 2274, 2105
15053, 2858, 2274, 2138, 1998
15054, 2565, 2679, 2678, 2342
15055, 2565, 2342, 2796, 2679
15056, 2565, 2563, 2796, 2947
15057, 2565, 2563, 2688, 2796
15058, 1809, 2566, 2565, 2687
15059, 2565, 2688, 2563, 2687
15060, 1095, 2008, 1805, 2009
15061, 2442, 2801, 2974, 2215
15062, 2974, 2757, 2009, 2256
15063, 1651, 2586, 1859, 1649
15064, 1652, 1649, 2714, 1862
15065, 2055, 1312, 1595, 1311
15066, 2055, 2579, 2698, 2393
15067, 2347, 2055, 1312, 1595
15068, 1312, 1597, 2612, 2778
15069, 2416, 2612, 1597, 2264
15070, 1420, 1312, 2416, 1772
15071, 1420, 1310, 1423, 1312
15072, 2773, 1595, 2419, 2329
15073, 1595, 2272, 2788, 2328
15074, 2315, 2233, 1851, 2195
15075, 2233, 2099, 2244, 1851
15076, 2561, 2211, 1274, 1284
15077, 2561, 1274, 1193, 1284
15078, 1538, 2916, 2222, 1984
15079, 2233, 2297, 2766, 1983
15080, 1436, 1434, 2763, 1437
15081, 2008, 1956, 1805, 2757
15082, 1804, 1805, 2715, 1270
15083, 1099, 2453, 1100, 2431
15084, 2340, 2341, 1438, 2765
15085, 2036,   87,   86, 2400
15086,   85, 2036,   87,   86
15087, 2398,  179, 2400,   86
15088, 2400,  180,   87,  179
15089, 2173, 2171, 2398, 2400
15090,  180, 2540, 2400, 2479
15091, 2480, 2482, 1975, 1632
15092, 2400,   86, 2036, 2399
15093, 2173, 2033, 2171, 2400
15094, 1824, 1821,  135,  129
15095, 1820,  209, 2044,  205
15096, 1638, 2407, 2044, 1767
15097, 2407, 2426, 1823, 2044
15098, 2407, 2409, 1767, 2776
15099, 2751, 2407, 2776, 2777
15100, 2000, 2476, 1783, 2585
15101, 1825, 2498, 2496, 2710
15102, 1348, 2498, 2496, 1825
15103, 2497, 1525, 2496, 2710
15104, 1525, 2496, 2710, 2118
15105, 2118, 1525, 2496, 2746
15106, 1639, 1936, 1526, 2118
15107, 1054, 1305, 1053, 1430
15108, 2236, 1526, 1178, 1936
15109, 2000, 1781, 2007, 2003
15110, 1526, 2118, 1936, 1525
15111, 1343, 1797, 1786, 1713
15112, 1526, 2118, 1525, 2710
15113, 2000, 2004, 1780, 1781
15114, 2385, 2551,   73, 2744
15115, 2033, 2376, 2389, 2390
15116, 2482, 2744, 2155, 2551
15117, 2480, 2744, 2385, 2400
15118, 1552,  169, 2744, 2479
15119,  169,  168, 2479, 1552
15120,  169, 2744, 2155, 1552
15121, 2002, 2173, 2398, 2001
15122, 2001, 1973, 2540, 1974
15123, 2480, 2482, 2551, 2744
15124, 2005, 2173, 2172, 2395
15125, 2005, 2376, 2585, 2041
15126, 1145, 1147, 1643, 1149
15127, 2932, 2174,  895, 2175
15128, 2508, 1341, 1933, 2932
15129, 2932,  903, 1340, 2175
15130, 1933, 1340, 1841, 2175
15131, 1355, 1374, 1964, 2162
15132, 2932,  895, 2508,  826
15133, 2545, 2522, 2806,  112
15134, 2545, 2522,  112,  113
15135, 2545, 2030,  111, 1899
15136, 1899, 2545, 2117, 1348
15137, 2545,  113, 2030, 2522
15138, 2545, 1899,  111,  114
15139, 2005, 2585, 2394, 2041
15140, 2005, 2173, 2395, 2541
*Nset, nset=Set-1, generate
    1,  3052,     1
*Elset, elset=Set-1, generate
     1,  15140,      1
*Elset, elset=_contact_S3, internal
    28,   113,   114,   145,   298,   363,   364,   419,   427,   462,   485,   500,   557,   585,   586,   667
   692,   699,   807,   873,   924,  1023,  1045,  1129,  1158,  1202,  1381,  1382,  1405,  1417,  1449,  1494
  1507,  1521,  1539,  1549,  1614,  1617,  1627,  1629,  1633,  1642,  1643,  1646,  1649,  1650,  1653,  1654
  1656,  1658,  1659,  1660,  1661,  1662,  1665,  1667,  1672,  1678,  1681,  1683,  1688,  1689,  1698,  1704
  1706,  1707,  1713,  1716,  1721,  1731,  1732,  1737,  1741,  1746,  1750,  1751,  1754,  1755,  1763,  1764
  1765,  1770,  1775,  1776,  1779,  1780,  1781,  1790,  1795,  1800,  1801,  1804,  1807,  1808,  1809,  1812
  1813,  1814,  1817,  1818,  1821,  1822,  1823,  1825,  1827,  1831,  1837,  1841,  1843,  1852,  1854,  1856
  1860,  1862,  1867,  1871,  1878,  1882,  1883,  1884,  1888,  1890,  1891,  1892,  1893,  1894,  1897,  1904
  1905,  1906,  1910,  1913,  1915,  1920,  1921,  1924,  1927,  1928,  1935,  1936,  1940,  1942,  1943,  1946
  1947,  1949,  1950,  1953,  1954,  1956,  1957,  1958,  1960,  1963,  1964,  1970,  1971,  1974,  1975,  1976
  1978,  1979,  1987,  1990,  1992,  1995,  1998,  2005,  2007,  2013,  2014,  2023,  2024,  2027,  2032,  2035
  2039,  2040,  2050,  2055,  2059,  2061,  2065,  2067,  2068,  2071,  2074,  2076,  2086,  2089,  2090,  2092
  2099,  2101,  2102,  2103,  2106,  2109,  2112,  2117,  2118,  2120,  2123,  2124,  2127,  2129,  2134,  2138
  2141,  2144,  2145,  2147,  2148,  2149,  2152,  2154,  2155,  2162,  2163,  2165,  2170,  2172,  2173,  2178
  2179,  2180,  2184,  2185,  2187,  2191,  2193,  2195,  2196,  2203,  2205,  2206,  2209,  2212,  2221,  2226
  2227,  2231,  2233,  2236,  2237,  2243,  2244,  2245,  2246,  2248,  2257,  2259,  2261,  2271,  2273,  2275
  2276,  2282,  2289,  2290,  2291,  2297,  2301,  2304,  2306,  2312,  2313,  2317,  2319,  2320,  2332,  2338
  2339,  2343,  2344,  2350,  2351,  2352,  2359,  2360,  2361,  2368,  2373,  2380,  2381,  2386,  2387,  2389
  2390,  2396,  2397,  2400,  2408,  2409,  2411,  2415,  2416,  2420,  2431,  2432,  2436,  2441,  2443,  2450
  2456,  2460,  2461,  2462,  2463,  2467,  2468,  2469,  2474,  2475,  2476,  2477,  2487,  2488,  2491,  2492
  2495,  2496,  2500,  2503,  2504,  2505,  2507,  2510,  2512,  2519,  2526,  2527,  2530,  2532,  2536,  2538
  2539,  2543,  2550,  2564,  2566,  2570,  2578,  2585,  2586,  2593,  2595,  2597,  2598,  2609,  2613,  2618
  2623,  2624,  2626,  2633,  2634,  2638,  2642,  2644,  2647,  2655,  2661,  2662,  2665,  2666,  2672,  2673
  2677,  2686,  2687,  2689,  2690,  2693,  2697,  2703,  2705,  2709,  2710,  2713,  2715,  2720,  2721,  2723
  2733,  2737,  2742,  2745,  2746,  2747,  2748,  2751,  2752,  2753,  2754,  2756,  2758,  2765,  2766,  2768
  2769,  2779,  2781,  2787,  2788,  2794,  2796,  2800,  2801,  2802,  2808,  2813,  2814,  2817,  2818,  2822
  2823,  2826,  2828,  2830,  2833,  2839,  2840,  2841,  2845,  2847,  2848,  2849,  2854,  2858,  2859,  2868
  2869,  2870,  2871,  2872,  2873,  2874,  2877,  2882,  2883,  2886,  2887,  2888,  2902,  2905,  2909,  2913
  2915,  2918,  2919,  2922,  2928,  2930,  2933,  2935,  2937,  2939,  2945,  2957,  2960,  2965,  2967,  2968
  2973,  2974,  2979,  2980,  2982,  2983,  2985,  2986,  2995,  2996,  3006,  3011,  3012,  3013,  3015,  3021
  3024,  3027,  3035,  3036,  3038,  3041,  3043,  3050,  3052,  3056,  3065,  3066,  3067,  3068,  3069,  3072
  3079,  3083,  3085,  3086,  3089,  3090,  3091,  3092,  3093,  3096,  3099,  3104,  3110,  3111,  3112,  3113
  3114,  3118,  3120,  3121,  3123,  3125,  3130,  3135,  3140,  3143,  3145,  3149,  3150,  3151,  3155,  3156
  3158,  3161,  3165,  3179,  3183,  3186,  3187,  3190,  3191,  3192,  3198,  3208,  3214,  3215,  3220,  3226
  3233,  3239,  3245,  3247,  3248,  3249,  3250,  3252,  3257,  3260,  3263,  3264,  3265,  3274,  3275,  3283
  3286,  3288,  3289,  3296,  3297,  3299,  3300,  3301,  3302,  3304,  3307,  3310,  3314,  3317,  3319,  3324
  3328,  3331,  3332,  3334,  3338,  3345,  3346,  3347,  3353,  3356,  3360,  3364,  3375,  3376,  3379,  3381
  3382,  3385,  3386,  3390,  3391,  3393,  3395,  3396,  3408,  3416,  3419,  3423,  3425,  3432,  3433,  3434
  3435,  3450,  3452,  3457,  3458,  3459,  3464,  3470,  3474,  3475,  3480,  3484,  3487,  3488,  3489,  3493
  3495,  3497,  3499,  3501,  3505,  3506,  3508,  3509,  3512,  3514,  3515,  3519,  3520,  3521,  3522,  3525
  3526,  3527,  3532,  3536,  3538,  3542,  3545,  3546,  3548,  3553,  3558,  3559,  3560,  3562,  3571,  3572
  3573,  3578,  3579,  3580,  3588,  3589,  3590,  3593,  3601,  3602,  3604,  3606,  3611,  3613,  3617,  3623
  3626,  3630,  3636,  3637,  3642,  3647,  3654,  3656,  3657,  3658,  3661,  3666,  3669,  3677,  3678,  3681
  3682,  3684,  3688,  3691,  3697,  3702,  3703,  3706,  3708,  3712,  3717,  3718,  3719,  3722,  3723,  3727
  3731,  3733,  3738,  3742,  3747,  3749,  3751,  3752,  3754,  3755,  3756,  3757,  3758,  3764,  3768,  3773
  3774,  3775,  3780,  3781,  3784,  3786,  3793,  3797,  3799,  3804,  3806,  3807,  3808,  3813,  3814,  3815
  3819,  3821,  3822,  3823,  3829,  3831,  3834,  3835,  3836,  3837,  3840,  3841,  3848,  3850,  3859,  3860
  3862,  3873,  3879,  3880,  3881,  3883,  3887,  3889,  3893,  3900,  3905,  3911,  3919,  3920,  3925,  3932
  3937,  3944,  3948,  3949,  3951,  3952,  3958,  3959,  3960,  3963,  3964,  3967,  3968,  3971,  3972,  3976
  3980,  3988,  3993,  3996,  4000,  4004,  4007,  4015,  4020,  4024,  4027,  4032,  4033,  4035,  4040,  4048
  4053,  4058,  4059,  4060,  4065,  4066,  4070,  4071,  4074,  4081,  4087,  4092,  4100,  4103,  4106,  4107
  4113,  4114,  4115,  4124,  4125,  4127,  4134,  4135,  4140,  4143,  4144,  4146,  4160,  4163,  4164,  4172
  4177,  4180,  4185,  4186,  4191,  4198,  4204,  4206,  4212,  4213,  4217,  4218,  4221,  4222,  4224,  4228
  4229,  4231,  4237,  4245,  4246,  4247,  4248,  4254,  4262,  4264,  4270,  4275,  4278,  4279,  4280,  4285
  4289,  4294,  4297,  4299,  4300,  4302,  4304,  4312,  4318,  4322,  4331,  4334,  4340,  4343,  4348,  4354
  4360,  4361,  4369,  4370,  4372,  4375,  4378,  4380,  4386,  4401,  4404,  4408,  4410,  4416,  4417,  4422
  4428,  4431,  4434,  4437,  4439,  4441,  4442,  4444,  4445,  4447,  4448,  4449,  4452,  4456,  4459,  4462
  4470,  4471,  4472,  4477,  4486,  4490,  4499,  4507,  4517,  4518,  4522,  4526,  4529,  4540,  4548,  4553
  4559,  4560,  4561,  4563,  4566,  4568,  4569,  4576,  4580,  4581,  4582,  4586,  4588,  4590,  4593,  4596
  4600,  4601,  4602,  4604,  4611,  4612,  4613,  4614,  4624,  4628,  4637,  4640,  4648,  4654,  4655,  4657
  4660,  4663,  4666,  4672,  4673,  4674,  4675,  4679,  4683,  4685,  4686,  4692,  4695,  4699,  4700,  4701
  4702,  4703,  4704,  4709,  4713,  4719,  4722,  4725,  4726,  4731,  4735,  4736,  4738,  4739,  4740,  4742
  4747,  4749,  4753,  4755,  4761,  4762,  4764,  4768,  4775,  4776,  4781,  4784,  4786,  4792,  4796,  4797
  4798,  4805,  4808,  4810,  4813,  4815,  4816,  4820,  4826,  4831,  4832,  4833,  4836,  4837,  4841,  4842
  4850,  4856,  4858,  4862,  4876,  4882,  4883,  4888,  4892,  4893,  4899,  4901,  4907,  4912,  4914,  4918
  4920,  4924,  4928,  4932,  4937,  4943,  4945,  4950,  4951,  4953,  4955,  4956,  4957,  4959,  4960,  4962
  4965,  4967,  4968,  4971,  4972,  4978,  4979,  4982,  4983,  4989,  4990,  5001,  5005,  5007,  5008,  5011
  5012,  5015,  5016,  5026,  5028,  5029,  5030,  5031,  5034,  5036,  5042,  5043,  5044,  5045,  5054,  5056
  5057,  5062,  5063,  5065,  5069,  5071,  5074,  5075,  5079,  5086,  5087,  5093,  5100,  5101,  5106,  5107
  5111,  5117,  5121,  5124,  5125,  5132,  5133,  5134,  5135,  5137,  5139,  5140,  5143,  5150,  5153,  5154
  5161,  5162,  5168,  5172,  5178,  5179,  5180,  5181,  5187,  5190,  5196,  5198,  5200,  5205,  5206,  5207
  5212,  5213,  5215,  5217,  5219,  5220,  5222,  5227,  5231,  5234,  5237,  5240,  5244,  5253,  5254,  5260
  5265,  5266,  5269,  5271,  5280,  5285,  5291,  5295,  5297,  5298,  5299,  5303,  5311,  5314,  5320,  5323
  5324,  5327,  5331,  5333,  5335,  5336,  5337,  5342,  5343,  5353,  5354,  5355,  5362,  5363,  5369,  5370
  5371,  5373,  5376,  5379,  5380,  5381,  5385,  5386,  5388,  5392,  5394,  5396,  5398,  5414,  5416,  5434
  5440,  5441,  5442,  5445,  5447,  5454,  5455,  5459,  5460,  5464,  5470,  5471,  5473,  5482,  5483,  5484
  5486,  5488,  5490,  5496,  5500,  5502,  5505,  5506,  5507,  5508,  5515,  5517,  5518,  5520,  5521,  5527
  5528,  5530,  5532,  5535,  5536,  5541,  5543,  5548,  5549,  5550,  5552,  5562,  5563,  5566,  5576,  5592
  5593,  5594,  5598,  5600,  5603,  5605,  5607,  5609,  5612,  5614,  5621,  5626,  5632,  5635,  5637,  5638
  5641,  5646,  5647,  5648,  5652,  5657,  5661,  5665,  5666,  5667,  5671,  5673,  5679,  5681,  5684,  5700
  5702,  5706,  5713,  5714,  5716,  5719,  5731,  5734,  5735,  5737,  5740,  5741,  5743,  5746,  5748,  5754
  5760,  5762,  5766,  5768,  5769,  5777,  5778,  5780,  5785,  5789,  5793,  5795,  5804,  5805,  5808,  5809
  5812,  5817,  5818,  5834,  5836,  5837,  5841,  5853,  5854,  5857,  5859,  5860,  5861,  5862,  5863,  5864
  5879,  5880,  5882,  5883,  5888,  5890,  5893,  5894,  5896,  5899,  5902,  5903,  5904,  5905,  5906,  5909
  5911,  5916,  5917,  5922,  5929,  5930,  5931,  5939,  5950,  5957,  5958,  5960,  5961,  5962,  5964,  5970
  5972,  5986,  5987,  5992,  5993,  5995,  5997,  6000,  6007,  6021,  6022,  6025,  6027,  6032,  6033,  6036
  6037,  6038,  6039,  6040,  6041,  6045,  6049,  6050,  6054,  6058,  6059,  6060,  6062,  6064,  6070,  6072
  6073,  6074,  6075,  6078,  6079,  6086,  6093,  6097,  6100,  6103,  6104,  6109,  6111,  6118,  6120,  6121
  6127,  6137,  6142,  6145,  6146,  6149,  6152,  6155,  6161,  6164,  6165,  6168,  6171,  6174,  6181,  6182
  6185,  6188,  6191,  6193,  6198,  6203,  6204,  6207,  6209,  6210,  6211,  6212,  6213,  6219,  6221,  6222
  6223,  6227,  6228,  6235,  6237,  6240,  6242,  6245,  6251,  6252,  6258,  6259,  6265,  6266,  6267,  6268
  6269,  6270,  6271,  6272,  6275,  6277,  6281,  6282,  6285,  6287,  6292,  6293,  6294,  6299,  6302,  6303
  6306,  6307,  6311,  6312,  6316,  6318,  6321,  6326,  6334,  6343,  6344,  6345,  6349,  6353,  6357,  6359
  6364,  6365,  6369,  6375,  6377,  6383,  6388,  6394,  6397,  6401,  6406,  6407,  6413,  6417,  6420,  6425
  6426,  6428,  6430,  6438,  6440,  6441,  6453,  6454,  6456,  6467,  6478,  6480,  6482,  6484,  6486,  6487
  6488,  6490,  6492,  6497,  6498,  6505,  6509,  6511,  6514,  6519,  6521,  6522,  6530,  6533,  6535,  6540
  6541,  6547,  6548,  6550,  6560,  6564,  6569,  6572,  6573,  6575,  6580,  6581,  6582,  6583,  6587,  6588
  6589,  6590,  6597,  6600,  6601,  6603,  6607,  6609,  6612,  6620,  6627,  6631,  6641,  6650,  6655,  6659
  6661,  6665,  6666,  6672,  6677,  6678,  6681,  6684,  6690,  6696,  6697,  6702,  6708,  6709,  6716,  6717
  6718,  6721,  6725,  6726,  6732,  6737,  6741,  6744,  6746,  6748,  6752,  6761,  6765,  6767,  6770,  6771
  6775,  6779,  6782,  6786,  6788,  6789,  6792,  6798,  6799,  6801,  6804,  6805,  6809,  6810,  6820,  6823
  6824,  6825,  6826,  6827,  6835,  6837,  6839,  6841,  6842,  6847,  6849,  6850,  6856,  6857,  6866,  6869
  6872,  6873,  6874,  6881,  6884,  6885,  6893,  6894,  6898,  6899,  6902,  6903,  6905,  6907,  6911,  6912
  6916,  6918,  6921,  6923,  6929,  6932,  6939,  6940,  6947,  6952,  6959,  6963,  6964,  6966,  6967,  6971
  6972,  6976,  6977,  6982,  6983,  6985,  6990,  6991,  6992,  6994,  6995,  6997,  7004,  7005,  7007,  7012
  7013,  7022,  7027,  7032,  7036,  7040,  7042,  7043,  7047,  7048,  7051,  7055,  7057,  7058,  7061,  7073
  7076,  7083,  7085,  7089,  7100,  7105,  7106,  7115,  7120,  7122,  7129,  7132,  7142,  7147,  7148,  7149
  7152,  7158,  7159,  7163,  7168,  7169,  7170,  7174,  7175,  7178,  7180,  7184,  7188,  7190,  7191,  7193
  7195,  7196,  7199,  7208,  7209,  7215,  7225,  7226,  7233,  7235,  7242,  7245,  7250,  7252,  7254,  7255
  7256,  7280,  7292,  7294,  7297,  7298,  7300,  7304,  7308,  7309,  7313,  7314,  7315,  7319,  7320,  7321
  7328,  7331,  7332,  7334,  7338,  7341,  7343,  7354,  7356,  7362,  7366,  7379,  7381,  7392,  7394,  7397
  7399,  7400,  7402,  7407,  7409,  7410,  7411,  7415,  7419,  7420,  7421,  7422,  7423,  7424,  7429,  7430
  7431,  7437,  7439,  7441,  7445,  7446,  7448,  7449,  7461,  7462,  7470,  7471,  7473,  7478,  7480,  7481
  7484,  7485,  7487,  7491,  7498,  7499,  7502,  7504,  7508,  7515,  7516,  7519,  7527,  7531,  7535,  7537
  7541,  7542,  7543,  7544,  7545,  7548,  7553,  7554,  7557,  7559,  7572,  7712,  7738,  7741,  7742,  7779
  7780,  7782,  7785,  7857,  7870,  7967,  8133,  8170,  8190,  8191,  8280,  8282,  8368,  8573,  8759,  8802
  8830,  8837,  8838,  8909,  8918,  8996,  9134,  9148,  9160,  9214,  9236,  9445,  9447,  9492,  9786,  9965
 10069, 10119, 10256, 10257, 10376, 10625, 10778, 11090, 11245, 11281, 11539, 11689, 11979, 12500, 12830, 13135
 14513, 15088
*Elset, elset=_contact_S2, internal
    47,  1789,  2064,  2128,  2136,  2153,  2354,  2445,  2511,  2617,  2656,  2809,  3008,  3076,  3276,  3463
  4132,  4139,  4273,  4281,  4733,  4778,  4873,  5096,  5273,  5404,  5645,  5810,  6089,  6094,  6322,  6694
  7524, 10243, 11060
*Elset, elset=_contact_S1, internal
    80,  2398,  3282,  4145,  4676,  4741,  5584,  5727,  6055,  6969,  8016,  8095, 10384, 12160, 12630, 13164
 13322, 13412, 14600
*Elset, elset=_contact_S4, internal
  1703,  1881,  2166,  2299,  2449,  2471,  2645,  3172,  3193,  3277,  3413,  3716,  3929,  4359,  4455,  4549
  4765,  4879,  5081,  5458,  5606,  5659,  6108,  6613,  6679,  6762,  7050,  7288,  7443,  7781,  7815,  7996
  8055,  8185,  8189,  8760,  9033,  9070,  9190,  9299,  9346,  9408,  9894,  9952, 10068, 10190, 10643, 10729
 10774, 10777, 10939, 11000, 11171, 11537, 11598, 11690, 11811, 11941, 12001, 12812, 13147, 13177, 13521, 13869
 13924, 14022, 14093, 14583, 14740, 14879, 14938, 15086
*Surface, type=ELEMENT, name=contact
_contact_S3, S3
_contact_S2, S2
_contact_S4, S4
_contact_S1, S1
** Section: Section-1
*Solid Section, elset=Set-1, material=Material-1
,
*End Part
**  
**
** ASSEMBLY
**
*Assembly, name=Assembly
**  
*Instance, name=rec-1, part=block
*End Instance
**  
*End Assembly
** 
** MATERIALS
** 
*Material, name=Material-1
*Hyperelastic, neo hooke
1.,1.
** ----------------------------------------------------------------
** 
** STEP: Step-1
** 
*Step, name=Step-1, nlgeom=YES
*Static
1., 1., 1e-05, 1.
** 
** OUTPUT REQUESTS
** 
*Restart, write, frequency=0
** 
** FIELD OUTPUT: F-Output-1
** 
*Output, field, variable=PRESELECT
** 
** HISTORY OUTPUT: H-Output-1
** 
*Output, history, variable=PRESELECT
*End Step
